
     Program PWSCF v.7.2 starts on 28Aug2026 at  9: 1:53 

     This program is part of the open-source Quantum ESPRESSO suite
     for quantum simulation of materials; please cite
         "P. Giannozzi et al., J. Phys.:Condens. Matter 21 395502 (2009);
         "P. Giannozzi et al., J. Phys.:Condens. Matter 29 465901 (2017);
         "P. Giannozzi et al., J. Chem. Phys. 152 154105 (2020);
          URL http://www.quantum-espresso.org", 
     in publications or presentations arising from this work. More details at
     http://www.quantum-espresso.org/quote

     Parallel version (MPI), running on    32 processors

     MPI processes distributed on     1 nodes
     188304 MiB available memory on the printing compute node when the environment starts

     Waiting for input...
     Reading input from standard input

     Current dimensions of program PWSCF are:
     Max number of different atomic species (ntypx) = 10
     Max number of k-points (npk) =  40000
     Max angular momentum in pseudopotentials (lmaxx) =  4
     file Zr.pbe-spn-kjpaw_psl.1.0.0.UPF: wavefunction(s)  4S 4P renormalized
     file Cl.pbe-n-kjpaw_psl.1.0.0.UPF: wavefunction(s)  3S 3P renormalized
     file Br.pbe-n-kjpaw_psl.1.0.0.UPF: wavefunction(s)  4S 4P renormalized
     Message from routine setup:
     using ibrav=0 with symmetry is DISCOURAGED, use correct ibrav instead

     R & G space division:  proc/nbgrp/npool/nimage =      32
     Subspace diagonalization in iterative solution of the eigenvalue problem:
     a serial algorithm will be used


     Parallelization info
     --------------------
     sticks:   dense  smooth     PW     G-vecs:    dense   smooth      PW
     Min          24      24      6                 1566     1566     234
     Max          25      25      7                 1579     1579     253
     Sum         769     769    223                50293    50293    7859

     Using Slab Decomposition



     bravais-lattice index     =            0
     lattice parameter (alat)  =       6.5934  a.u.
     unit-cell volume          =     711.4628 (a.u.)^3
     number of atoms/cell      =            3
     number of atomic types    =            3
     number of electrons       =        26.00
     number of Kohn-Sham states=           26
     kinetic-energy cutoff     =      65.0000  Ry
     charge density cutoff     =     260.0000  Ry
     scf convergence threshold =      1.0E-06
     mixing beta               =       0.7000
     number of iterations used =            8  plain     mixing
     Exchange-correlation= SLA  PW   PBX  PBC
                           (   1   4   3   4   0   0   0)

     celldm(1)=   6.593429  celldm(2)=   0.000000  celldm(3)=   0.000000
     celldm(4)=   0.000000  celldm(5)=   0.000000  celldm(6)=   0.000000

     crystal axes: (cart. coord. in units of alat)
               a(1) = (   1.000000  -0.000000   0.000000 )  
               a(2) = (  -0.500000   0.866025  -0.000000 )  
               a(3) = (   0.000000   0.000000   2.866075 )  

     reciprocal axes: (cart. coord. in units 2 pi/alat)
               b(1) = (  1.000000  0.577350 -0.000000 )  
               b(2) = (  0.000000  1.154701 -0.000000 )  
               b(3) = (  0.000000  0.000000  0.348909 )  


     PseudoPot. # 1 for Zr read from file:
     /mgpfs/home/rabdillah/repo/qe/pseudo/Zr.pbe-spn-kjpaw_psl.1.0.0.UPF
     MD5 check sum: 02112c41713a0468aff2bb39ef194e36
     Pseudo is Projector augmented-wave + core cor, Zval = 12.0
     Generated using &quot;atomic&quot; code by A. Dal Corso  v.6.2.2
     Shape of augmentation charge: PSQ
     Using radial grid of 1225 points,  6 beta functions with: 
                l(1) =   0
                l(2) =   0
                l(3) =   1
                l(4) =   1
                l(5) =   2
                l(6) =   2
     Q(r) pseudized with 0 coefficients 


     PseudoPot. # 2 for Cl read from file:
     /mgpfs/home/rabdillah/repo/qe/pseudo/Cl.pbe-n-kjpaw_psl.1.0.0.UPF
     MD5 check sum: 530da96d25dcb7781b0586ca00827062
     Pseudo is Projector augmented-wave + core cor, Zval =  7.0
     Generated using &quot;atomic&quot; code by A. Dal Corso  v.6.3
     Shape of augmentation charge: PSQ
     Using radial grid of 1157 points,  6 beta functions with: 
                l(1) =   0
                l(2) =   0
                l(3) =   1
                l(4) =   1
                l(5) =   2
                l(6) =   2
     Q(r) pseudized with 0 coefficients 


     PseudoPot. # 3 for Br read from file:
     /mgpfs/home/rabdillah/repo/qe/pseudo/Br.pbe-n-kjpaw_psl.1.0.0.UPF
     MD5 check sum: b00de77caabc69c0a6b76eb37264f235
     Pseudo is Projector augmented-wave + core cor, Zval =  7.0
     Generated using &quot;atomic&quot; code by A. Dal Corso  v.6.3
     Shape of augmentation charge: PSQ
     Using radial grid of 1213 points,  4 beta functions with: 
                l(1) =   0
                l(2) =   0
                l(3) =   1
                l(4) =   1
     Q(r) pseudized with 0 coefficients 


     atomic species   valence    mass     pseudopotential
        Zr            12.00    91.22400     Zr( 1.00)
        Cl             7.00    35.45300     Cl( 1.00)
        Br             7.00    79.90400     Br( 1.00)

      6 Sym. Ops. (no inversion) found



   Cartesian axes

     site n.     atom                  positions (alat units)
         1           Zr  tau(   1) = (   0.0000000   0.0000000   2.9453878  )
         2           Cl  tau(   2) = (  -0.0000000   0.5773503   3.4291986  )
         3           Br  tau(   3) = (  -0.0000000   0.5773503   2.4137016  )

     number of k points=  5590

     Number of k-points >= 100: set verbosity='high' to print them.

     Dense  grid:    50293 G-vectors     FFT dimensions: (  36,  36, 100)

     Estimated max dynamical RAM per process >     444.34 MB

     Estimated total dynamical RAM >      13.89 GB

     Check: negative core charge=   -0.000004

     Initial potential from superposition of free atoms

     starting charge      25.9978, renormalised to      26.0000
     Starting wfcs are   21 randomized atomic wfcs +    5 random wfcs
     Checking if some PAW data can be deallocated... 

     total cpu time spent up to now is    14041.2 secs

     Self-consistent Calculation

     iteration #  1     ecut=    65.00 Ry     beta= 0.70
     Davidson diagonalization with overlap
     ethr =  1.00E-02,  avg # of iterations =  6.6

     Threshold (ethr) on eigenvalues was too large:
     Diagonalizing with lowered threshold

     Davidson diagonalization with overlap
     ethr =  4.46E-04,  avg # of iterations =  2.2

     negative rho (up, down):  1.205E-06 0.000E+00

     total cpu time spent up to now is    46728.0 secs

     total energy              =    -591.18533009 Ry
     estimated scf accuracy    <       0.11931956 Ry

     iteration #  2     ecut=    65.00 Ry     beta= 0.70
     Davidson diagonalization with overlap
     ethr =  4.59E-04,  avg # of iterations =  4.9

     total cpu time spent up to now is    46891.2 secs

     total energy              =    -591.17960762 Ry
     estimated scf accuracy    <       0.32738176 Ry

     iteration #  3     ecut=    65.00 Ry     beta= 0.70
     Davidson diagonalization with overlap
     ethr =  4.59E-04,  avg # of iterations =  2.6

     total cpu time spent up to now is    47015.9 secs

     total energy              =    -591.24263314 Ry
     estimated scf accuracy    <       0.00662379 Ry

     iteration #  4     ecut=    65.00 Ry     beta= 0.70
     Davidson diagonalization with overlap
     ethr =  2.55E-05,  avg # of iterations =  6.5

     negative rho (up, down):  2.551E-08 0.000E+00

     total cpu time spent up to now is    47157.8 secs

     total energy              =    -591.24415383 Ry
     estimated scf accuracy    <       0.00039982 Ry

     iteration #  5     ecut=    65.00 Ry     beta= 0.70
     Davidson diagonalization with overlap
     c_bands:  1 eigenvalues not converged
     c_bands:  1 eigenvalues not converged
     c_bands:  1 eigenvalues not converged
     c_bands:  1 eigenvalues not converged
     c_bands:  1 eigenvalues not converged
     c_bands:  1 eigenvalues not converged
     c_bands:  1 eigenvalues not converged
     ethr =  1.54E-06,  avg # of iterations =  4.6

     negative rho (up, down):  3.236E-08 0.000E+00

     total cpu time spent up to now is    47299.9 secs

     total energy              =    -591.24422371 Ry
     estimated scf accuracy    <       0.00001277 Ry

     iteration #  6     ecut=    65.00 Ry     beta= 0.70
     Davidson diagonalization with overlap
     ethr =  4.91E-08,  avg # of iterations =  2.0

     negative rho (up, down):  3.625E-08 0.000E+00

     total cpu time spent up to now is    47410.4 secs

     total energy              =    -591.24422520 Ry
     estimated scf accuracy    <       0.00000477 Ry

     iteration #  7     ecut=    65.00 Ry     beta= 0.70
     Davidson diagonalization with overlap
     ethr =  1.84E-08,  avg # of iterations =  2.0

     negative rho (up, down):  3.922E-08 0.000E+00

     total cpu time spent up to now is    47515.6 secs

     total energy              =    -591.24422664 Ry
     estimated scf accuracy    <       0.00000211 Ry

     iteration #  8     ecut=    65.00 Ry     beta= 0.70
     Davidson diagonalization with overlap
     ethr =  8.12E-09,  avg # of iterations =  1.1

     negative rho (up, down):  4.012E-08 0.000E+00

     total cpu time spent up to now is    47611.3 secs

     End of self-consistent calculation

     Number of k-points >= 100: set verbosity='high' to print the bands.

     highest occupied, lowest unoccupied level (ev):     4.8960    5.7991

!    total energy              =    -591.24422703 Ry
     total all-electron energy =    -13333.877503 Ry
     estimated scf accuracy    <       0.00000001 Ry

     The total energy is the sum of the following terms:
     one-electron contribution =    -204.84473363 Ry
     hartree contribution      =     110.33681087 Ry
     xc contribution           =     -37.60519782 Ry
     ewald contribution        =     -28.01442421 Ry
     one-center paw contrib.   =    -431.11668225 Ry

     convergence has been achieved in   8 iterations

     Writing all to output data dir ./out/ZrClBr.save/

     init_run     :   6553.12s CPU  13987.97s WALL (       1 calls)
     electrons    :  16213.18s CPU  33570.42s WALL (       1 calls)

     Called by init_run:
     wfcinit      :   6547.57s CPU  13974.81s WALL (       1 calls)
     potinit      :      1.33s CPU      2.94s WALL (       1 calls)
     hinit0       :      0.88s CPU      1.86s WALL (       1 calls)

     Called by electrons:
     c_bands      :  16092.59s CPU  33445.83s WALL (       9 calls)
     sum_band     :    120.03s CPU    123.52s WALL (       9 calls)
     v_of_rho     :      0.37s CPU      0.76s WALL (       9 calls)
     newd         :      0.16s CPU      0.26s WALL (       9 calls)
     PAW_pot      :      1.07s CPU      2.13s WALL (       9 calls)
     mix_rho      :      0.00s CPU      0.00s WALL (       9 calls)

     Called by c_bands:
     init_us_2    :      7.29s CPU      7.45s WALL (  106210 calls)
     init_us_2:cp :      7.16s CPU      7.34s WALL (  106210 calls)
     cegterg      :  15877.25s CPU  33008.04s WALL (   50310 calls)

     Called by *egterg:
     cdiaghg      :    470.08s CPU    832.31s WALL (  226515 calls)
     h_psi        :  17848.28s CPU  37648.07s WALL (  237695 calls)
     s_psi        :     45.13s CPU     48.60s WALL (  237695 calls)
     g_psi        :      1.52s CPU      1.61s WALL (  181795 calls)

     Called by h_psi:
     h_psi:calbec :   1605.40s CPU   3372.86s WALL (  237695 calls)
     vloc_psi     :  16195.46s CPU  34227.22s WALL (  237695 calls)
     add_vuspsi   :     45.38s CPU     45.92s WALL (  237695 calls)

     General routines
     calbec       :   1630.12s CPU   3398.19s WALL (  288005 calls)
     fft          :      0.20s CPU      0.40s WALL (     100 calls)
     ffts         :      0.00s CPU      0.00s WALL (       9 calls)
     fftw         :  16240.95s CPU  34274.30s WALL ( 8074666 calls)

     Parallel routines

     PWSCF        :      6h20m CPU     13h14m WALL


   This run was terminated on:  22:16:15  28Aug2026            

=------------------------------------------------------------------------------=
   JOB DONE.
=------------------------------------------------------------------------------=
