
     Program PWSCF v.7.2 starts on 18Sep2026 at  9: 2:16 

     This program is part of the open-source Quantum ESPRESSO suite
     for quantum simulation of materials; please cite
         "P. Giannozzi et al., J. Phys.:Condens. Matter 21 395502 (2009);
         "P. Giannozzi et al., J. Phys.:Condens. Matter 29 465901 (2017);
         "P. Giannozzi et al., J. Chem. Phys. 152 154105 (2020);
          URL http://www.quantum-espresso.org", 
     in publications or presentations arising from this work. More details at
     http://www.quantum-espresso.org/quote

     Parallel version (MPI), running on    32 processors

     MPI processes distributed on     1 nodes
     228833 MiB available memory on the printing compute node when the environment starts

     Waiting for input...
     Reading input from standard input

     Current dimensions of program PWSCF are:
     Max number of different atomic species (ntypx) = 10
     Max number of k-points (npk) =  40000
     Max angular momentum in pseudopotentials (lmaxx) =  4
     file Zr.pbe-spn-kjpaw_psl.1.0.0.UPF: wavefunction(s)  4S 4P renormalized
     file F.pbe-n-kjpaw_psl.1.0.0.UPF: wavefunction(s)  2S 2P renormalized
     file Br.pbe-n-kjpaw_psl.1.0.0.UPF: wavefunction(s)  4S 4P renormalized
     Message from routine setup:
     using ibrav=0 with symmetry is DISCOURAGED, use correct ibrav instead

     R & G space division:  proc/nbgrp/npool/nimage =      32
     Subspace diagonalization in iterative solution of the eigenvalue problem:
     a serial algorithm will be used


     Parallelization info
     --------------------
     sticks:   dense  smooth     PW     G-vecs:    dense   smooth      PW
     Min          22      22      6                 1460     1460     228
     Max          23      23      7                 1473     1473     245
     Sum         733     733    211                46997    46997    7523

     Using Slab Decomposition



     bravais-lattice index     =            0
     lattice parameter (alat)  =       6.3200  a.u.
     unit-cell volume          =     663.4922 (a.u.)^3
     number of atoms/cell      =            3
     number of atomic types    =            3
     number of electrons       =        26.00
     number of Kohn-Sham states=           26
     kinetic-energy cutoff     =      65.0000  Ry
     charge density cutoff     =     260.0000  Ry
     scf convergence threshold =      1.0E-08
     mixing beta               =       0.7000
     number of iterations used =            8  plain     mixing
     energy convergence thresh.=      1.0E-05
     force convergence thresh. =      1.0E-04
     Exchange-correlation= SLA  PW   PBX  PBC
                           (   1   4   3   4   0   0   0)
     nstep                     =           50


     celldm(1)=   6.320045  celldm(2)=   0.000000  celldm(3)=   0.000000
     celldm(4)=   0.000000  celldm(5)=   0.000000  celldm(6)=   0.000000

     crystal axes: (cart. coord. in units of alat)
               a(1) = (   1.000000   0.000000   0.000000 )  
               a(2) = (  -0.500000   0.879016   0.000000 )  
               a(3) = (   0.000000   0.000000   2.990052 )  

     reciprocal axes: (cart. coord. in units 2 pi/alat)
               b(1) = (  1.000000  0.568818 -0.000000 )  
               b(2) = (  0.000000  1.137636  0.000000 )  
               b(3) = (  0.000000 -0.000000  0.334442 )  


     PseudoPot. # 1 for Zr read from file:
     /mgpfs/home/rabdillah/repo/qe/pseudo/Zr.pbe-spn-kjpaw_psl.1.0.0.UPF
     MD5 check sum: 02112c41713a0468aff2bb39ef194e36
     Pseudo is Projector augmented-wave + core cor, Zval = 12.0
     Generated using &quot;atomic&quot; code by A. Dal Corso  v.6.2.2
     Shape of augmentation charge: PSQ
     Using radial grid of 1225 points,  6 beta functions with: 
                l(1) =   0
                l(2) =   0
                l(3) =   1
                l(4) =   1
                l(5) =   2
                l(6) =   2
     Q(r) pseudized with 0 coefficients 


     PseudoPot. # 2 for F  read from file:
     /mgpfs/home/rabdillah/repo/qe/pseudo/F.pbe-n-kjpaw_psl.1.0.0.UPF
     MD5 check sum: 66d718ea72839a4268ab2a9540e8cdd4
     Pseudo is Projector augmented-wave + core cor, Zval =  7.0
     Generated using &quot;atomic&quot; code by A. Dal Corso  v.6.3
     Shape of augmentation charge: PSQ
     Using radial grid of 1105 points,  4 beta functions with: 
                l(1) =   0
                l(2) =   0
                l(3) =   1
                l(4) =   1
     Q(r) pseudized with 0 coefficients 


     PseudoPot. # 3 for Br read from file:
     /mgpfs/home/rabdillah/repo/qe/pseudo/Br.pbe-n-kjpaw_psl.1.0.0.UPF
     MD5 check sum: b00de77caabc69c0a6b76eb37264f235
     Pseudo is Projector augmented-wave + core cor, Zval =  7.0
     Generated using &quot;atomic&quot; code by A. Dal Corso  v.6.3
     Shape of augmentation charge: PSQ
     Using radial grid of 1213 points,  4 beta functions with: 
                l(1) =   0
                l(2) =   0
                l(3) =   1
                l(4) =   1
     Q(r) pseudized with 0 coefficients 


     atomic species   valence    mass     pseudopotential
        Zr            12.00    91.22400     Zr( 1.00)
        F              7.00    18.99800     F ( 1.00)
        Br             7.00    79.90400     Br( 1.00)

      2 Sym. Ops. (no inversion) found



   Cartesian axes

     site n.     atom                  positions (alat units)
         1           Zr  tau(   1) = (   0.0000000   0.0000000   3.0210788  )
         2           F   tau(   2) = (  -0.0000000   0.5773503   3.4105834  )
         3           Br  tau(   3) = (  -0.0000000   0.5773503   2.4542273  )

     number of k points=    73
                       cart. coord. in units 2pi/alat
        k(    1) = (   0.0000000   0.0000000   0.0000000), wk =   0.0078125
        k(    2) = (   0.0000000   0.0711022   0.0000000), wk =   0.0156250
        k(    3) = (   0.0000000   0.1422045   0.0000000), wk =   0.0156250
        k(    4) = (   0.0000000   0.2133067   0.0000000), wk =   0.0156250
        k(    5) = (   0.0000000   0.2844090   0.0000000), wk =   0.0156250
        k(    6) = (   0.0000000   0.3555112   0.0000000), wk =   0.0156250
        k(    7) = (   0.0000000   0.4266135   0.0000000), wk =   0.0156250
        k(    8) = (   0.0000000   0.4977157   0.0000000), wk =   0.0156250
        k(    9) = (   0.0000000  -0.5688180   0.0000000), wk =   0.0078125
        k(   10) = (   0.0625000   0.0355511   0.0000000), wk =   0.0312500
        k(   11) = (   0.0625000   0.1066534   0.0000000), wk =   0.0312500
        k(   12) = (   0.0625000   0.1777556   0.0000000), wk =   0.0312500
        k(   13) = (   0.0625000   0.2488579   0.0000000), wk =   0.0312500
        k(   14) = (   0.0625000   0.3199601   0.0000000), wk =   0.0312500
        k(   15) = (   0.0625000   0.3910624   0.0000000), wk =   0.0312500
        k(   16) = (   0.0625000   0.4621646   0.0000000), wk =   0.0312500
        k(   17) = (   0.0625000   0.5332669   0.0000000), wk =   0.0312500
        k(   18) = (   0.1250000   0.0711022   0.0000000), wk =   0.0312500
        k(   19) = (   0.1250000   0.1422045   0.0000000), wk =   0.0312500
        k(   20) = (   0.1250000   0.2133067   0.0000000), wk =   0.0312500
        k(   21) = (   0.1250000   0.2844090   0.0000000), wk =   0.0312500
        k(   22) = (   0.1250000   0.3555112   0.0000000), wk =   0.0312500
        k(   23) = (   0.1250000   0.4266135   0.0000000), wk =   0.0312500
        k(   24) = (   0.1250000   0.4977157   0.0000000), wk =   0.0312500
        k(   25) = (   0.1250000   0.5688180   0.0000000), wk =   0.0156250
        k(   26) = (   0.1250000   0.0000000   0.0000000), wk =   0.0156250
        k(   27) = (   0.1875000   0.1066534   0.0000000), wk =   0.0312500
        k(   28) = (   0.1875000   0.1777556   0.0000000), wk =   0.0312500
        k(   29) = (   0.1875000   0.2488579   0.0000000), wk =   0.0312500
        k(   30) = (   0.1875000   0.3199601   0.0000000), wk =   0.0312500
        k(   31) = (   0.1875000   0.3910624   0.0000000), wk =   0.0312500
        k(   32) = (   0.1875000   0.4621646   0.0000000), wk =   0.0312500
        k(   33) = (   0.1875000   0.5332669   0.0000000), wk =   0.0312500
        k(   34) = (   0.1875000  -0.0355511   0.0000000), wk =   0.0312500
        k(   35) = (   0.2500000   0.1422045   0.0000000), wk =   0.0312500
        k(   36) = (   0.2500000   0.2133067   0.0000000), wk =   0.0312500
        k(   37) = (   0.2500000   0.2844090   0.0000000), wk =   0.0312500
        k(   38) = (   0.2500000   0.3555112   0.0000000), wk =   0.0312500
        k(   39) = (   0.2500000   0.4266135   0.0000000), wk =   0.0312500
        k(   40) = (   0.2500000   0.4977157   0.0000000), wk =   0.0312500
        k(   41) = (   0.2500000   0.5688180   0.0000000), wk =   0.0156250
        k(   42) = (   0.2500000  -0.0711022   0.0000000), wk =   0.0312500
        k(   43) = (   0.2500000   0.0000000   0.0000000), wk =   0.0156250
        k(   44) = (   0.3125000   0.1777556   0.0000000), wk =   0.0312500
        k(   45) = (   0.3125000   0.2488579   0.0000000), wk =   0.0312500
        k(   46) = (   0.3125000   0.3199601   0.0000000), wk =   0.0312500
        k(   47) = (   0.3125000   0.3910624   0.0000000), wk =   0.0312500
        k(   48) = (   0.3125000   0.4621646   0.0000000), wk =   0.0312500
        k(   49) = (   0.3125000   0.5332669   0.0000000), wk =   0.0312500
        k(   50) = (   0.3125000  -0.1066534   0.0000000), wk =   0.0312500
        k(   51) = (   0.3125000  -0.0355511   0.0000000), wk =   0.0312500
        k(   52) = (   0.3750000   0.2133067   0.0000000), wk =   0.0312500
        k(   53) = (   0.3750000   0.2844090   0.0000000), wk =   0.0312500
        k(   54) = (   0.3750000   0.3555112   0.0000000), wk =   0.0312500
        k(   55) = (   0.3750000   0.4266135   0.0000000), wk =   0.0312500
        k(   56) = (   0.3750000   0.4977157   0.0000000), wk =   0.0312500
        k(   57) = (   0.3750000   0.5688180   0.0000000), wk =   0.0156250
        k(   58) = (   0.3750000  -0.1422045   0.0000000), wk =   0.0312500
        k(   59) = (   0.3750000  -0.0711022   0.0000000), wk =   0.0312500
        k(   60) = (   0.3750000   0.0000000   0.0000000), wk =   0.0156250
        k(   61) = (   0.4375000   0.2488579   0.0000000), wk =   0.0312500
        k(   62) = (   0.4375000   0.3199601   0.0000000), wk =   0.0312500
        k(   63) = (   0.4375000   0.3910624   0.0000000), wk =   0.0312500
        k(   64) = (   0.4375000   0.4621646   0.0000000), wk =   0.0312500
        k(   65) = (   0.4375000   0.5332669   0.0000000), wk =   0.0312500
        k(   66) = (   0.4375000  -0.1777556   0.0000000), wk =   0.0312500
        k(   67) = (   0.4375000  -0.1066534   0.0000000), wk =   0.0312500
        k(   68) = (   0.4375000  -0.0355511   0.0000000), wk =   0.0312500
        k(   69) = (  -0.5000000  -0.2844090   0.0000000), wk =   0.0156250
        k(   70) = (  -0.5000000  -0.2133067   0.0000000), wk =   0.0312500
        k(   71) = (  -0.5000000  -0.1422045   0.0000000), wk =   0.0312500
        k(   72) = (  -0.5000000  -0.0711022   0.0000000), wk =   0.0312500
        k(   73) = (  -0.5000000  -0.0000000   0.0000000), wk =   0.0156250

     Dense  grid:    46997 G-vectors     FFT dimensions: (  36,  36, 100)

     Estimated max dynamical RAM per process >      14.61 MB

     Estimated total dynamical RAM >     467.66 MB

     Check: negative core charge=   -0.000002

     Initial potential from superposition of free atoms

     starting charge      25.9978, renormalised to      26.0000

     negative rho (up, down):  6.098E-07 0.000E+00
     Starting wfcs are   21 randomized atomic wfcs +    5 random wfcs
     Checking if some PAW data can be deallocated... 

     total cpu time spent up to now is        0.9 secs

     Self-consistent Calculation

     iteration #  1     ecut=    65.00 Ry     beta= 0.70
     Davidson diagonalization with overlap
     ethr =  1.00E-02,  avg # of iterations =  5.7

     Threshold (ethr) on eigenvalues was too large:
     Diagonalizing with lowered threshold

     Davidson diagonalization with overlap
     ethr =  9.36E-04,  avg # of iterations =  1.0

     negative rho (up, down):  2.754E-05 0.000E+00

     total cpu time spent up to now is        4.3 secs

     total energy              =    -571.11911910 Ry
     estimated scf accuracy    <       0.24493671 Ry

     iteration #  2     ecut=    65.00 Ry     beta= 0.70
     Davidson diagonalization with overlap
     ethr =  9.42E-04,  avg # of iterations =  3.6

     negative rho (up, down):  3.113E-06 0.000E+00

     total cpu time spent up to now is        6.1 secs

     total energy              =    -571.10997572 Ry
     estimated scf accuracy    <       0.57261042 Ry

     iteration #  3     ecut=    65.00 Ry     beta= 0.70
     Davidson diagonalization with overlap
     ethr =  9.42E-04,  avg # of iterations =  2.3

     negative rho (up, down):  7.878E-06 0.000E+00

     total cpu time spent up to now is        7.6 secs

     total energy              =    -571.22871665 Ry
     estimated scf accuracy    <       0.02329384 Ry

     iteration #  4     ecut=    65.00 Ry     beta= 0.70
     Davidson diagonalization with overlap
     ethr =  8.96E-05,  avg # of iterations =  3.0

     negative rho (up, down):  1.905E-05 0.000E+00

     total cpu time spent up to now is        9.0 secs

     total energy              =    -571.23310640 Ry
     estimated scf accuracy    <       0.00328142 Ry

     iteration #  5     ecut=    65.00 Ry     beta= 0.70
     Davidson diagonalization with overlap
     ethr =  1.26E-05,  avg # of iterations =  4.8

     negative rho (up, down):  3.049E-05 0.000E+00

     total cpu time spent up to now is       10.8 secs

     total energy              =    -571.23376020 Ry
     estimated scf accuracy    <       0.00135623 Ry

     iteration #  6     ecut=    65.00 Ry     beta= 0.70
     Davidson diagonalization with overlap
     ethr =  5.22E-06,  avg # of iterations =  2.5

     negative rho (up, down):  3.449E-05 0.000E+00

     total cpu time spent up to now is       12.1 secs

     total energy              =    -571.23402342 Ry
     estimated scf accuracy    <       0.00001554 Ry

     iteration #  7     ecut=    65.00 Ry     beta= 0.70
     Davidson diagonalization with overlap
     ethr =  5.98E-08,  avg # of iterations =  3.0

     negative rho (up, down):  3.560E-05 0.000E+00

     total cpu time spent up to now is       13.7 secs

     total energy              =    -571.23402834 Ry
     estimated scf accuracy    <       0.00000062 Ry

     iteration #  8     ecut=    65.00 Ry     beta= 0.70
     Davidson diagonalization with overlap
     ethr =  2.40E-09,  avg # of iterations =  2.0

     negative rho (up, down):  3.592E-05 0.000E+00

     total cpu time spent up to now is       15.0 secs

     total energy              =    -571.23402848 Ry
     estimated scf accuracy    <       0.00000002 Ry

     iteration #  9     ecut=    65.00 Ry     beta= 0.70
     Davidson diagonalization with overlap
     ethr =  8.45E-11,  avg # of iterations =  2.0

     negative rho (up, down):  3.595E-05 0.000E+00

     total cpu time spent up to now is       16.5 secs

     End of self-consistent calculation

          k = 0.0000 0.0000 0.0000 (  5879 PWs)   bands (ev):

   -45.5487 -23.9936 -23.2834 -23.2557 -20.7525 -13.0562  -3.2115  -2.5728
    -2.5056  -1.2038   1.1473   1.2941   3.6972   5.5526   5.7594   5.7982
     6.5981   6.6456   7.8265   8.6172  11.0196  13.8673  14.3985  14.6391
    15.1403  17.0701

          k = 0.0000 0.0711 0.0000 (  5863 PWs)   bands (ev):

   -45.5467 -23.9856 -23.3121 -23.2599 -20.7445 -13.0299  -3.1782  -2.6067
    -2.5048  -1.1831   0.9337   1.2559   3.7045   5.5164   5.8383   5.8469
     6.5963   6.6485   7.9441   8.8389  11.1460  13.9133  14.0652  14.7687
    14.9987  17.2329

          k = 0.0000 0.1422 0.0000 (  5849 PWs)   bands (ev):

   -45.5411 -23.9633 -23.3913 -23.2719 -20.7239 -12.9535  -3.0882  -2.6931
    -2.5036  -1.1337   0.3950   1.1510   3.6992   5.4611   5.9591   5.9658
     6.6613   6.7812   8.2639   9.3239  11.5140  13.4353  13.8683  14.8547
    15.1536  17.4966

          k = 0.0000 0.2133 0.0000 (  5850 PWs)   bands (ev):

   -45.5326 -23.9313 -23.5028 -23.2898 -20.6987 -12.8348  -2.9790  -2.7903
    -2.5045  -1.0891  -0.2759   1.0038   3.6347   5.4807   6.0175   6.1895
     6.9577   6.9700   8.7126   9.8277  11.8907  13.0562  13.4788  15.2099
    15.7799  16.9956

          k = 0.0000 0.2844 0.0000 (  5874 PWs)   bands (ev):

   -45.5226 -23.8998 -23.6205 -23.3108 -20.6765 -12.6874  -2.9815  -2.7760
    -2.5098  -1.2087  -0.7940   0.8433   3.5137   5.5982   6.1717   6.4993
     7.1464   7.3901   9.1836  10.2459  11.7729  12.7212  13.8903  15.6399
    16.1802  16.5627

          k = 0.0000 0.3555 0.0000 (  5874 PWs)   bands (ev):

   -45.5125 -23.8935 -23.7057 -23.3317 -20.6615 -12.5308  -3.0764  -2.6873
    -2.5192  -1.7210  -0.8413   0.6951   3.3895   5.7766   6.4279   6.8452
     7.3443   7.8835   9.5366  10.5407  11.6374  12.4030  14.4740  14.9310
    16.1191  16.2143

          k = 0.0000 0.4266 0.0000 (  5870 PWs)   bands (ev):

   -45.5040 -23.9359 -23.7252 -23.3494 -20.6538 -12.3898  -3.1688  -2.6345
    -2.5304  -2.1762  -0.8001   0.5777   3.3036   5.9931   6.6468   7.1172
     7.5886   8.4696   9.6859  10.7474  11.7236  12.3203  13.4836  14.8957
    15.3335  15.7071

          k = 0.0000 0.4977 0.0000 (  5892 PWs)   bands (ev):

   -45.4983 -23.9847 -23.7154 -23.3611 -20.6510 -12.2907  -3.2432  -2.6440
    -2.5394  -2.4246  -0.7645   0.5031   3.2619   6.2201   6.6990   7.2507
     7.8425   9.1162   9.7550  10.8923  11.7059  12.2427  12.9390  14.3532
    14.6713  15.2963

          k = 0.0000-0.5688 0.0000 (  5874 PWs)   bands (ev):

   -45.4963 -24.0036 -23.7097 -23.3652 -20.6504 -12.2550  -3.2744  -2.6767
    -2.5428  -2.4774  -0.7512   0.4776   3.2509   6.3540   6.6520   7.2880
     7.9523   9.4878   9.7941  11.0171  11.3421  12.1845  13.1108  13.8900
    14.4996  15.1348

          k = 0.0625 0.0356 0.0000 (  5870 PWs)   bands (ev):

   -45.5466 -23.9855 -23.2990 -23.2736 -20.7449 -13.0286  -3.1784  -2.5850
    -2.5294  -1.1818   1.0117   1.1681   3.7149   5.5691   5.7645   5.8517
     6.5570   6.6905   7.9486   8.8407  11.1503  13.9148  14.1698  14.6014
    15.0445  17.2915

          k = 0.0625 0.1067 0.0000 (  5846 PWs)   bands (ev):

   -45.5428 -23.9704 -23.3596 -23.2751 -20.7305 -12.9772  -3.1165  -2.6556
    -2.5180  -1.1466   0.5996   1.1326   3.7175   5.4870   5.8882   5.9487
     6.5991   6.7524   8.1670   9.1874  11.4051  13.6131  13.9414  14.7877
    15.0476  17.3333

          k = 0.0625 0.1778 0.0000 (  5844 PWs)   bands (ev):

   -45.5357 -23.9430 -23.4557 -23.2894 -20.7077 -12.8796  -3.0119  -2.7544
    -2.5152  -1.0975   0.0012   0.9981   3.6874   5.4386   6.0219   6.1057
     6.7576   6.9470   8.5519   9.6683  11.8653  13.0904  13.6016  14.9488
    15.6169  16.9331

          k = 0.0625 0.2489 0.0000 (  5858 PWs)   bands (ev):

   -45.5265 -23.9104 -23.5695 -23.3103 -20.6843 -12.7461  -2.9387  -2.8132
    -2.5200  -1.0938  -0.6168   0.8232   3.6029   5.4987   6.1023   6.4144
     6.9959   7.2594   9.0155  10.1292  12.0339  12.8883  13.3941  15.3815
    16.2734  16.4902

          k = 0.0625 0.3200 0.0000 (  5863 PWs)   bands (ev):

   -45.5164 -23.8881 -23.6719 -23.3336 -20.6661 -12.5934  -3.0153  -2.7290
    -2.5320  -1.4461  -0.8470   0.6461   3.4931   5.6682   6.2563   6.7610
     7.2224   7.7045   9.4407  10.5110  11.7937  12.5460  14.1458  15.1843
    15.8706  16.3379

          k = 0.0625 0.3911 0.0000 (  5869 PWs)   bands (ev):

   -45.5071 -23.9068 -23.7209 -23.3552 -20.6550 -12.4435  -3.1091  -2.6518
    -2.5519  -1.9444  -0.8205   0.4931   3.4047   5.8997   6.4635   7.0297
     7.4541   8.2838   9.7045  10.7830  11.7400  12.3531  14.0240  14.7621
    15.3928  16.2105

          k = 0.0625 0.4622 0.0000 (  5873 PWs)   bands (ev):

   -45.5000 -23.9572 -23.7189 -23.3718 -20.6500 -12.3222  -3.1888  -2.6398
    -2.5711  -2.2766  -0.7794   0.3818   3.3568   6.1454   6.6233   7.1723
     7.6685   8.9758   9.8183  10.9541  11.8206  12.3466  13.0780  14.4824
    14.8540  15.5946

          k = 0.0625 0.5333 0.0000 (  5872 PWs)   bands (ev):

   -45.4962 -23.9918 -23.7094 -23.3808 -20.6484 -12.2539  -3.2404  -2.7000
    -2.5678  -2.3962  -0.7544   0.3235   3.3404   6.3454   6.6524   7.2228
     7.8115   9.5811   9.9191  11.0650  11.5302  12.2127  13.0313  13.9828
    14.5451  15.1156

          k = 0.1250 0.0711 0.0000 (  5859 PWs)   bands (ev):

   -45.5406 -23.9629 -23.3727 -23.2930 -20.7252 -12.9485  -3.0897  -2.6561
    -2.5512  -1.1282   0.4769   1.0355   3.7391   5.5461   5.8209   5.9532
     6.6383   6.8219   8.2783   9.3250  11.5284  13.4800  13.9127  14.9027
    15.0008  17.3469

          k = 0.1250 0.1422 0.0000 (  5856 PWs)   bands (ev):

   -45.5353 -23.9427 -23.4466 -23.3004 -20.7087 -12.8758  -3.0135  -2.7378
    -2.5392  -1.0926   0.0413   0.9321   3.7184   5.4568   5.9773   6.0850
     6.7730   6.9442   8.5616   9.6672  11.8717  13.1158  13.6345  14.9654
    15.5496  16.8953

          k = 0.1250 0.2133 0.0000 (  5851 PWs)   bands (ev):

   -45.5275 -23.9141 -23.5421 -23.3211 -20.6879 -12.7631  -2.9153  -2.8238
    -2.5431  -1.0663  -0.4808   0.7260   3.6766   5.4278   6.1095   6.3840
     6.8967   7.2373   8.9644  10.0963  12.4100  12.7065  13.2246  15.2101
    16.1790  16.4499

          k = 0.1250 0.2844 0.0000 (  5852 PWs)   bands (ev):

   -45.5182 -23.8872 -23.6387 -23.3492 -20.6689 -12.6235  -2.9475  -2.7746
    -2.5600  -1.2337  -0.8288   0.4833   3.6209   5.5180   6.2360   6.6913
     7.1282   7.6460   9.3956  10.5365  12.2712  12.7004  13.3504  15.1379
    15.9258  16.3949

          k = 0.1250 0.3555 0.0000 (  5867 PWs)   bands (ev):

   -45.5090 -23.8842 -23.7046 -23.3788 -20.6551 -12.4758  -3.0348  -2.6809
    -2.5900  -1.6851  -0.8374   0.2548   3.5740   5.7322   6.3650   6.8951
     7.3981   8.2325   9.7529  10.9417  12.0263  12.4677  14.1132  14.4672
    15.1905  16.2600

          k = 0.1250 0.4266 0.0000 (  5872 PWs)   bands (ev):

   -45.5011 -23.9203 -23.7175 -23.4044 -20.6473 -12.3433  -3.1088  -2.6568
    -2.6065  -2.0551  -0.7973   0.0713   3.5534   6.0266   6.4730   7.0430
     7.5609   8.9801   9.9691  11.2428  11.9684  12.4186  13.4863  14.2474
    14.9362  16.0425

          k = 0.1250 0.4977 0.0000 (  5871 PWs)   bands (ev):

   -45.4958 -23.9603 -23.7081 -23.4218 -20.6438 -12.2506  -3.1607  -2.7373
    -2.5788  -2.2445  -0.7642  -0.0474   3.5542   6.3072   6.5458   7.1352
     7.6070   9.7357  10.1238  11.3719  11.8931  12.3377  12.9407  14.0116
    14.6147  15.3771

          k = 0.1250 0.5688 0.0000 (  5878 PWs)   bands (ev):

   -45.4939 -23.9759 -23.7029 -23.4279 -20.6429 -12.2172  -3.1804  -2.7816
    -2.5706  -2.2926  -0.7517  -0.0885   3.5579   6.4185   6.5929   7.1467
     7.6147   9.9541  10.4758  11.3858  11.5163  12.2295  13.0884  13.8493
    14.5844  14.9091

          k = 0.1250 0.0000 0.0000 (  5872 PWs)   bands (ev):

   -45.5424 -23.9701 -23.3401 -23.2964 -20.7316 -12.9735  -3.1174  -2.6103
    -2.5715  -1.1430   0.6740   1.0369   3.7445   5.6198   5.7131   5.9488
     6.5374   6.8214   8.1775   9.1880  11.4150  13.6568  13.9617  14.7386
    15.0103  17.3407

          k = 0.1875 0.1067 0.0000 (  5867 PWs)   bands (ev):

   -45.5316 -23.9302 -23.4845 -23.3136 -20.7014 -12.8239  -2.9826  -2.7569
    -2.5598  -1.0741  -0.2147   0.8771   3.7119   5.5238   5.9671   6.0849
     6.9385   7.0160   8.7356   9.8211  11.8981  13.1062  13.5516  15.2705
    15.6305  17.0165

          k = 0.1875 0.1778 0.0000 (  5870 PWs)   bands (ev):

   -45.5256 -23.9091 -23.5564 -23.3286 -20.6866 -12.7364  -2.9367  -2.7982
    -2.5592  -1.0734  -0.5778   0.7182   3.6717   5.5016   6.0489   6.3756
     7.0081   7.2655   9.0340  10.1197  12.0188  12.9565  13.4673  15.4167
    16.1906  16.4573

          k = 0.1875 0.2489 0.0000 (  5864 PWs)   bands (ev):

   -45.5177 -23.8860 -23.6325 -23.3590 -20.6702 -12.6175  -2.9396  -2.7778
    -2.5778  -1.2127  -0.8199   0.4282   3.6603   5.5096   6.2043   6.6886
     7.1245   7.6542   9.4041  10.5285  12.2389  12.7344  13.4263  15.1284
    15.9856  16.4192

          k = 0.1875 0.3200 0.0000 (  5877 PWs)   bands (ev):

   -45.5092 -23.8750 -23.6908 -23.3985 -20.6559 -12.4823  -2.9907  -2.7106
    -2.6108  -1.5438  -0.8441   0.0919   3.6836   5.6047   6.3931   6.7872
     7.3914   8.2279   9.7751  10.9965  12.3431  12.5873  13.6486  14.3957
    15.5483  16.0127

          k = 0.1875 0.3911 0.0000 (  5868 PWs)   bands (ev):

   -45.5013 -23.8919 -23.7112 -23.4386 -20.6456 -12.3507  -3.0457  -2.6924
    -2.6175  -1.8547  -0.8190  -0.2127   3.7325   5.8061   6.5305   6.8522
     7.5620   8.9961  10.0741  11.4508  12.2396  12.5776  13.6964  14.2276
    14.6149  15.7037

          k = 0.1875 0.4622 0.0000 (  5868 PWs)   bands (ev):

   -45.4952 -23.9227 -23.7054 -23.4710 -20.6396 -12.2451  -3.0894  -2.7564
    -2.5812  -2.0592  -0.7916  -0.4382   3.7887   6.0849   6.5339   7.0157
     7.5585   9.8375  10.2560  11.7435  12.1559  12.6614  13.1266  13.9299
    14.6395  15.5496

          k = 0.1875 0.5333 0.0000 (  5882 PWs)   bands (ev):

   -45.4920 -23.9432 -23.6973 -23.4891 -20.6370 -12.1860  -3.1134  -2.8135
    -2.5620  -2.1481  -0.7734  -0.5590   3.8270   6.3312   6.5023   7.1467
     7.4592  10.1586  10.8353  11.7224  11.9516  12.4021  13.1050  13.9691
    14.4939  15.1086

          k = 0.1875-0.0356 0.0000 (  5864 PWs)   bands (ev):

   -45.5348 -23.9422 -23.4370 -23.3127 -20.7102 -12.8700  -3.0148  -2.7167
    -2.5725  -1.0869   0.0560   0.8964   3.7494   5.5135   5.9506   5.9999
     6.7211   7.0117   8.5718   9.6637  11.8798  13.0971  13.6567  14.9618
    15.5373  16.9465

          k = 0.2500 0.1422 0.0000 (  5878 PWs)   bands (ev):

   -45.5209 -23.8972 -23.6039 -23.3370 -20.6808 -12.6690  -2.9727  -2.7657
    -2.5706  -1.1686  -0.7685   0.7065   3.6168   5.5969   6.1356   6.4085
     7.1568   7.4075   9.2111  10.2233  11.7679  12.8086  13.9740  15.7450
    16.2826  16.4214

          k = 0.2500 0.2133 0.0000 (  5886 PWs)   bands (ev):

   -45.5149 -23.8843 -23.6589 -23.3570 -20.6698 -12.5761  -3.0023  -2.7315
    -2.5801  -1.4060  -0.8274   0.5182   3.5883   5.6554   6.1992   6.7219
     7.2219   7.7269   9.4625  10.4832  11.7872  12.6292  14.2614  15.2808
    15.9070  16.3344

          k = 0.2500 0.2844 0.0000 (  5877 PWs)   bands (ev):

   -45.5078 -23.8792 -23.6973 -23.3963 -20.6579 -12.4622  -3.0223  -2.6972
    -2.6131  -1.6587  -0.8225   0.1647   3.6435   5.7177   6.3117   6.8978
     7.3848   8.2514   9.7625  10.9162  12.0105  12.5182  14.2087  14.5425
    15.2666  16.2535

          k = 0.2500 0.3555 0.0000 (  5875 PWs)   bands (ev):

   -45.5006 -23.8880 -23.7087 -23.4479 -20.6471 -12.3430  -3.0388  -2.7124
    -2.6174  -1.8441  -0.8129  -0.2538   3.7668   5.8006   6.4881   6.8726
     7.5543   9.0056  10.0751  11.4381  12.2438  12.5606  13.7166  14.3290
    14.6809  15.6266

          k = 0.2500 0.4266 0.0000 (  5876 PWs)   bands (ev):

   -45.4946 -23.9020 -23.7024 -23.5002 -20.6388 -12.2376  -3.0618  -2.7672
    -2.5830  -1.9461  -0.8494  -0.6009   3.9162   5.9447   6.5608   6.9329
     7.5677   9.8757  10.3108  11.7877  12.2796  12.9105  13.4629  14.0134
    14.4309  15.0055

          k = 0.2500 0.4977 0.0000 (  5873 PWs)   bands (ev):

   -45.4906 -23.9114 -23.6934 -23.5395 -20.6338 -12.1648  -3.0921  -2.7970
    -2.5544  -1.9850  -1.0207  -0.7082   4.0386   6.1441   6.4941   7.0883
     7.4637  10.2846  10.8536  11.7261  12.5302  13.0492  13.2185  13.8445
    14.3832  14.9802

          k = 0.2500 0.5688 0.0000 (  5864 PWs)   bands (ev):

   -45.4891 -23.9143 -23.6898 -23.5542 -20.6322 -12.1387  -3.1071  -2.8032
    -2.5435  -1.9924  -1.1140  -0.7186   4.0859   6.2720   6.4417   7.1324
     7.4097  10.2531  11.6011  11.8122  11.8718  13.0596  13.4251  13.8661
    14.4197  15.0229

          k = 0.2500-0.0711 0.0000 (  5875 PWs)   bands (ev):

   -45.5249 -23.9086 -23.5530 -23.3350 -20.6884 -12.7293  -2.9372  -2.7927
    -2.5808  -1.0684  -0.5900   0.7175   3.6919   5.5176   6.0570   6.3143
     7.0036   7.2845   9.0399  10.1140  12.0169  12.9446  13.4337  15.4248
    16.2276  16.5476

          k = 0.2500 0.0000 0.0000 (  5876 PWs)   bands (ev):

   -45.5263 -23.9129 -23.5310 -23.3380 -20.6912 -12.7501  -2.9179  -2.8056
    -2.5888  -1.0519  -0.4786   0.6818   3.7324   5.4582   6.0645   6.3064
     6.8959   7.2677   8.9799  10.0867  12.4205  12.6565  13.2508  15.2453
    16.1815  16.5204

          k = 0.3125 0.1778 0.0000 (  5884 PWs)   bands (ev):

   -45.5102 -23.8865 -23.6941 -23.3601 -20.6671 -12.5043  -3.0645  -2.6911
    -2.5846  -1.6926  -0.8133   0.5492   3.5028   5.7460   6.3935   6.7915
     7.3471   7.9080   9.5646  10.4947  11.6565  12.5008  14.5757  15.0906
    16.0737  16.2367

          k = 0.3125 0.2489 0.0000 (  5893 PWs)   bands (ev):

   -45.5049 -23.8970 -23.7131 -23.3823 -20.6601 -12.4180  -3.0950  -2.6657
    -2.6024  -1.9224  -0.7905   0.3523   3.5116   5.8682   6.4217   6.9971
     7.4471   8.3159   9.7222  10.7340  11.7662  12.4477  14.1515  14.8599
    15.4122  16.2718

          k = 0.3125 0.3200 0.0000 (  5897 PWs)   bands (ev):

   -45.4992 -23.9100 -23.7128 -23.4273 -20.6514 -12.3214  -3.0945  -2.6998
    -2.6138  -2.0448  -0.7721  -0.0361   3.6382   6.0072   6.4198   7.0447
     7.5481   9.0056   9.9753  11.1891  11.9890  12.4862  13.5992  14.2611
    15.0472  16.1163

          k = 0.3125 0.3911 0.0000 (  5878 PWs)   bands (ev):

   -45.4940 -23.9145 -23.7026 -23.4874 -20.6424 -12.2292  -3.0803  -2.7821
    -2.5877  -2.0557  -0.7852  -0.4941   3.8427   6.0867   6.4815   7.0293
     7.5469   9.8595  10.2585  11.7179  12.1411  12.6758  13.2342  13.9007
    14.7483  15.4763

          k = 0.3125 0.4622 0.0000 (  5864 PWs)   bands (ev):

   -45.4899 -23.9070 -23.6921 -23.5479 -20.6352 -12.1566  -3.0919  -2.8059
    -2.5583  -1.9830  -1.0507  -0.6991   4.0602   6.1534   6.4753   7.0900
     7.4540  10.3016  10.8584  11.7243  12.5619  13.0450  13.2189  13.7589
    14.4301  15.0034

          k = 0.3125 0.5333 0.0000 (  5865 PWs)   bands (ev):

   -45.4877 -23.8960 -23.6865 -23.5877 -20.6312 -12.1165  -3.1191  -2.7846
    -2.5358  -1.8476  -1.4046  -0.7146   4.2063   6.2325   6.4230   7.0725
     7.4384  10.2765  11.6241  11.7663  12.6414  12.8714  13.5830  13.7423
    14.5327  15.1607

          k = 0.3125-0.1067 0.0000 (  5884 PWs)   bands (ev):

   -45.5142 -23.8838 -23.6588 -23.3598 -20.6716 -12.5685  -3.0053  -2.7291
    -2.5975  -1.4214  -0.8274   0.5332   3.5932   5.6487   6.2073   6.7206
     7.2370   7.7131   9.4675  10.4752  11.7825  12.6257  14.1831  15.3002
    15.9119  16.3667

          k = 0.3125-0.0356 0.0000 (  5868 PWs)   bands (ev):

   -45.5164 -23.8847 -23.6285 -23.3689 -20.6737 -12.6027  -2.9390  -2.7771
    -2.6134  -1.2241  -0.8249   0.4310   3.6900   5.5199   6.1631   6.6884
     7.1446   7.6444   9.4135  10.5178  12.2191  12.7382  13.3462  15.1868
    16.0123  16.4598

          k = 0.3750 0.2133 0.0000 (  5903 PWs)   bands (ev):

   -45.5011 -23.9235 -23.7195 -23.3796 -20.6604 -12.3557  -3.1559  -2.6479
    -2.5982  -2.1688  -0.7605   0.4247   3.4191   5.9417   6.6106   7.0964
     7.5961   8.4973   9.7167  10.6943  11.7766  12.4309  13.5925  15.0023
    15.4739  15.5731

          k = 0.3750 0.2844 0.0000 (  5874 PWs)   bands (ev):

   -45.4973 -23.9438 -23.7146 -23.4011 -20.6561 -12.2892  -3.1727  -2.6719
    -2.6094  -2.2811  -0.7389   0.2357   3.4666   6.0857   6.6079   7.1461
     7.6737   9.0028   9.8404  10.9030  11.8887  12.4657  13.1602  14.5350
    14.9304  15.5860

          k = 0.3750 0.3555 0.0000 (  5870 PWs)   bands (ev):

   -45.4934 -23.9477 -23.7047 -23.4477 -20.6490 -12.2213  -3.1451  -2.7770
    -2.5950  -2.2579  -0.7307  -0.1588   3.6430   6.2548   6.5334   7.1233
     7.6108   9.7549  10.1477  11.3017  11.9710  12.4491  12.9718  14.0309
    14.6971  15.4348

          k = 0.3750 0.4266 0.0000 (  5865 PWs)   bands (ev):

   -45.4901 -23.9329 -23.6946 -23.5095 -20.6411 -12.1628  -3.1064  -2.8436
    -2.5731  -2.1591  -0.7788  -0.6002   3.8859   6.3268   6.4751   7.1341
     7.4587  10.1951  10.8547  11.7499  11.9461  12.4013  13.1253  13.9838
    14.5383  15.1969

          k = 0.3750 0.4977 0.0000 (  5860 PWs)   bands (ev):

   -45.4879 -23.9077 -23.6878 -23.5674 -20.6348 -12.1232  -3.1115  -2.8201
    -2.5499  -2.0016  -1.1514  -0.6984   4.1116   6.2866   6.4291   7.1355
     7.3900  10.2989  11.5916  11.8680  11.9403  12.9177  13.3925  13.8369
    14.4737  15.0618

          k = 0.3750 0.5688 0.0000 (  5866 PWs)   bands (ev):

   -45.4872 -23.8938 -23.6857 -23.5926 -20.6325 -12.1092  -3.1235  -2.7939
    -2.5379  -1.8654  -1.4024  -0.7057   4.2095   6.2388   6.4236   7.0836
     7.4248  10.3071  11.5949  11.8865  12.5886  12.8528  13.4522  13.7799
    14.5706  15.1910

          k = 0.3750-0.1422 0.0000 (  5886 PWs)   bands (ev):

   -45.5044 -23.8974 -23.7136 -23.3832 -20.6616 -12.4112  -3.1000  -2.6622
    -2.6193  -1.9381  -0.7879   0.3708   3.5067   5.8574   6.4119   7.0276
     7.4733   8.2969   9.7394  10.7212  11.7649  12.4446  14.1245  14.8219
    15.4576  16.2330

          k = 0.3750-0.0711 0.0000 (  5879 PWs)   bands (ev):

   -45.5066 -23.8786 -23.6973 -23.4010 -20.6610 -12.4477  -3.0291  -2.6925
    -2.6468  -1.6914  -0.8167   0.1905   3.6473   5.7149   6.2916   6.9180
     7.4291   8.2324   9.7799  10.9028  11.9984  12.5096  14.1169  14.5381
    15.2571  16.3089

          k = 0.3750 0.0000 0.0000 (  5874 PWs)   bands (ev):

   -45.5073 -23.8724 -23.6871 -23.4115 -20.6606 -12.4604  -2.9912  -2.7185
    -2.6533  -1.5727  -0.8335   0.0899   3.7177   5.6079   6.3178   6.8306
     7.4311   8.2176   9.7934  10.9820  12.3260  12.5536  13.5945  14.4367
    15.5866  16.0679

          k = 0.4375 0.2489 0.0000 (  5875 PWs)   bands (ev):

   -45.4950 -23.9706 -23.7117 -23.3925 -20.6582 -12.2513  -3.2267  -2.6630
    -2.6108  -2.4329  -0.7169   0.3456   3.3776   6.1493   6.6653   7.2381
     7.8760   9.1312   9.7991  10.8669  11.8044  12.3649  12.9791  14.4676
    14.7921  15.1283

          k = 0.4375 0.3200 0.0000 (  5870 PWs)   bands (ev):

   -45.4930 -23.9778 -23.7060 -23.4112 -20.6553 -12.2156  -3.2223  -2.7366
    -2.6050  -2.4208  -0.7080   0.1782   3.4487   6.2594   6.6444   7.2072
     7.8439   9.5807   9.9622  11.0573  11.6422  12.3049  13.0566  14.0765
    14.6458  15.0186

          k = 0.4375 0.3911 0.0000 (  5873 PWs)   bands (ev):

   -45.4912 -23.9633 -23.6998 -23.4549 -20.6490 -12.1828  -3.1658  -2.8273
    -2.5894  -2.3182  -0.7148  -0.1939   3.6437   6.3516   6.5808   7.1334
     7.6475   9.9865  10.5076  11.4260  11.5244  12.2839  13.1043  13.9228
    14.6402  14.9310

          k = 0.4375 0.4622 0.0000 (  5868 PWs)   bands (ev):

   -45.4898 -23.9334 -23.6946 -23.5103 -20.6420 -12.1579  -3.1095  -2.8552
    -2.5733  -2.1696  -0.7780  -0.5873   3.8809   6.3232   6.4758   7.1171
     7.4932  10.2210  10.9314  11.7131  11.8964  12.3737  13.1311  14.0061
    14.5328  15.1488

          k = 0.4375 0.5333 0.0000 (  5865 PWs)   bands (ev):

   -45.4890 -23.9060 -23.6915 -23.5527 -20.6374 -12.1444  -3.0985  -2.8278
    -2.5607  -2.0134  -1.0397  -0.6826   4.0568   6.1545   6.4847   7.0714
     7.4844  10.3547  10.9603  11.6642  12.5671  12.9574  13.1533  13.8072
    14.4444  14.9763

          k = 0.4375-0.1778 0.0000 (  5884 PWs)   bands (ev):

   -45.4969 -23.9447 -23.7148 -23.4013 -20.6571 -12.2844  -3.1772  -2.6838
    -2.6098  -2.2881  -0.7374   0.2501   3.4597   6.0903   6.5663   7.1733
     7.7091   8.9991   9.8712  10.8900  11.8798  12.4658  13.1374  14.5263
    14.9365  15.5789

          k = 0.4375-0.1067 0.0000 (  5883 PWs)   bands (ev):

   -45.4983 -23.9109 -23.7131 -23.4290 -20.6537 -12.3097  -3.1029  -2.7177
    -2.6210  -2.0699  -0.7674  -0.0074   3.6292   5.9981   6.4096   7.0439
     7.6134   9.0056  10.0232  11.1669  11.9748  12.4780  13.5542  14.2718
    15.0019  16.0829

          k = 0.4375-0.0356 0.0000 (  5881 PWs)   bands (ev):

   -45.4991 -23.8869 -23.7081 -23.4550 -20.6510 -12.3235  -3.0462  -2.7413
    -2.6303  -1.8851  -0.8031  -0.2270   3.7708   5.8043   6.4585   6.8750
     7.6184   9.0185  10.1199  11.4238  12.2474  12.4966  13.7183  14.2407
    14.6573  15.6811

          k =-0.5000-0.2844 0.0000 (  5882 PWs)   bands (ev):

   -45.4929 -23.9894 -23.7063 -23.3970 -20.6578 -12.2135  -3.2559  -2.6983
    -2.6171  -2.4900  -0.7008   0.3185   3.3664   6.2658   6.6295   7.2755
     7.9994   9.4838   9.8371  11.0649  11.4280  12.2733  13.1428  14.0063
    14.6227  14.9552

          k =-0.5000-0.2133 0.0000 (  5876 PWs)   bands (ev):

   -45.4929 -23.9782 -23.7060 -23.4112 -20.6556 -12.2139  -3.2242  -2.7431
    -2.6035  -2.4222  -0.7075   0.1835   3.4457   6.2727   6.6102   7.2203
     7.8585   9.5939   9.9705  11.0623  11.6181  12.3012  13.0604  14.0728
    14.6200  15.0404

          k =-0.5000-0.1422 0.0000 (  5872 PWs)   bands (ev):

   -45.4929 -23.9488 -23.7048 -23.4481 -20.6503 -12.2147  -3.1506  -2.7938
    -2.5948  -2.2686  -0.7289  -0.1406   3.6346   6.2709   6.4896   7.1234
     7.6627   9.7734  10.2066  11.2872  11.9206  12.4374  12.9590  14.0497
    14.6685  15.4230

          k =-0.5000-0.0711 0.0000 (  5881 PWs)   bands (ev):

   -45.4929 -23.9150 -23.7026 -23.4905 -20.6451 -12.2155  -3.0879  -2.8097
    -2.5908  -2.0860  -0.7806  -0.4637   3.8341   6.0816   6.4899   6.9949
     7.6152   9.8881  10.3479  11.6860  12.1073  12.6372  13.1870  13.9397
    14.6977  15.4526

          k =-0.5000-0.0000 0.0000 (  5884 PWs)   bands (ev):

   -45.4929 -23.8991 -23.7011 -23.5105 -20.6429 -12.2159  -3.0678  -2.8070
    -2.5898  -1.9859  -0.8465  -0.5761   3.9252   5.9522   6.5501   6.9039
     7.6263   9.9217  10.4023  11.7333  12.3195  12.7627  13.4827  13.9867
    14.4304  14.9996

     highest occupied, lowest unoccupied level (ev):     4.2095    5.4278

!    total energy              =    -571.23402848 Ry
     total all-electron energy =    -12610.611440 Ry
     estimated scf accuracy    <          1.5E-09 Ry

     The total energy is the sum of the following terms:
     one-electron contribution =    -276.29910056 Ry
     hartree contribution      =     146.55749286 Ry
     xc contribution           =     -36.33108045 Ry
     ewald contribution        =      -8.30732335 Ry
     one-center paw contrib.   =    -396.85401699 Ry

     convergence has been achieved in   9 iterations

     negative rho (up, down):  3.595E-05 0.000E+00

     Forces acting on atoms (cartesian axes, Ry/au):

     atom    1 type  1   force =     0.00000000   -0.00686171   -0.00083641
     atom    2 type  2   force =     0.00000000    0.00287135   -0.00187622
     atom    3 type  3   force =     0.00000000    0.00399037    0.00271263
     The non-local contrib.  to forces
     atom    1 type  1   force =     0.00000000   -0.00194765   -0.02489701
     atom    2 type  2   force =     0.00000000    0.00429511   -0.98426606
     atom    3 type  3   force =     0.00000000    0.00288571    0.21204405
     The ionic contribution  to forces
     atom    1 type  1   force =    -0.00000001    0.00564500   -0.50950290
     atom    2 type  2   force =     0.00000001    0.00070120   24.20378344
     atom    3 type  3   force =     0.00000000   -0.00634621  -23.69428054
     The local contribution  to forces
     atom    1 type  1   force =    -0.00000000   -0.01041921    0.52933864
     atom    2 type  2   force =     0.00000027   -0.00210068  -23.22465614
     atom    3 type  3   force =    -0.00000000    0.00761642   23.48790999
     The core correction contribution to forces
     atom    1 type  1   force =    -0.00000000   -0.00014034    0.00413895
     atom    2 type  2   force =     0.00000000   -0.00002285    0.00320910
     atom    3 type  3   force =    -0.00000000   -0.00016494   -0.00294790
     The Hubbard contrib.    to forces
     atom    1 type  1   force =     0.00000000    0.00000000    0.00000000
     atom    2 type  2   force =     0.00000000    0.00000000    0.00000000
     atom    3 type  3   force =     0.00000000    0.00000000    0.00000000
     The SCF correction term to forces
     atom    1 type  1   force =    -0.00000000    0.00000071    0.00007889
     atom    2 type  2   force =     0.00000000   -0.00000122    0.00004643
     atom    3 type  3   force =     0.00000000   -0.00000039   -0.00001998

     Total force =     0.009101     Total SCF correction =     0.000094

     BFGS Geometry Optimization
     Energy error            =      0.0E+00 Ry
     Gradient error          =      6.9E-03 Ry/Bohr

     number of scf cycles    =   1
     number of bfgs steps    =   0

     energy             new  =    -571.2340284815 Ry

     new trust radius        =       0.0069125026 bohr
     new conv_thr            =       0.0000000100 Ry


ATOMIC_POSITIONS (angstrom)
Zr           -0.0000000000       -0.0036310622       10.1033246078
F            -0.0000000020        1.9324233333       11.4054429918
Br           -0.0000000020        1.9330154921        8.2094111134



     Writing config-only to output data dir ./tmp/ZrFBr.save/
     NEW-OLD atomic charge density approx. for the potential

     Check: negative core charge=   -0.000002

     negative rho (up, down):  3.652E-05 0.000E+00

     total cpu time spent up to now is       17.0 secs

     Self-consistent Calculation

     iteration #  1     ecut=    65.00 Ry     beta= 0.70
     Davidson diagonalization with overlap
     ethr =  1.00E-06,  avg # of iterations =  3.0

     Threshold (ethr) on eigenvalues was too large:
     Diagonalizing with lowered threshold

     Davidson diagonalization with overlap
     ethr =  1.07E-08,  avg # of iterations =  2.5

     negative rho (up, down):  3.646E-05 0.000E+00

     total cpu time spent up to now is       20.4 secs

     total energy              =    -571.23410161 Ry
     estimated scf accuracy    <       0.00000286 Ry

     iteration #  2     ecut=    65.00 Ry     beta= 0.70
     Davidson diagonalization with overlap
     ethr =  1.10E-08,  avg # of iterations =  2.0

     negative rho (up, down):  3.631E-05 0.000E+00

     total cpu time spent up to now is       21.8 secs

     total energy              =    -571.23410131 Ry
     estimated scf accuracy    <       0.00000462 Ry

     iteration #  3     ecut=    65.00 Ry     beta= 0.70
     Davidson diagonalization with overlap
     ethr =  1.10E-08,  avg # of iterations =  1.9

     negative rho (up, down):  3.626E-05 0.000E+00

     total cpu time spent up to now is       23.1 secs

     total energy              =    -571.23410247 Ry
     estimated scf accuracy    <       0.00000064 Ry

     iteration #  4     ecut=    65.00 Ry     beta= 0.70
     Davidson diagonalization with overlap
     ethr =  2.48E-09,  avg # of iterations =  1.0

     negative rho (up, down):  3.625E-05 0.000E+00

     total cpu time spent up to now is       24.3 secs

     total energy              =    -571.23410258 Ry
     estimated scf accuracy    <       0.00000003 Ry

     iteration #  5     ecut=    65.00 Ry     beta= 0.70
     Davidson diagonalization with overlap
     ethr =  1.33E-10,  avg # of iterations =  2.0

     negative rho (up, down):  3.625E-05 0.000E+00

     total cpu time spent up to now is       25.7 secs

     total energy              =    -571.23410259 Ry
     estimated scf accuracy    <       0.00000001 Ry

     iteration #  6     ecut=    65.00 Ry     beta= 0.70
     Davidson diagonalization with overlap
     ethr =  4.00E-11,  avg # of iterations =  2.0

     negative rho (up, down):  3.624E-05 0.000E+00

     total cpu time spent up to now is       27.1 secs

     End of self-consistent calculation

          k = 0.0000 0.0000 0.0000 (  5879 PWs)   bands (ev):

   -45.5448 -23.9906 -23.2796 -23.2527 -20.7523 -13.0588  -3.2128  -2.5701
    -2.5099  -1.2033   1.1455   1.2836   3.7029   5.5688   5.7550   5.7974
     6.6117   6.6340   7.8248   8.6169  11.0188  13.8637  14.3980  14.6420
    15.1533  17.0720

          k = 0.0000 0.0711 0.0000 (  5863 PWs)   bands (ev):

   -45.5428 -23.9827 -23.3082 -23.2569 -20.7443 -13.0325  -3.1796  -2.6040
    -2.5092  -1.1826   0.9318   1.2455   3.7109   5.5281   5.8377   5.8454
     6.5868   6.6618   7.9423   8.8377  11.1452  13.9107  14.0639  14.7713
    15.0127  17.2335

          k = 0.0000 0.1422 0.0000 (  5849 PWs)   bands (ev):

   -45.5372 -23.9604 -23.3873 -23.2689 -20.7237 -12.9562  -3.0900  -2.6905
    -2.5081  -1.1333   0.3930   1.1411   3.7072   5.4692   5.9560   5.9658
     6.6572   6.7940   8.2624   9.3213  11.5131  13.4349  13.8702  14.8639
    15.1555  17.4987

          k = 0.0000 0.2133 0.0000 (  5850 PWs)   bands (ev):

   -45.5287 -23.9285 -23.4987 -23.2868 -20.6986 -12.8375  -2.9814  -2.7880
    -2.5093  -1.0888  -0.2780   0.9945   3.6443   5.4867   6.0124   6.1902
     6.9694   6.9697   8.7117   9.8244  11.8900  13.0586  13.4833  15.2132
    15.7807  16.9968

          k = 0.0000 0.2844 0.0000 (  5874 PWs)   bands (ev):

   -45.5187 -23.8970 -23.6162 -23.3078 -20.6766 -12.6902  -2.9821  -2.7763
    -2.5147  -1.2098  -0.7946   0.8346   3.5244   5.6022   6.1665   6.5011
     7.1575   7.3910   9.1836  10.2419  11.7725  12.7316  13.8875  15.6431
    16.1813  16.5603

          k = 0.0000 0.3555 0.0000 (  5874 PWs)   bands (ev):

   -45.5086 -23.8904 -23.7018 -23.3288 -20.6616 -12.5336  -3.0764  -2.6888
    -2.5244  -1.7235  -0.8404   0.6868   3.4006   5.7786   6.4235   6.8485
     7.3542   7.8853   9.5380  10.5354  11.6378  12.4138  14.4660  14.9396
    16.1230  16.2189

          k = 0.0000 0.4266 0.0000 (  5870 PWs)   bands (ev):

   -45.5001 -23.9320 -23.7219 -23.3464 -20.6539 -12.3927  -3.1688  -2.6362
    -2.5357  -2.1795  -0.7986   0.5698   3.3147   5.9930   6.6441   7.1228
     7.5966   8.4717   9.6879  10.7418  11.7264  12.3289  13.4818  14.8976
    15.3397  15.7117

          k = 0.0000 0.4977 0.0000 (  5892 PWs)   bands (ev):

   -45.4944 -23.9805 -23.7125 -23.3582 -20.6511 -12.2938  -3.2431  -2.6456
    -2.5447  -2.4286  -0.7627   0.4953   3.2730   6.2175   6.6989   7.2577
     7.8496   9.1165   9.7577  10.8899  11.7097  12.2475  12.9369  14.3602
    14.6727  15.3002

          k = 0.0000-0.5688 0.0000 (  5874 PWs)   bands (ev):

   -45.4924 -23.9993 -23.7068 -23.3623 -20.6505 -12.2580  -3.2743  -2.6785
    -2.5482  -2.4814  -0.7493   0.4699   3.2620   6.3487   6.6550   7.2954
     7.9593   9.4836   9.7995  11.0238  11.3378  12.1886  13.1073  13.8994
    14.5009  15.1384

          k = 0.0625 0.0356 0.0000 (  5870 PWs)   bands (ev):

   -45.5427 -23.9826 -23.2954 -23.2706 -20.7446 -13.0313  -3.1797  -2.5830
    -2.5330  -1.1813   1.0070   1.1609   3.7200   5.5824   5.7653   5.8494
     6.5656   6.6831   7.9472   8.8408  11.1495  13.9119  14.1722  14.6027
    15.0535  17.2933

          k = 0.0625 0.1067 0.0000 (  5846 PWs)   bands (ev):

   -45.5389 -23.9674 -23.3558 -23.2721 -20.7303 -12.9799  -3.1180  -2.6538
    -2.5216  -1.1463   0.5966   1.1239   3.7237   5.4958   5.8886   5.9487
     6.5974   6.7586   8.1655   9.1862  11.4043  13.6135  13.9410  14.7948
    15.0512  17.3358

          k = 0.0625 0.1778 0.0000 (  5844 PWs)   bands (ev):

   -45.5318 -23.9402 -23.4518 -23.2864 -20.7076 -12.8823  -3.0138  -2.7525
    -2.5192  -1.0973  -0.0012   0.9892   3.6954   5.4450   6.0194   6.1063
     6.7606   6.9531   8.5509   9.6659  11.8645  13.0906  13.6071  14.9520
    15.6186  16.9355

          k = 0.0625 0.2489 0.0000 (  5858 PWs)   bands (ev):

   -45.5226 -23.9075 -23.5654 -23.3074 -20.6843 -12.7489  -2.9402  -2.8123
    -2.5244  -1.0940  -0.6187   0.8147   3.6123   5.5035   6.0982   6.4158
     7.0049   7.2613   9.0152  10.1261  12.0332  12.8960  13.3945  15.3825
    16.2707  16.4960

          k = 0.0625 0.3200 0.0000 (  5863 PWs)   bands (ev):

   -45.5125 -23.8851 -23.6678 -23.3307 -20.6661 -12.5962  -3.0152  -2.7304
    -2.5367  -1.4483  -0.8466   0.6381   3.5034   5.6717   6.2519   6.7641
     7.2318   7.7058   9.4414  10.5068  11.7932  12.5565  14.1428  15.1872
    15.8738  16.3386

          k = 0.0625 0.3911 0.0000 (  5869 PWs)   bands (ev):

   -45.5032 -23.9033 -23.7174 -23.3523 -20.6551 -12.4464  -3.1089  -2.6536
    -2.5569  -1.9472  -0.8194   0.4855   3.4152   5.9014   6.4598   7.0350
     7.4619   8.2855   9.7063  10.7777  11.7410  12.3626  14.0220  14.7655
    15.3956  16.2172

          k = 0.0625 0.4622 0.0000 (  5873 PWs)   bands (ev):

   -45.4961 -23.9531 -23.7159 -23.3689 -20.6500 -12.3252  -3.1886  -2.6424
    -2.5756  -2.2800  -0.7779   0.3745   3.3674   6.1448   6.6214   7.1788
     7.6757   8.9770   9.8209  10.9496  11.8244  12.3534  13.0759  14.4887
    14.8528  15.6016

          k = 0.0625 0.5333 0.0000 (  5872 PWs)   bands (ev):

   -45.4922 -23.9875 -23.7064 -23.3779 -20.6485 -12.2570  -3.2401  -2.7034
    -2.5714  -2.4001  -0.7527   0.3163   3.3510   6.3418   6.6536   7.2298
     7.8187   9.5774   9.9254  11.0656  11.5311  12.2169  13.0288  13.9900
    14.5454  15.1211

          k = 0.1250 0.0711 0.0000 (  5859 PWs)   bands (ev):

   -45.5367 -23.9598 -23.3697 -23.2895 -20.7248 -12.9512  -3.0907  -2.6571
    -2.5514  -1.1281   0.4706   1.0310   3.7424   5.5525   5.8286   5.9534
     6.6437   6.8159   8.2779   9.3258  11.5280  13.4823  13.9132  14.9076
    14.9983  17.3491

          k = 0.1250 0.1422 0.0000 (  5856 PWs)   bands (ev):

   -45.5314 -23.9396 -23.4432 -23.2973 -20.7083 -12.8786  -3.0147  -2.7375
    -2.5410  -1.0927   0.0374   0.9254   3.7231   5.4629   5.9829   6.0843
     6.7744   6.9463   8.5611   9.6668  11.8718  13.1162  13.6377  14.9670
    15.5503  16.8996

          k = 0.1250 0.2133 0.0000 (  5851 PWs)   bands (ev):

   -45.5236 -23.9111 -23.5384 -23.3182 -20.6876 -12.7659  -2.9169  -2.8231
    -2.5459  -1.0669  -0.4832   0.7187   3.6829   5.4331   6.1105   6.3852
     6.9021   7.2392   8.9643  10.0946  12.4113  12.7062  13.2290  15.2113
    16.1770  16.4551

          k = 0.1250 0.2844 0.0000 (  5852 PWs)   bands (ev):

   -45.5143 -23.8842 -23.6348 -23.3464 -20.6687 -12.6264  -2.9473  -2.7760
    -2.5635  -1.2360  -0.8291   0.4762   3.6285   5.5224   6.2339   6.6958
     7.1350   7.6468   9.3963  10.5339  12.2703  12.7093  13.3493  15.1393
    15.9257  16.3984

          k = 0.1250 0.3555 0.0000 (  5867 PWs)   bands (ev):

   -45.5050 -23.8809 -23.7009 -23.3760 -20.6550 -12.4787  -3.0344  -2.6829
    -2.5940  -1.6876  -0.8371   0.2480   3.5825   5.7359   6.3613   6.9023
     7.4040   8.2333   9.7546  10.9382  12.0258  12.4762  14.1133  14.4677
    15.1942  16.2595

          k = 0.1250 0.4266 0.0000 (  5872 PWs)   bands (ev):

   -45.4972 -23.9164 -23.7141 -23.4017 -20.6472 -12.3463  -3.1084  -2.6613
    -2.6088  -2.0576  -0.7968   0.0650   3.5624   6.0295   6.4692   7.0504
     7.5672   8.9812   9.9713  11.2389  11.9701  12.4249  13.4870  14.2497
    14.9369  16.0501

          k = 0.1250 0.4977 0.0000 (  5871 PWs)   bands (ev):

   -45.4919 -23.9561 -23.7050 -23.4191 -20.6437 -12.2537  -3.1601  -2.7422
    -2.5810  -2.2475  -0.7634  -0.0534   3.5635   6.3083   6.5438   7.1416
     7.6140   9.7343  10.1287  11.3689  11.8970  12.3426  12.9384  14.0161
    14.6136  15.3850

          k = 0.1250 0.5688 0.0000 (  5878 PWs)   bands (ev):

   -45.4900 -23.9717 -23.6998 -23.4253 -20.6428 -12.2203  -3.1797  -2.7864
    -2.5728  -2.2957  -0.7509  -0.0944   3.5673   6.4172   6.5929   7.1531
     7.6218   9.9510  10.4830  11.3869  11.5155  12.2338  13.0859  13.8527
    14.5837  14.9177

          k = 0.1250 0.0000 0.0000 (  5872 PWs)   bands (ev):

   -45.5385 -23.9670 -23.3376 -23.2925 -20.7311 -12.9763  -3.1183  -2.6141
    -2.5688  -1.1427   0.6651   1.0349   3.7471   5.6230   5.7251   5.9490
     6.5440   6.8125   8.1772   9.1896  11.4143  13.6609  13.9609  14.7398
    15.0104  17.3410

          k = 0.1875 0.1067 0.0000 (  5867 PWs)   bands (ev):

   -45.5276 -23.9270 -23.4819 -23.3101 -20.7008 -12.8268  -2.9832  -2.7585
    -2.5588  -1.0749  -0.2197   0.8729   3.7126   5.5289   5.9760   6.0870
     6.9444   7.0102   8.7367   9.8226  11.8992  13.1075  13.5514  15.2698
    15.6296  17.0166

          k = 0.1875 0.1778 0.0000 (  5870 PWs)   bands (ev):

   -45.5216 -23.9060 -23.5534 -23.3254 -20.6861 -12.7393  -2.9375  -2.7989
    -2.5597  -1.0753  -0.5804   0.7127   3.6738   5.5069   6.0557   6.3773
     7.0108   7.2659   9.0351  10.1201  12.0212  12.9575  13.4659  15.4187
    16.1888  16.4620

          k = 0.1875 0.2489 0.0000 (  5864 PWs)   bands (ev):

   -45.5138 -23.8829 -23.6291 -23.3560 -20.6698 -12.6205  -2.9401  -2.7785
    -2.5795  -1.2162  -0.8199   0.4223   3.6636   5.5150   6.2082   6.6920
     7.1287   7.6544   9.4059  10.5274  12.2423  12.7360  13.4242  15.1326
    15.9836  16.4211

          k = 0.1875 0.3200 0.0000 (  5877 PWs)   bands (ev):

   -45.5053 -23.8718 -23.6872 -23.3957 -20.6555 -12.4853  -2.9907  -2.7119
    -2.6134  -1.5466  -0.8442   0.0862   3.6883   5.6098   6.3940   6.7932
     7.3965   8.2278   9.7776  10.9941  12.3462  12.5886  13.6473  14.3989
    15.5506  16.0125

          k = 0.1875 0.3911 0.0000 (  5868 PWs)   bands (ev):

   -45.4974 -23.8884 -23.7077 -23.4360 -20.6453 -12.3538  -3.0454  -2.6960
    -2.6192  -1.8568  -0.8194  -0.2179   3.7384   5.8105   6.5286   6.8602
     7.5678   8.9964  10.0772  11.4478  12.2415  12.5789  13.7002  14.2267
    14.6176  15.7042

          k = 0.1875 0.4622 0.0000 (  5868 PWs)   bands (ev):

   -45.4913 -23.9189 -23.7021 -23.4685 -20.6394 -12.2482  -3.0889  -2.7608
    -2.5828  -2.0613  -0.7926  -0.4425   3.7955   6.0888   6.5326   7.0221
     7.5647   9.8378  10.2591  11.7420  12.1574  12.6633  13.1278  13.9313
    14.6408  15.5489

          k = 0.1875 0.5333 0.0000 (  5882 PWs)   bands (ev):

   -45.4880 -23.9392 -23.6941 -23.4866 -20.6368 -12.1892  -3.1129  -2.8179
    -2.5637  -2.1504  -0.7753  -0.5621   3.8344   6.3345   6.5019   7.1518
     7.4656  10.1588  10.8389  11.7240  11.9519  12.4041  13.1026  13.9703
    14.4958  15.1143

          k = 0.1875-0.0356 0.0000 (  5864 PWs)   bands (ev):

   -45.5309 -23.9390 -23.4348 -23.3088 -20.7096 -12.8729  -3.0153  -2.7195
    -2.5700  -1.0873   0.0490   0.8939   3.7490   5.5179   5.9625   6.0023
     6.7225   7.0070   8.5733   9.6658  11.8797  13.1009  13.6563  14.9591
    15.5365  16.9447

          k = 0.2500 0.1422 0.0000 (  5878 PWs)   bands (ev):

   -45.5170 -23.8940 -23.6016 -23.3335 -20.6800 -12.6721  -2.9736  -2.7665
    -2.5691  -1.1733  -0.7693   0.7025   3.6153   5.6025   6.1427   6.4126
     7.1573   7.4088   9.2142  10.2258  11.7691  12.8090  13.9721  15.7444
    16.2851  16.4197

          k = 0.2500 0.2133 0.0000 (  5886 PWs)   bands (ev):

   -45.5109 -23.8812 -23.6562 -23.3537 -20.6692 -12.5792  -3.0034  -2.7317
    -2.5799  -1.4104  -0.8274   0.5134   3.5880   5.6608   6.2068   6.7260
     7.2239   7.7274   9.4660  10.4843  11.7887  12.6294  14.2588  15.2842
    15.9058  16.3351

          k = 0.2500 0.2844 0.0000 (  5877 PWs)   bands (ev):

   -45.5038 -23.8761 -23.6941 -23.3932 -20.6573 -12.4653  -3.0233  -2.6970
    -2.6146  -1.6620  -0.8229   0.1597   3.6441   5.7234   6.3184   6.9017
     7.3892   8.2508   9.7668  10.9152  12.0129  12.5173  14.2059  14.5462
    15.2672  16.2558

          k = 0.2500 0.3555 0.0000 (  5875 PWs)   bands (ev):

   -45.4967 -23.8849 -23.7053 -23.4450 -20.6466 -12.3463  -3.0394  -2.7138
    -2.6188  -1.8463  -0.8137  -0.2584   3.7685   5.8062   6.4942   6.8755
     7.5604   9.0051  10.0803  11.4351  12.2457  12.5584  13.7191  14.3309
    14.6814  15.6285

          k = 0.2500 0.4266 0.0000 (  5876 PWs)   bands (ev):

   -45.4907 -23.8987 -23.6990 -23.4975 -20.6384 -12.2409  -3.0621  -2.7698
    -2.5841  -1.9479  -0.8519  -0.6037   3.9193   5.9496   6.5651   6.9367
     7.5743   9.8757  10.3158  11.7834  12.2807  12.9092  13.4672  14.0139
    14.4329  15.0065

          k = 0.2500 0.4977 0.0000 (  5873 PWs)   bands (ev):

   -45.4866 -23.9079 -23.6900 -23.5370 -20.6334 -12.1681  -3.0925  -2.7996
    -2.5555  -1.9870  -1.0255  -0.7084   4.0428   6.1481   6.4972   7.0931
     7.4699  10.2874  10.8546  11.7259  12.5318  13.0499  13.2161  13.8440
    14.3885  14.9796

          k = 0.2500 0.5688 0.0000 (  5864 PWs)   bands (ev):

   -45.4852 -23.9107 -23.6863 -23.5518 -20.6318 -12.1420  -3.1077  -2.8055
    -2.5446  -1.9945  -1.1191  -0.7185   4.0907   6.2750   6.4451   7.1378
     7.4151  10.2553  11.6045  11.8136  11.8709  13.0589  13.4235  13.8647
    14.4237  15.0246

          k = 0.2500-0.0711 0.0000 (  5875 PWs)   bands (ev):

   -45.5210 -23.9053 -23.5511 -23.3311 -20.6877 -12.7323  -2.9379  -2.7943
    -2.5782  -1.0711  -0.5938   0.7146   3.6891   5.5236   6.0628   6.3208
     7.0018   7.2860   9.0434  10.1166  12.0181  12.9456  13.4325  15.4200
    16.2324  16.5420

          k = 0.2500 0.0000 0.0000 (  5876 PWs)   bands (ev):

   -45.5224 -23.9096 -23.5293 -23.3339 -20.6904 -12.7532  -2.9183  -2.8078
    -2.5858  -1.0538  -0.4838   0.6797   3.7292   5.4639   6.0723   6.3125
     6.8931   7.2690   8.9837  10.0891  12.4200  12.6600  13.2495  15.2396
    16.1872  16.5138

          k = 0.3125 0.1778 0.0000 (  5884 PWs)   bands (ev):

   -45.5063 -23.8837 -23.6915 -23.3565 -20.6664 -12.5075  -3.0656  -2.6912
    -2.5829  -1.6971  -0.8139   0.5454   3.5001   5.7526   6.4004   6.7952
     7.3478   7.9112   9.5692  10.4977  11.6566  12.5002  14.5798  15.0848
    16.0732  16.2391

          k = 0.3125 0.2489 0.0000 (  5893 PWs)   bands (ev):

   -45.5010 -23.8944 -23.7100 -23.3789 -20.6594 -12.4213  -3.0962  -2.6652
    -2.6023  -1.9256  -0.7914   0.3480   3.5098   5.8747   6.4287   7.0022
     7.4498   8.3166   9.7273  10.7352  11.7669  12.4464  14.1533  14.8580
    15.4126  16.2740

          k = 0.3125 0.3200 0.0000 (  5897 PWs)   bands (ev):

   -45.4953 -23.9075 -23.7094 -23.4241 -20.6508 -12.3248  -3.0957  -2.7001
    -2.6143  -2.0467  -0.7733  -0.0404   3.6372   6.0135   6.4274   7.0476
     7.5543   9.0051   9.9814  11.1882  11.9897  12.4835  13.5995  14.2648
    15.0473  16.1177

          k = 0.3125 0.3911 0.0000 (  5878 PWs)   bands (ev):

   -45.4900 -23.9119 -23.6992 -23.4843 -20.6419 -12.2326  -3.0813  -2.7835
    -2.5880  -2.0573  -0.7866  -0.4979   3.8425   6.0920   6.4898   7.0311
     7.5542   9.8592  10.2649  11.7135  12.1407  12.6742  13.2355  13.9069
    14.7495  15.4751

          k = 0.3125 0.4622 0.0000 (  5864 PWs)   bands (ev):

   -45.4860 -23.9043 -23.6886 -23.5448 -20.6347 -12.1600  -3.0927  -2.8073
    -2.5588  -1.9850  -1.0540  -0.7006   4.0611   6.1576   6.4817   7.0936
     7.4614  10.3058  10.8590  11.7213  12.5620  13.0446  13.2200  13.7623
    14.4339  15.0025

          k = 0.3125 0.5333 0.0000 (  5865 PWs)   bands (ev):

   -45.4838 -23.8932 -23.6830 -23.5847 -20.6307 -12.1199  -3.1200  -2.7855
    -2.5364  -1.8503  -1.4079  -0.7156   4.2082   6.2351   6.4289   7.0775
     7.4454  10.2793  11.6239  11.7675  12.6424  12.8708  13.5829  13.7441
    14.5357  15.1607

          k = 0.3125-0.1067 0.0000 (  5884 PWs)   bands (ev):

   -45.5103 -23.8808 -23.6568 -23.3560 -20.6708 -12.5718  -3.0064  -2.7295
    -2.5949  -1.4271  -0.8277   0.5301   3.5895   5.6556   6.2134   6.7236
     7.2362   7.7183   9.4727  10.4786  11.7823  12.6251  14.1834  15.2990
    15.9120  16.3651

          k = 0.3125-0.0356 0.0000 (  5868 PWs)   bands (ev):

   -45.5125 -23.8815 -23.6270 -23.3647 -20.6728 -12.6059  -2.9404  -2.7774
    -2.6103  -1.2304  -0.8254   0.4289   3.6854   5.5263   6.1719   6.6885
     7.1434   7.6503   9.4195  10.5206  12.2198  12.7361  13.3470  15.1853
    16.0136  16.4584

          k = 0.3750 0.2133 0.0000 (  5903 PWs)   bands (ev):

   -45.4972 -23.9215 -23.7162 -23.3760 -20.6597 -12.3592  -3.1571  -2.6473
    -2.5969  -2.1720  -0.7620   0.4211   3.4160   5.9498   6.6176   7.0988
     7.5972   8.5026   9.7198  10.6980  11.7771  12.4296  13.5948  15.0013
    15.4747  15.5727

          k = 0.3750 0.2844 0.0000 (  5874 PWs)   bands (ev):

   -45.4933 -23.9419 -23.7111 -23.3977 -20.6554 -12.2926  -3.1740  -2.6723
    -2.6086  -2.2826  -0.7407   0.2319   3.4641   6.0950   6.6126   7.1501
     7.6780   9.0053   9.8437  10.9054  11.8893  12.4632  13.1617  14.5360
    14.9317  15.5860

          k = 0.3750 0.3555 0.0000 (  5870 PWs)   bands (ev):

   -45.4894 -23.9458 -23.7011 -23.4443 -20.6484 -12.2248  -3.1464  -2.7780
    -2.5946  -2.2587  -0.7325  -0.1625   3.6411   6.2645   6.5375   7.1263
     7.6173   9.7576  10.1505  11.3022  11.9714  12.4460  12.9727  14.0357
    14.6985  15.4338

          k = 0.3750 0.4266 0.0000 (  5865 PWs)   bands (ev):

   -45.4862 -23.9310 -23.6909 -23.5061 -20.6405 -12.1663  -3.1073  -2.8445
    -2.5730  -2.1605  -0.7808  -0.6033   3.8847   6.3331   6.4813   7.1373
     7.4659  10.1991  10.8558  11.7464  11.9489  12.4005  13.1270  13.9885
    14.5399  15.1943

          k = 0.3750 0.4977 0.0000 (  5860 PWs)   bands (ev):

   -45.4840 -23.9059 -23.6841 -23.5637 -20.6343 -12.1268  -3.1121  -2.8205
    -2.5502  -2.0043  -1.1539  -0.7001   4.1113   6.2890   6.4368   7.1385
     7.3988  10.3012  11.5932  11.8682  11.9406  12.9200  13.3942  13.8409
    14.4726  15.0633

          k = 0.3750 0.5688 0.0000 (  5866 PWs)   bands (ev):

   -45.4832 -23.8921 -23.6821 -23.5889 -20.6319 -12.1128  -3.1240  -2.7940
    -2.5383  -1.8694  -1.4039  -0.7072   4.2096   6.2401   6.4316   7.0863
     7.4342  10.3084  11.5976  11.8866  12.5904  12.8518  13.4579  13.7839
    14.5690  15.1889

          k = 0.3750-0.1422 0.0000 (  5886 PWs)   bands (ev):

   -45.5004 -23.8952 -23.7107 -23.3794 -20.6608 -12.4146  -3.1010  -2.6618
    -2.6170  -1.9426  -0.7891   0.3678   3.5031   5.8649   6.4190   7.0285
     7.4731   8.3044   9.7435  10.7254  11.7645  12.4439  14.1285  14.8192
    15.4568  16.2332

          k = 0.3750-0.0711 0.0000 (  5879 PWs)   bands (ev):

   -45.5026 -23.8761 -23.6950 -23.3969 -20.6603 -12.4511  -3.0301  -2.6923
    -2.6439  -1.6970  -0.8176   0.1882   3.6430   5.7213   6.3005   6.9166
     7.4291   8.2402   9.7861  10.9061  11.9976  12.5088  14.1192  14.5391
    15.2548  16.3087

          k = 0.3750 0.0000 0.0000 (  5874 PWs)   bands (ev):

   -45.5034 -23.8699 -23.6851 -23.4072 -20.6598 -12.4638  -2.9923  -2.7180
    -2.6505  -1.5788  -0.8343   0.0882   3.7130   5.6138   6.3295   6.8264
     7.4315   8.2254   9.8007  10.9846  12.3273  12.5493  13.5973  14.4379
    15.5861  16.0663

          k = 0.4375 0.2489 0.0000 (  5875 PWs)   bands (ev):

   -45.4911 -23.9691 -23.7080 -23.3889 -20.6575 -12.2548  -3.2281  -2.6630
    -2.6091  -2.4345  -0.7190   0.3421   3.3745   6.1596   6.6716   7.2398
     7.8770   9.1393   9.7986  10.8709  11.8055  12.3642  12.9815  14.4674
    14.7929  15.1273

          k = 0.4375 0.3200 0.0000 (  5870 PWs)   bands (ev):

   -45.4890 -23.9762 -23.7022 -23.4077 -20.6546 -12.2192  -3.2238  -2.7373
    -2.6038  -2.4213  -0.7102   0.1747   3.4459   6.2715   6.6478   7.2098
     7.8472   9.5881   9.9609  11.0599  11.6431  12.3051  13.0575  14.0779
    14.6468  15.0174

          k = 0.4375 0.3911 0.0000 (  5873 PWs)   bands (ev):

   -45.4872 -23.9618 -23.6960 -23.4513 -20.6483 -12.1864  -3.1671  -2.8275
    -2.5889  -2.3192  -0.7169  -0.1971   3.6414   6.3627   6.5847   7.1363
     7.6514   9.9913  10.5086  11.4265  11.5261  12.2857  13.1054  13.9240
    14.6422  14.9284

          k = 0.4375 0.4622 0.0000 (  5868 PWs)   bands (ev):

   -45.4858 -23.9320 -23.6909 -23.5064 -20.6413 -12.1615  -3.1101  -2.8550
    -2.5733  -2.1717  -0.7802  -0.5896   3.8791   6.3280   6.4839   7.1208
     7.4977  10.2228  10.9345  11.7156  11.8968  12.3774  13.1334  14.0059
    14.5314  15.1503

          k = 0.4375 0.5333 0.0000 (  5865 PWs)   bands (ev):

   -45.4850 -23.9048 -23.6879 -23.5485 -20.6368 -12.1480  -3.0986  -2.8272
    -2.5611  -2.0168  -1.0418  -0.6841   4.0555   6.1569   6.4940   7.0734
     7.4912  10.3541  10.9643  11.6687  12.5690  12.9609  13.1568  13.8088
    14.4408  14.9729

          k = 0.4375-0.1778 0.0000 (  5884 PWs)   bands (ev):

   -45.4929 -23.9431 -23.7112 -23.3975 -20.6564 -12.2879  -3.1784  -2.6817
    -2.6094  -2.2911  -0.7392   0.2470   3.4564   6.0988   6.5745   7.1745
     7.7082   9.0079   9.8714  10.8949  11.8811  12.4650  13.1407  14.5240
    14.9380  15.5776

          k = 0.4375-0.1067 0.0000 (  5883 PWs)   bands (ev):

   -45.4943 -23.9094 -23.7098 -23.4250 -20.6530 -12.3133  -3.1037  -2.7151
    -2.6208  -2.0741  -0.7690  -0.0098   3.6257   6.0046   6.4185   7.0451
     7.6129   9.0131  10.0262  11.1710  11.9758  12.4790  13.5572  14.2700
    15.0006  16.0835

          k = 0.4375-0.0356 0.0000 (  5881 PWs)   bands (ev):

   -45.4951 -23.8854 -23.7050 -23.4507 -20.6503 -12.3270  -3.0469  -2.7386
    -2.6300  -1.8902  -0.8047  -0.2286   3.7671   5.8094   6.4712   6.8723
     7.6192   9.0248  10.1257  11.4263  12.2484  12.4981  13.7212  14.2415
    14.6540  15.6789

          k =-0.5000-0.2844 0.0000 (  5882 PWs)   bands (ev):

   -45.4889 -23.9879 -23.7025 -23.3934 -20.6571 -12.2171  -3.2576  -2.6991
    -2.6149  -2.4909  -0.7031   0.3151   3.3633   6.2783   6.6340   7.2772
     8.0003   9.4941   9.8353  11.0658  11.4303  12.2750  13.1443  14.0064
    14.6227  14.9542

          k =-0.5000-0.2133 0.0000 (  5876 PWs)   bands (ev):

   -45.4889 -23.9768 -23.7022 -23.4075 -20.6549 -12.2175  -3.2257  -2.7427
    -2.6027  -2.4234  -0.7098   0.1803   3.4426   6.2836   6.6166   7.2217
     7.8592   9.6035   9.9686  11.0648  11.6196  12.3032  13.0627  14.0714
    14.6209  15.0389

          k =-0.5000-0.1422 0.0000 (  5872 PWs)   bands (ev):

   -45.4889 -23.9475 -23.7011 -23.4443 -20.6496 -12.2183  -3.1517  -2.7924
    -2.5947  -2.2709  -0.7309  -0.1433   3.6317   6.2784   6.4980   7.1259
     7.6633   9.7804  10.2061  11.2909  11.9240  12.4384  12.9623  14.0461
    14.6690  15.4225

          k =-0.5000-0.0711 0.0000 (  5881 PWs)   bands (ev):

   -45.4889 -23.9139 -23.6990 -23.4863 -20.6444 -12.2192  -3.0885  -2.8080
    -2.5909  -2.0896  -0.7828  -0.4655   3.8315   6.0859   6.5005   6.9966
     7.6173   9.8919  10.3507  11.6890  12.1134  12.6397  13.1878  13.9373
    14.6956  15.4543

          k =-0.5000-0.0000 0.0000 (  5884 PWs)   bands (ev):

   -45.4889 -23.8981 -23.6976 -23.5061 -20.6422 -12.2195  -3.0681  -2.8052
    -2.5900  -1.9902  -0.8488  -0.5772   3.9227   5.9558   6.5629   6.9029
     7.6294   9.9241  10.4065  11.7377  12.3224  12.7690  13.4815  13.9883
    14.4272  14.9945

     highest occupied, lowest unoccupied level (ev):     4.2096    5.4331

!    total energy              =    -571.23410259 Ry
     total all-electron energy =    -12610.611514 Ry
     estimated scf accuracy    <          4.1E-10 Ry

     The total energy is the sum of the following terms:
     one-electron contribution =    -276.51725064 Ry
     hartree contribution      =     146.66722915 Ry
     xc contribution           =     -36.33219148 Ry
     ewald contribution        =      -8.19781456 Ry
     one-center paw contrib.   =    -396.85407505 Ry

     convergence has been achieved in   6 iterations

     negative rho (up, down):  3.624E-05 0.000E+00

     Forces acting on atoms (cartesian axes, Ry/au):

     atom    1 type  1   force =     0.00000000   -0.00540954   -0.00036069
     atom    2 type  2   force =     0.00000000    0.00238053   -0.00173760
     atom    3 type  3   force =     0.00000000    0.00302901    0.00209829
     The non-local contrib.  to forces
     atom    1 type  1   force =     0.00000000   -0.00092966   -0.02498772
     atom    2 type  2   force =     0.00000000    0.00758430   -0.98376375
     atom    3 type  3   force =     0.00000000    0.00248375    0.21180966
     The ionic contribution  to forces
     atom    1 type  1   force =    -0.00000001    0.03679726   -0.50218351
     atom    2 type  2   force =     0.00000001   -0.02190415   24.21156240
     atom    3 type  3   force =     0.00000000   -0.01489311  -23.70937890
     The local contribution  to forces
     atom    1 type  1   force =    -0.00000000   -0.04113233    0.52270365
     atom    2 type  2   force =     0.00000027    0.01673602  -23.23273749
     atom    3 type  3   force =    -0.00000000    0.01554531   23.50255194
     The core correction contribution to forces
     atom    1 type  1   force =    -0.00000000   -0.00013767    0.00415455
     atom    2 type  2   force =     0.00000000   -0.00003116    0.00320672
     atom    3 type  3   force =    -0.00000000   -0.00010177   -0.00290799
     The Hubbard contrib.    to forces
     atom    1 type  1   force =     0.00000000    0.00000000    0.00000000
     atom    2 type  2   force =     0.00000000    0.00000000    0.00000000
     atom    3 type  3   force =     0.00000000    0.00000000    0.00000000
     The SCF correction term to forces
     atom    1 type  1   force =     0.00000000   -0.00000297   -0.00004805
     atom    2 type  2   force =     0.00000000   -0.00000031   -0.00000587
     atom    3 type  3   force =    -0.00000000   -0.00000099    0.00002320

     Total force =     0.007187     Total SCF correction =     0.000054
     Energy error            =      7.4E-05 Ry
     Gradient error          =      5.4E-03 Ry/Bohr

     number of scf cycles    =   2
     number of bfgs steps    =   1

     energy             old  =    -571.2340284815 Ry
     energy             new  =    -571.2341025875 Ry

     CASE: energy            _new < energy            _old

     new trust radius        =       0.0076037529 bohr
     new conv_thr            =       0.0000000007 Ry


ATOMIC_POSITIONS (angstrom)
Zr           -0.0000000000       -0.0076456850       10.1030539994
F            -0.0000000020        1.9341888660       11.4041559859
Br           -0.0000000020        1.9352645823        8.2109687278



     Writing config-only to output data dir ./tmp/ZrFBr.save/
     NEW-OLD atomic charge density approx. for the potential

     Check: negative core charge=   -0.000002

     negative rho (up, down):  3.671E-05 0.000E+00

     total cpu time spent up to now is       27.5 secs

     Self-consistent Calculation

     iteration #  1     ecut=    65.00 Ry     beta= 0.70
     Davidson diagonalization with overlap
     ethr =  1.00E-06,  avg # of iterations =  3.0

     Threshold (ethr) on eigenvalues was too large:
     Diagonalizing with lowered threshold

     Davidson diagonalization with overlap
     ethr =  1.36E-08,  avg # of iterations =  2.6

     negative rho (up, down):  3.675E-05 0.000E+00

     total cpu time spent up to now is       30.9 secs

     total energy              =    -571.23416334 Ry
     estimated scf accuracy    <       0.00000359 Ry

     iteration #  2     ecut=    65.00 Ry     beta= 0.70
     Davidson diagonalization with overlap
     ethr =  1.38E-08,  avg # of iterations =  2.0

     negative rho (up, down):  3.658E-05 0.000E+00

     total cpu time spent up to now is       32.4 secs

     total energy              =    -571.23416301 Ry
     estimated scf accuracy    <       0.00000542 Ry

     iteration #  3     ecut=    65.00 Ry     beta= 0.70
     Davidson diagonalization with overlap
     ethr =  1.38E-08,  avg # of iterations =  1.9

     negative rho (up, down):  3.653E-05 0.000E+00

     total cpu time spent up to now is       33.7 secs

     total energy              =    -571.23416439 Ry
     estimated scf accuracy    <       0.00000088 Ry

     iteration #  4     ecut=    65.00 Ry     beta= 0.70
     Davidson diagonalization with overlap
     ethr =  3.38E-09,  avg # of iterations =  1.0

     negative rho (up, down):  3.653E-05 0.000E+00

     total cpu time spent up to now is       34.9 secs

     total energy              =    -571.23416454 Ry
     estimated scf accuracy    <       0.00000004 Ry

     iteration #  5     ecut=    65.00 Ry     beta= 0.70
     Davidson diagonalization with overlap
     ethr =  1.72E-10,  avg # of iterations =  2.0

     negative rho (up, down):  3.653E-05 0.000E+00

     total cpu time spent up to now is       36.3 secs

     total energy              =    -571.23416455 Ry
     estimated scf accuracy    <       0.00000001 Ry

     iteration #  6     ecut=    65.00 Ry     beta= 0.70
     Davidson diagonalization with overlap
     ethr =  5.12E-11,  avg # of iterations =  2.0

     negative rho (up, down):  3.652E-05 0.000E+00

     total cpu time spent up to now is       37.6 secs

     End of self-consistent calculation

          k = 0.0000 0.0000 0.0000 (  5879 PWs)   bands (ev):

   -45.5402 -23.9875 -23.2750 -23.2491 -20.7533 -13.0606  -3.2152  -2.5691
    -2.5168  -1.2022   1.1452   1.2736   3.7100   5.5865   5.7508   5.7972
     6.6218   6.6275   7.8229   8.6166  11.0183  13.8597  14.3981  14.6459
    15.1666  17.0756

          k = 0.0000 0.0711 0.0000 (  5863 PWs)   bands (ev):

   -45.5382 -23.9796 -23.3036 -23.2533 -20.7453 -13.0343  -3.1821  -2.6030
    -2.5162  -1.1816   0.9314   1.2357   3.7187   5.5410   5.8378   5.8442
     6.5770   6.6774   7.9404   8.8363  11.1448  13.9078  14.0630  14.7750
    15.0273  17.2357

          k = 0.0000 0.1422 0.0000 (  5849 PWs)   bands (ev):

   -45.5325 -23.9574 -23.3826 -23.2653 -20.7248 -12.9579  -3.0930  -2.6896
    -2.5152  -1.1324   0.3923   1.1318   3.7168   5.4787   5.9525   5.9663
     6.6531   6.8089   8.2608   9.3184  11.5127  13.4350  13.8721  14.8737
    15.1585  17.5012

          k = 0.0000 0.2133 0.0000 (  5850 PWs)   bands (ev):

   -45.5241 -23.9255 -23.4939 -23.2832 -20.6997 -12.8393  -2.9851  -2.7870
    -2.5166  -1.0877  -0.2791   0.9858   3.6558   5.4938   6.0071   6.1916
     6.9687   6.9839   8.7106   9.8206  11.8898  13.0614  13.4888  15.2167
    15.7826  16.9980

          k = 0.0000 0.2844 0.0000 (  5874 PWs)   bands (ev):

   -45.5140 -23.8941 -23.6113 -23.3042 -20.6777 -12.6920  -2.9844  -2.7777
    -2.5222  -1.2097  -0.7945   0.8265   3.5370   5.6069   6.1616   6.5035
     7.1708   7.3916   9.1836  10.2373  11.7725  12.7428  13.8853  15.6464
    16.1823  16.5589

          k = 0.0000 0.3555 0.0000 (  5874 PWs)   bands (ev):

   -45.5040 -23.8871 -23.6972 -23.3252 -20.6628 -12.5356  -3.0780  -2.6916
    -2.5320  -1.7251  -0.8385   0.6792   3.4137   5.7807   6.4198   6.8524
     7.3662   7.8869   9.5395  10.5294  11.6385  12.4255  14.4574  14.9489
    16.1275  16.2246

          k = 0.0000 0.4266 0.0000 (  5870 PWs)   bands (ev):

   -45.4955 -23.9280 -23.7181 -23.3428 -20.6550 -12.3947  -3.1702  -2.6393
    -2.5434  -2.1821  -0.7960   0.5625   3.3280   5.9927   6.6419   7.1291
     7.6065   8.4738   9.6905  10.7356  11.7295  12.3383  13.4792  14.8996
    15.3471  15.7175

          k = 0.0000 0.4977 0.0000 (  5892 PWs)   bands (ev):

   -45.4898 -23.9760 -23.7090 -23.3546 -20.6522 -12.2959  -3.2442  -2.6480
    -2.5526  -2.4326  -0.7597   0.4883   3.2862   6.2146   6.6993   7.2657
     7.8583   9.1171   9.7611  10.8872  11.7138  12.2524  12.9343  14.3674
    14.6747  15.3056

          k = 0.0000-0.5688 0.0000 (  5874 PWs)   bands (ev):

   -45.4877 -23.9947 -23.7035 -23.3587 -20.6516 -12.2602  -3.2752  -2.6807
    -2.5560  -2.4860  -0.7461   0.4629   3.2752   6.3429   6.6583   7.3037
     7.9678   9.4797   9.8060  11.0311  11.3324  12.1929  13.1034  13.9091
    14.5023  15.1435

          k = 0.0625 0.0356 0.0000 (  5870 PWs)   bands (ev):

   -45.5381 -23.9794 -23.2910 -23.2668 -20.7454 -13.0330  -3.1819  -2.5829
    -2.5388  -1.1803   1.0032   1.1549   3.7264   5.5969   5.7667   5.8474
     6.5743   6.6771   7.9458   8.8411  11.1492  13.9086  14.1753  14.6048
    15.0626  17.2965

          k = 0.0625 0.1067 0.0000 (  5846 PWs)   bands (ev):

   -45.5342 -23.9643 -23.3513 -23.2685 -20.7312 -12.9817  -3.1205  -2.6537
    -2.5275  -1.1454   0.5948   1.1160   3.7314   5.5059   5.8890   5.9493
     6.5951   6.7672   8.1641   9.1848  11.4040  13.6144  13.9405  14.8024
    15.0557  17.3390

          k = 0.0625 0.1778 0.0000 (  5844 PWs)   bands (ev):

   -45.5272 -23.9371 -23.4471 -23.2828 -20.7086 -12.8841  -3.0170  -2.7521
    -2.5257  -1.0964  -0.0024   0.9810   3.7050   5.4527   6.0165   6.1078
     6.7639   6.9609   8.5497   9.6632  11.8643  13.0913  13.6133  14.9555
    15.6212  16.9385

          k = 0.0625 0.2489 0.0000 (  5858 PWs)   bands (ev):

   -45.5179 -23.9045 -23.5606 -23.3038 -20.6853 -12.7507  -2.9433  -2.8127
    -2.5312  -1.0932  -0.6196   0.8069   3.6235   5.5093   6.0940   6.4180
     7.0155   7.2635   9.0148  10.1225  12.0329  12.9043  13.3958  15.3837
    16.2683  16.5029

          k = 0.0625 0.3200 0.0000 (  5863 PWs)   bands (ev):

   -45.5079 -23.8820 -23.6629 -23.3271 -20.6672 -12.5981  -3.0168  -2.7330
    -2.5439  -1.4493  -0.8455   0.6308   3.5155   5.6757   6.2478   6.7677
     7.2434   7.7068   9.4422  10.5022  11.7931  12.5680  14.1403  15.1902
    15.8774  16.3398

          k = 0.0625 0.3911 0.0000 (  5869 PWs)   bands (ev):

   -45.4986 -23.8995 -23.7132 -23.3488 -20.6562 -12.4484  -3.1103  -2.6568
    -2.5643  -1.9491  -0.8174   0.4785   3.4278   5.9032   6.4566   7.0410
     7.4716   8.2872   9.7085  10.7720  11.7424  12.3730  14.0192  14.7698
    15.3992  16.2251

          k = 0.0625 0.4622 0.0000 (  5873 PWs)   bands (ev):

   -45.4915 -23.9488 -23.7122 -23.3654 -20.6511 -12.3273  -3.1897  -2.6465
    -2.5820  -2.2832  -0.7753   0.3679   3.3801   6.1440   6.6201   7.1862
     7.6845   8.9784   9.8239  10.9449  11.8286  12.3609  13.0730  14.4957
    14.8519  15.6099

          k = 0.0625 0.5333 0.0000 (  5872 PWs)   bands (ev):

   -45.4876 -23.9829 -23.7030 -23.3744 -20.6496 -12.2591  -3.2409  -2.7077
    -2.5768  -2.4046  -0.7499   0.3099   3.3637   6.3377   6.6552   7.2378
     7.8273   9.5740   9.9327  11.0663  11.5319  12.2214  13.0261  13.9974
    14.5457  15.1278

          k = 0.1250 0.0711 0.0000 (  5859 PWs)   bands (ev):

   -45.5320 -23.9565 -23.3662 -23.2854 -20.7255 -12.9531  -3.0927  -2.6604
    -2.5533  -1.1274   0.4651   1.0276   3.7467   5.5600   5.8372   5.9543
     6.6495   6.8108   8.2775   9.3267  11.5281  13.4854  13.9139  14.9124
    14.9962  17.3515

          k = 0.1250 0.1422 0.0000 (  5856 PWs)   bands (ev):

   -45.5268 -23.9364 -23.4392 -23.2935 -20.7091 -12.8804  -3.0171  -2.7392
    -2.5448  -1.0922   0.0345   0.9197   3.7290   5.4703   5.9886   6.0846
     6.7758   6.9500   8.5606   9.6661  11.8725  13.1171  13.6414  14.9686
    15.5517  16.9049

          k = 0.1250 0.2133 0.0000 (  5851 PWs)   bands (ev):

   -45.5190 -23.9079 -23.5340 -23.3146 -20.6885 -12.7678  -2.9198  -2.8240
    -2.5509  -1.0667  -0.4846   0.7122   3.6905   5.4395   6.1115   6.3873
     6.9087   7.2414   8.9642  10.0927  12.4133  12.7065  13.2342  15.2126
    16.1754  16.4616

          k = 0.1250 0.2844 0.0000 (  5852 PWs)   bands (ev):

   -45.5097 -23.8810 -23.6302 -23.3430 -20.6696 -12.6283  -2.9487  -2.7788
    -2.5692  -1.2371  -0.8285   0.4697   3.6377   5.5279   6.2317   6.7012
     7.1437   7.6473   9.3970  10.5309  12.2697  12.7192  13.3488  15.1409
    15.9259  16.4019

          k = 0.1250 0.3555 0.0000 (  5867 PWs)   bands (ev):

   -45.5004 -23.8774 -23.6964 -23.3727 -20.6559 -12.4807  -3.0356  -2.6865
    -2.6001  -1.6890  -0.8358   0.2420   3.5927   5.7404   6.3576   6.9107
     7.4115   8.2340   9.7563  10.9343  12.0255  12.4855  14.1139  14.4686
    15.1982  16.2596

          k = 0.1250 0.4266 0.0000 (  5872 PWs)   bands (ev):

   -45.4925 -23.9124 -23.7102 -23.3985 -20.6481 -12.3484  -3.1093  -2.6678
    -2.6126  -2.0595  -0.7952   0.0594   3.5733   6.0328   6.4655   7.0589
     7.5746   8.9823   9.9739  11.2347  11.9722  12.4319  13.4875  14.2526
    14.9380  16.0590

          k = 0.1250 0.4977 0.0000 (  5871 PWs)   bands (ev):

   -45.4872 -23.9517 -23.7014 -23.4159 -20.6446 -12.2559  -3.1608  -2.7485
    -2.5848  -2.2504  -0.7616  -0.0587   3.5748   6.3092   6.5421   7.1491
     7.6222   9.7330  10.1343  11.3659  11.9016  12.3479  12.9355  14.0211
    14.6124  15.3940

          k = 0.1250 0.5688 0.0000 (  5878 PWs)   bands (ev):

   -45.4854 -23.9672 -23.6963 -23.4220 -20.6438 -12.2225  -3.1803  -2.7924
    -2.5766  -2.2992  -0.7489  -0.0996   3.5786   6.4156   6.5935   7.1604
     7.6304   9.9482  10.4913  11.3876  11.5149  12.2388  13.0830  13.8562
    14.5831  14.9274

          k = 0.1250 0.0000 0.0000 (  5872 PWs)   bands (ev):

   -45.5339 -23.9637 -23.3345 -23.2879 -20.7318 -12.9781  -3.1202  -2.6203
    -2.5676  -1.1419   0.6568   1.0343   3.7507   5.6267   5.7392   5.9494
     6.5518   6.8036   8.1771   9.1912  11.4142  13.6659  13.9601  14.7414
    15.0102  17.3417

          k = 0.1875 0.1067 0.0000 (  5867 PWs)   bands (ev):

   -45.5230 -23.9236 -23.4788 -23.3059 -20.7013 -12.8288  -2.9850  -2.7621
    -2.5596  -1.0751  -0.2239   0.8698   3.7140   5.5351   5.9858   6.0903
     6.9505   7.0050   8.7380   9.8241  11.9011  13.1092  13.5518  15.2686
    15.6296  17.0181

          k = 0.1875 0.1778 0.0000 (  5870 PWs)   bands (ev):

   -45.5170 -23.9027 -23.5498 -23.3216 -20.6866 -12.7413  -2.9398  -2.8012
    -2.5620  -1.0765  -0.5820   0.7083   3.6768   5.5133   6.0635   6.3799
     7.0142   7.2665   9.0363  10.1204  12.0244  12.9587  13.4653  15.4207
    16.1874  16.4675

          k = 0.1875 0.2489 0.0000 (  5864 PWs)   bands (ev):

   -45.5091 -23.8796 -23.6251 -23.3524 -20.6704 -12.6225  -2.9423  -2.7805
    -2.5832  -1.2187  -0.8192   0.4173   3.6681   5.5216   6.2127   6.6962
     7.1346   7.6542   9.4077  10.5261  12.2463  12.7380  13.4227  15.1373
    15.9817  16.4227

          k = 0.1875 0.3200 0.0000 (  5877 PWs)   bands (ev):

   -45.5006 -23.8685 -23.6830 -23.3924 -20.6562 -12.4874  -2.9924  -2.7148
    -2.6180  -1.5483  -0.8435   0.0812   3.6942   5.6160   6.3949   6.8006
     7.4031   8.2273   9.7805  10.9914  12.3494  12.5910  13.6467  14.4030
    15.5526  16.0126

          k = 0.1875 0.3911 0.0000 (  5868 PWs)   bands (ev):

   -45.4927 -23.8847 -23.7036 -23.4328 -20.6460 -12.3559  -3.0466  -2.7015
    -2.6223  -1.8582  -0.8190  -0.2224   3.7456   5.8160   6.5264   6.8698
     7.5745   8.9966  10.0807  11.4446  12.2435  12.5808  13.7046  14.2262
    14.6204  15.7046

          k = 0.1875 0.4622 0.0000 (  5868 PWs)   bands (ev):

   -45.4867 -23.9148 -23.6982 -23.4655 -20.6401 -12.2505  -3.0899  -2.7669
    -2.5858  -2.0629  -0.7927  -0.4459   3.8038   6.0934   6.5313   7.0299
     7.5718   9.8380  10.2628  11.7407  12.1592  12.6656  13.1288  13.9329
    14.6425  15.5480

          k = 0.1875 0.5333 0.0000 (  5882 PWs)   bands (ev):

   -45.4834 -23.9349 -23.6903 -23.4837 -20.6375 -12.1915  -3.1138  -2.8237
    -2.5668  -2.1526  -0.7764  -0.5642   3.8433   6.3381   6.5016   7.1581
     7.4730  10.1596  10.8428  11.7258  11.9529  12.4068  13.0997  13.9714
    14.4978  15.1203

          k = 0.1875-0.0356 0.0000 (  5864 PWs)   bands (ev):

   -45.5262 -23.9356 -23.4322 -23.3041 -20.7100 -12.8749  -3.0169  -2.7246
    -2.5691  -1.0871   0.0427   0.8927   3.7493   5.5235   5.9755   6.0057
     6.7242   7.0027   8.5750   9.6679  11.8801  13.1057  13.6561  14.9560
    15.5360  16.9435

          k = 0.2500 0.1422 0.0000 (  5878 PWs)   bands (ev):

   -45.5123 -23.8906 -23.5988 -23.3292 -20.6804 -12.6742  -2.9761  -2.7687
    -2.5693  -1.1771  -0.7694   0.6995   3.6143   5.6090   6.1513   6.4177
     7.1584   7.4103   9.2177  10.2282  11.7709  12.8094  13.9710  15.7434
    16.2871  16.4191

          k = 0.2500 0.2133 0.0000 (  5886 PWs)   bands (ev):

   -45.5063 -23.8779 -23.6529 -23.3498 -20.6696 -12.5814  -3.0061  -2.7332
    -2.5815  -1.4140  -0.8267   0.5096   3.5884   5.6668   6.2160   6.7307
     7.2272   7.7276   9.4697  10.4854  11.7909  12.6297  14.2569  15.2876
    15.9046  16.3363

          k = 0.2500 0.2844 0.0000 (  5877 PWs)   bands (ev):

   -45.4992 -23.8730 -23.6904 -23.3895 -20.6578 -12.4675  -3.0260  -2.6981
    -2.6178  -1.6642  -0.8225   0.1557   3.6456   5.7300   6.3262   6.9063
     7.3951   8.2498   9.7717  10.9140  12.0159  12.5164  14.2035  14.5506
    15.2678  16.2589

          k = 0.2500 0.3555 0.0000 (  5875 PWs)   bands (ev):

   -45.4920 -23.8817 -23.7013 -23.4415 -20.6471 -12.3485  -3.0417  -2.7168
    -2.6215  -1.8477  -0.8136  -0.2622   3.7712   5.8129   6.5009   6.8794
     7.5676   9.0043  10.0862  11.4318  12.2478  12.5564  13.7222  14.3334
    14.6817  15.6303

          k = 0.2500 0.4266 0.0000 (  5876 PWs)   bands (ev):

   -45.4860 -23.8953 -23.6950 -23.4943 -20.6390 -12.2432  -3.0641  -2.7740
    -2.5865  -1.9491  -0.8535  -0.6056   3.9233   5.9555   6.5697   6.9419
     7.5816   9.8755  10.3216  11.7794  12.2817  12.9083  13.4721  14.0137
    14.4357  15.0075

          k = 0.2500 0.4977 0.0000 (  5873 PWs)   bands (ev):

   -45.4820 -23.9042 -23.6860 -23.5340 -20.6340 -12.1705  -3.0946  -2.8035
    -2.5580  -1.9883  -1.0297  -0.7076   4.0481   6.1528   6.5008   7.0994
     7.4765  10.2909  10.8555  11.7265  12.5333  13.0505  13.2139  13.8432
    14.3942  14.9788

          k = 0.2500 0.5688 0.0000 (  5864 PWs)   bands (ev):

   -45.4805 -23.9069 -23.6824 -23.5488 -20.6324 -12.1444  -3.1099  -2.8091
    -2.5472  -1.9960  -1.1235  -0.7174   4.0964   6.2785   6.4491   7.1450
     7.4208  10.2583  11.6088  11.8144  11.8702  13.0584  13.4217  13.8630
    14.4279  15.0266

          k = 0.2500-0.0711 0.0000 (  5875 PWs)   bands (ev):

   -45.5163 -23.9018 -23.5488 -23.3265 -20.6879 -12.7345  -2.9399  -2.7977
    -2.5773  -1.0731  -0.5968   0.7130   3.6868   5.5307   6.0696   6.3287
     7.0004   7.2879   9.0474  10.1192  12.0199  12.9469  13.4320  15.4148
    16.2384  16.5360

          k = 0.2500 0.0000 0.0000 (  5876 PWs)   bands (ev):

   -45.5177 -23.9061 -23.5273 -23.3291 -20.6906 -12.7553  -2.9199  -2.8120
    -2.5843  -1.0551  -0.4883   0.6789   3.7262   5.4710   6.0809   6.3200
     6.8905   7.2705   8.9880  10.0915  12.4199  12.6645  13.2484  15.2335
    16.1941  16.5068

          k = 0.3125 0.1778 0.0000 (  5884 PWs)   bands (ev):

   -45.5016 -23.8808 -23.6884 -23.3523 -20.6666 -12.5099  -3.0683  -2.6924
    -2.5829  -1.7008  -0.8138   0.5426   3.4980   5.7597   6.4090   6.7995
     7.3496   7.9145   9.5745  10.5009  11.6569  12.4994  14.5844  15.0784
    16.0731  16.2423

          k = 0.3125 0.2489 0.0000 (  5893 PWs)   bands (ev):

   -45.4963 -23.8918 -23.7064 -23.3748 -20.6597 -12.4236  -3.0990  -2.6660
    -2.6039  -1.9279  -0.7916   0.3448   3.5086   5.8817   6.4372   7.0079
     7.4540   8.3172   9.7332  10.7366  11.7680  12.4449  14.1549  14.8563
    15.4136  16.2768

          k = 0.3125 0.3200 0.0000 (  5897 PWs)   bands (ev):

   -45.4906 -23.9049 -23.7055 -23.4202 -20.6511 -12.3272  -3.0985  -2.7019
    -2.6160  -2.0479  -0.7737  -0.0437   3.6368   6.0204   6.4365   7.0511
     7.5618   9.0044   9.9885  11.1872  11.9908  12.4805  13.5995  14.2689
    15.0479  16.1201

          k = 0.3125 0.3911 0.0000 (  5878 PWs)   bands (ev):

   -45.4853 -23.9093 -23.6951 -23.4805 -20.6423 -12.2351  -3.0839  -2.7862
    -2.5895  -2.0583  -0.7871  -0.5009   3.8430   6.0980   6.4992   7.0337
     7.5627   9.8588  10.2724  11.7091  12.1405  12.6728  13.2367  13.9135
    14.7509  15.4735

          k = 0.3125 0.4622 0.0000 (  5864 PWs)   bands (ev):

   -45.4813 -23.9016 -23.6845 -23.5412 -20.6352 -12.1625  -3.0951  -2.8099
    -2.5605  -1.9865  -1.0565  -0.7012   4.0627   6.1625   6.4890   7.0985
     7.4695  10.3109  10.8595  11.7189  12.5619  13.0439  13.2214  13.7658
    14.4379  15.0017

          k = 0.3125 0.5333 0.0000 (  5865 PWs)   bands (ev):

   -45.4791 -23.8904 -23.6788 -23.5812 -20.6312 -12.1224  -3.1225  -2.7878
    -2.5383  -1.8523  -1.4104  -0.7157   4.2107   6.2381   6.4356   7.0843
     7.4528  10.2831  11.6245  11.7683  12.6431  12.8696  13.5831  13.7464
    14.5391  15.1607

          k = 0.3125-0.1067 0.0000 (  5884 PWs)   bands (ev):

   -45.5056 -23.8776 -23.6543 -23.3514 -20.6710 -12.5741  -3.0092  -2.7312
    -2.5937  -1.4320  -0.8273   0.5283   3.5862   5.6634   6.2209   6.7272
     7.2363   7.7237   9.4785  10.4822  11.7825  12.6244  14.1846  15.2973
    15.9123  16.3636

          k = 0.3125-0.0356 0.0000 (  5868 PWs)   bands (ev):

   -45.5078 -23.8781 -23.6250 -23.3598 -20.6730 -12.6082  -2.9436  -2.7789
    -2.6086  -1.2359  -0.8252   0.4280   3.6811   5.5339   6.1819   6.6890
     7.1433   7.6565   9.4262  10.5234  12.2211  12.7339  13.3488  15.1837
    16.0153  16.4566

          k = 0.3750 0.2133 0.0000 (  5903 PWs)   bands (ev):

   -45.4925 -23.9196 -23.7122 -23.3717 -20.6599 -12.3617  -3.1598  -2.6479
    -2.5970  -2.1745  -0.7627   0.4185   3.4135   5.9584   6.6259   7.1018
     7.5994   8.5084   9.7235  10.7022  11.7777  12.4280  13.5967  15.0002
    15.4754  15.5737

          k = 0.3750 0.2844 0.0000 (  5874 PWs)   bands (ev):

   -45.4886 -23.9399 -23.7069 -23.3936 -20.6557 -12.2952  -3.1768  -2.6739
    -2.6091  -2.2835  -0.7417   0.2291   3.4622   6.1048   6.6182   7.1547
     7.6838   9.0081   9.8477  10.9082  11.8902  12.4603  13.1628  14.5373
    14.9335  15.5866

          k = 0.3750 0.3555 0.0000 (  5870 PWs)   bands (ev):

   -45.4847 -23.9438 -23.6968 -23.4402 -20.6487 -12.2274  -3.1491  -2.7800
    -2.5953  -2.2592  -0.7335  -0.1652   3.6398   6.2747   6.5427   7.1299
     7.6252   9.7608  10.1539  11.3032  11.9720  12.4424  12.9734  14.0409
    14.7001  15.4328

          k = 0.3750 0.4266 0.0000 (  5865 PWs)   bands (ev):

   -45.4815 -23.9291 -23.6867 -23.5019 -20.6408 -12.1689  -3.1098  -2.8464
    -2.5741  -2.1616  -0.7817  -0.6056   3.8841   6.3396   6.4887   7.1413
     7.4743  10.2042  10.8570  11.7429  11.9523  12.3998  13.1288  13.9934
    14.5417  15.1912

          k = 0.3750 0.4977 0.0000 (  5860 PWs)   bands (ev):

   -45.4793 -23.9041 -23.6799 -23.5594 -20.6347 -12.1294  -3.1143  -2.8221
    -2.5517  -2.0065  -1.1553  -0.7010   4.1115   6.2916   6.4456   7.1429
     7.4084  10.3044  11.5953  11.8682  11.9407  12.9229  13.3959  13.8451
    14.4713  15.0650

          k = 0.3750 0.5688 0.0000 (  5866 PWs)   bands (ev):

   -45.4785 -23.8904 -23.6779 -23.5845 -20.6323 -12.1154  -3.1260  -2.7953
    -2.5401  -1.8727  -1.4044  -0.7078   4.2102   6.2417   6.4406   7.0905
     7.4443  10.3106  11.6015  11.8863  12.5920  12.8501  13.4646  13.7886
    14.5673  15.1864

          k = 0.3750-0.1422 0.0000 (  5886 PWs)   bands (ev):

   -45.4957 -23.8931 -23.7072 -23.3748 -20.6610 -12.4171  -3.1036  -2.6627
    -2.6160  -1.9465  -0.7894   0.3659   3.4998   5.8731   6.4275   7.0298
     7.4738   8.3123   9.7484  10.7300  11.7644  12.4431  14.1324  14.8167
    15.4564  16.2339

          k = 0.3750-0.0711 0.0000 (  5879 PWs)   bands (ev):

   -45.4979 -23.8737 -23.6921 -23.3920 -20.6604 -12.4535  -3.0327  -2.6934
    -2.6421  -1.7019  -0.8177   0.1872   3.6390   5.7288   6.3106   6.9154
     7.4300   8.2485   9.7933  10.9097  11.9971  12.5079  14.1221  14.5407
    15.2522  16.3090

          k = 0.3750 0.0000 0.0000 (  5874 PWs)   bands (ev):

   -45.4987 -23.8673 -23.6826 -23.4022 -20.6600 -12.4663  -2.9952  -2.7187
    -2.6488  -1.5843  -0.8343   0.0877   3.7085   5.6209   6.3426   6.8220
     7.4328   8.2335   9.8089  10.9873  12.3289  12.5452  13.6009  14.4397
    15.5851  16.0648

          k = 0.4375 0.2489 0.0000 (  5875 PWs)   bands (ev):

   -45.4864 -23.9676 -23.7036 -23.3846 -20.6577 -12.2575  -3.2309  -2.6639
    -2.6089  -2.4359  -0.7203   0.3397   3.3719   6.1705   6.6786   7.2423
     7.8787   9.1486   9.7985  10.8755  11.8066  12.3630  12.9839  14.4666
    14.7940  15.1277

          k = 0.4375 0.3200 0.0000 (  5870 PWs)   bands (ev):

   -45.4844 -23.9747 -23.6978 -23.4034 -20.6549 -12.2218  -3.2267  -2.7386
    -2.6038  -2.4219  -0.7116   0.1722   3.4437   6.2845   6.6515   7.2132
     7.8517   9.5970   9.9598  11.0628  11.6438  12.3053  13.0582  14.0792
    14.6481  15.0169

          k = 0.4375 0.3911 0.0000 (  5873 PWs)   bands (ev):

   -45.4825 -23.9603 -23.6916 -23.4469 -20.6487 -12.1891  -3.1698  -2.8283
    -2.5896  -2.3201  -0.7182  -0.1993   3.6396   6.3745   6.5891   7.1400
     7.6563   9.9973  10.5101  11.4273  11.5274  12.2880  13.1066  13.9249
    14.6448  14.9256

          k = 0.4375 0.4622 0.0000 (  5868 PWs)   bands (ev):

   -45.4811 -23.9307 -23.6865 -23.5019 -20.6417 -12.1642  -3.1123  -2.8556
    -2.5745  -2.1736  -0.7814  -0.5910   3.8779   6.3331   6.4930   7.1254
     7.5032  10.2254  10.9379  11.7187  11.8976  12.3816  13.1359  14.0053
    14.5298  15.1518

          k = 0.4375 0.5333 0.0000 (  5865 PWs)   bands (ev):

   -45.4803 -23.9038 -23.6836 -23.5436 -20.6372 -12.1507  -3.1004  -2.8277
    -2.5627  -2.0197  -1.0428  -0.6848   4.0546   6.1599   6.5042   7.0766
     7.4988  10.3540  10.9685  11.6746  12.5707  12.9651  13.1607  13.8102
    14.4367  14.9691

          k = 0.4375-0.1778 0.0000 (  5884 PWs)   bands (ev):

   -45.4882 -23.9417 -23.7070 -23.3931 -20.6566 -12.2905  -3.1810  -2.6806
    -2.6103  -2.2938  -0.7403   0.2449   3.4536   6.1077   6.5839   7.1762
     7.7078   9.0177   9.8719  10.9005  11.8827  12.4640  13.1440  14.5215
    14.9399  15.5767

          k = 0.4375-0.1067 0.0000 (  5883 PWs)   bands (ev):

   -45.4896 -23.9080 -23.7058 -23.4202 -20.6532 -12.3159  -3.1062  -2.7135
    -2.6219  -2.0779  -0.7698  -0.0111   3.6225   6.0118   6.4285   7.0470
     7.6129   9.0213  10.0300  11.1757  11.9772  12.4801  13.5601  14.2682
    14.9995  16.0847

          k = 0.4375-0.0356 0.0000 (  5881 PWs)   bands (ev):

   -45.4904 -23.8840 -23.7014 -23.4456 -20.6505 -12.3296  -3.0493  -2.7370
    -2.6309  -1.8948  -0.8054  -0.2291   3.7636   5.8154   6.4852   6.8699
     7.6205   9.0314  10.1325  11.4292  12.2494  12.5003  13.7246  14.2428
    14.6502  15.6763

          k =-0.5000-0.2844 0.0000 (  5882 PWs)   bands (ev):

   -45.4842 -23.9865 -23.6981 -23.3891 -20.6574 -12.2198  -3.2605  -2.7002
    -2.6143  -2.4920  -0.7046   0.3127   3.3609   6.2917   6.6389   7.2797
     8.0018   9.5062   9.8337  11.0668  11.4324  12.2769  13.1458  14.0059
    14.6227  14.9546

          k =-0.5000-0.2133 0.0000 (  5876 PWs)   bands (ev):

   -45.4842 -23.9754 -23.6978 -23.4032 -20.6552 -12.2201  -3.2285  -2.7427
    -2.6032  -2.4247  -0.7112   0.1781   3.4402   6.2953   6.6236   7.2239
     7.8606   9.6146   9.9669  11.0676  11.6210  12.3052  13.0650  14.0695
    14.6221  15.0381

          k =-0.5000-0.1422 0.0000 (  5872 PWs)   bands (ev):

   -45.4842 -23.9463 -23.6967 -23.4397 -20.6499 -12.2210  -3.1543  -2.7917
    -2.5957  -2.2730  -0.7321  -0.1450   3.6294   6.2862   6.5075   7.1294
     7.6644   9.7883  10.2060  11.2952  11.9278  12.4393  12.9658  14.0420
    14.6698  15.4223

          k =-0.5000-0.0711 0.0000 (  5881 PWs)   bands (ev):

   -45.4842 -23.9129 -23.6948 -23.4814 -20.6447 -12.2218  -3.0906  -2.8070
    -2.5922  -2.0928  -0.7840  -0.4662   3.8293   6.0908   6.5120   6.9993
     7.6199   9.8958  10.3543  11.6929  12.1204  12.6427  13.1885  13.9346
    14.6936  15.4559

          k =-0.5000-0.0000 0.0000 (  5884 PWs)   bands (ev):

   -45.4842 -23.8973 -23.6934 -23.5010 -20.6425 -12.2222  -3.0700  -2.8043
    -2.5914  -1.9940  -0.8500  -0.5773   3.9205   5.9602   6.5766   6.9027
     7.6330   9.9263  10.4118  11.7434  12.3250  12.7768  13.4802  13.9894
    14.4243  14.9886

     highest occupied, lowest unoccupied level (ev):     4.2107    5.4395

!    total energy              =    -571.23416456 Ry
     total all-electron energy =    -12610.611576 Ry
     estimated scf accuracy    <          7.2E-10 Ry

     The total energy is the sum of the following terms:
     one-electron contribution =    -276.77490754 Ry
     hartree contribution      =     146.79714845 Ry
     xc contribution           =     -36.33351196 Ry
     ewald contribution        =      -8.06875418 Ry
     one-center paw contrib.   =    -396.85413933 Ry

     convergence has been achieved in   6 iterations

     negative rho (up, down):  3.652E-05 0.000E+00

     Forces acting on atoms (cartesian axes, Ry/au):

     atom    1 type  1   force =     0.00000000   -0.00381050   -0.00007806
     atom    2 type  2   force =     0.00000000    0.00183071   -0.00141660
     atom    3 type  3   force =     0.00000000    0.00197979    0.00149466
     The non-local contrib.  to forces
     atom    1 type  1   force =     0.00000000    0.00019208   -0.02503240
     atom    2 type  2   force =     0.00000000    0.01122462   -0.98271797
     atom    3 type  3   force =     0.00000000    0.00204196    0.21156744
     The ionic contribution  to forces
     atom    1 type  1   force =    -0.00000001    0.07122470   -0.49407247
     atom    2 type  2   force =     0.00000001   -0.04703591   24.22004722
     atom    3 type  3   force =     0.00000000   -0.02418879  -23.72597475
     The local contribution  to forces
     atom    1 type  1   force =    -0.00000000   -0.07508350    0.51491110
     atom    2 type  2   force =     0.00000027    0.03768785  -23.24194714
     atom    3 type  3   force =    -0.00000000    0.02416605   23.51874156
     The core correction contribution to forces
     atom    1 type  1   force =    -0.00000000   -0.00013442    0.00416456
     atom    2 type  2   force =     0.00000000   -0.00004013    0.00320231
     atom    3 type  3   force =    -0.00000000   -0.00003281   -0.00286756
     The Hubbard contrib.    to forces
     atom    1 type  1   force =     0.00000000    0.00000000    0.00000000
     atom    2 type  2   force =     0.00000000    0.00000000    0.00000000
     atom    3 type  3   force =     0.00000000    0.00000000    0.00000000
     The SCF correction term to forces
     atom    1 type  1   force =     0.00000000   -0.00000461   -0.00004980
     atom    2 type  2   force =     0.00000000   -0.00000096   -0.00000198
     atom    3 type  3   force =    -0.00000000   -0.00000186    0.00002702

     Total force =     0.005103     Total SCF correction =     0.000057
     Energy error            =      6.2E-05 Ry
     Gradient error          =      3.8E-03 Ry/Bohr

     number of scf cycles    =   3
     number of bfgs steps    =   2

     energy             old  =    -571.2341025875 Ry
     energy             new  =    -571.2341645565 Ry

     CASE: energy            _new < energy            _old

     new trust radius        =       0.0114056293 bohr
     new conv_thr            =       0.0000000006 Ry


ATOMIC_POSITIONS (angstrom)
Zr           -0.0000000000       -0.0136775241       10.1028409885
F            -0.0000000020        1.9370123120       11.4020097114
Br           -0.0000000020        1.9384729753        8.2133280131



     Writing config-only to output data dir ./tmp/ZrFBr.save/
     NEW-OLD atomic charge density approx. for the potential

     Check: negative core charge=   -0.000002

     negative rho (up, down):  3.704E-05 0.000E+00

     total cpu time spent up to now is       38.1 secs

     Self-consistent Calculation

     iteration #  1     ecut=    65.00 Ry     beta= 0.70
     Davidson diagonalization with overlap
     ethr =  1.00E-06,  avg # of iterations =  3.2

     Threshold (ethr) on eigenvalues was too large:
     Diagonalizing with lowered threshold

     Davidson diagonalization with overlap
     ethr =  3.16E-08,  avg # of iterations =  2.7

     negative rho (up, down):  3.718E-05 0.000E+00

     total cpu time spent up to now is       41.6 secs

     total energy              =    -571.23421565 Ry
     estimated scf accuracy    <       0.00000827 Ry

     iteration #  2     ecut=    65.00 Ry     beta= 0.70
     Davidson diagonalization with overlap
     ethr =  3.18E-08,  avg # of iterations =  2.0

     negative rho (up, down):  3.692E-05 0.000E+00

     total cpu time spent up to now is       43.1 secs

     total energy              =    -571.23421500 Ry
     estimated scf accuracy    <       0.00001153 Ry

     iteration #  3     ecut=    65.00 Ry     beta= 0.70
     Davidson diagonalization with overlap
     ethr =  3.18E-08,  avg # of iterations =  1.9

     negative rho (up, down):  3.686E-05 0.000E+00

     total cpu time spent up to now is       44.4 secs

     total energy              =    -571.23421798 Ry
     estimated scf accuracy    <       0.00000219 Ry

     iteration #  4     ecut=    65.00 Ry     beta= 0.70
     Davidson diagonalization with overlap
     ethr =  8.44E-09,  avg # of iterations =  1.0

     negative rho (up, down):  3.685E-05 0.000E+00

     total cpu time spent up to now is       45.6 secs

     total energy              =    -571.23421836 Ry
     estimated scf accuracy    <       0.00000011 Ry

     iteration #  5     ecut=    65.00 Ry     beta= 0.70
     Davidson diagonalization with overlap
     ethr =  4.24E-10,  avg # of iterations =  2.0

     negative rho (up, down):  3.685E-05 0.000E+00

     total cpu time spent up to now is       47.0 secs

     total energy              =    -571.23421839 Ry
     estimated scf accuracy    <       0.00000003 Ry

     iteration #  6     ecut=    65.00 Ry     beta= 0.70
     Davidson diagonalization with overlap
     ethr =  1.21E-10,  avg # of iterations =  2.0

     negative rho (up, down):  3.684E-05 0.000E+00

     total cpu time spent up to now is       48.3 secs

     total energy              =    -571.23421839 Ry
     estimated scf accuracy    <          1.8E-09 Ry

     iteration #  7     ecut=    65.00 Ry     beta= 0.70
     Davidson diagonalization with overlap
     ethr =  7.04E-12,  avg # of iterations =  2.0

     negative rho (up, down):  3.684E-05 0.000E+00

     total cpu time spent up to now is       49.7 secs

     End of self-consistent calculation

          k = 0.0000 0.0000 0.0000 (  5879 PWs)   bands (ev):

   -45.5326 -23.9827 -23.2676 -23.2431 -20.7559 -13.0620  -3.2196  -2.5696
    -2.5295  -1.2003   1.1462   1.2599   3.7216   5.6110   5.7473   5.7977
     6.6042   6.6524   7.8206   8.6162  11.0181  13.8536  14.3986  14.6527
    15.1861  17.0822

          k = 0.0000 0.0711 0.0000 (  5863 PWs)   bands (ev):

   -45.5307 -23.9748 -23.2962 -23.2473 -20.7480 -13.0358  -3.1868  -2.6035
    -2.5289  -1.1797   0.9322   1.2224   3.7314   5.5594   5.8385   5.8440
     6.5631   6.7019   7.9379   8.8343  11.1446  13.9033  14.0621  14.7815
    15.0487  17.2401

          k = 0.0000 0.1422 0.0000 (  5849 PWs)   bands (ev):

   -45.5250 -23.9527 -23.3751 -23.2593 -20.7275 -12.9594  -3.0985  -2.6900
    -2.5282  -1.1304   0.3925   1.1192   3.7321   5.4933   5.9478   5.9679
     6.6478   6.8325   8.2587   9.3140  11.5127  13.4357  13.8747  14.8885
    15.1640  17.5051

          k = 0.0000 0.2133 0.0000 (  5850 PWs)   bands (ev):

   -45.5165 -23.9209 -23.4861 -23.2772 -20.7025 -12.8409  -2.9920  -2.7874
    -2.5297  -1.0854  -0.2794   0.9742   3.6739   5.5053   5.9997   6.1943
     6.9679   7.0063   8.7094   9.8149  11.8901  13.0658  13.4974  15.2222
    15.7864  16.9998

          k = 0.0000 0.2844 0.0000 (  5874 PWs)   bands (ev):

   -45.5065 -23.8896 -23.6034 -23.2983 -20.6805 -12.6936  -2.9896  -2.7812
    -2.5356  -1.2086  -0.7935   0.8158   3.5570   5.6145   6.1551   6.5075
     7.1920   7.3924   9.1838  10.2304  11.7729  12.7595  13.8827  15.6516
    16.1836  16.5581

          k = 0.0000 0.3555 0.0000 (  5874 PWs)   bands (ev):

   -45.4965 -23.8822 -23.6897 -23.3192 -20.6656 -12.5373  -3.0821  -2.6972
    -2.5457  -1.7263  -0.8350   0.6692   3.4346   5.7841   6.4153   6.8584
     7.3857   7.8891   9.5422  10.5205  11.6397  12.4428  14.4448  14.9625
    16.1345  16.2339

          k = 0.0000 0.4266 0.0000 (  5870 PWs)   bands (ev):

   -45.4879 -23.9218 -23.7118 -23.3369 -20.6579 -12.3966  -3.1738  -2.6452
    -2.5572  -2.1850  -0.7913   0.5529   3.3490   5.9924   6.6396   7.1388
     7.6229   8.4771   9.6947  10.7266  11.7340  12.3523  13.4748  14.9022
    15.3588  15.7273

          k = 0.0000 0.4977 0.0000 (  5892 PWs)   bands (ev):

   -45.4822 -23.9692 -23.7034 -23.3486 -20.6551 -12.2978  -3.2471  -2.6526
    -2.5664  -2.4384  -0.7542   0.4790   3.3072   6.2103   6.7006   7.2780
     7.8726   9.1185   9.7666  10.8832  11.7199  12.2594  12.9300  14.3774
    14.6785  15.3147

          k = 0.0000-0.5688 0.0000 (  5874 PWs)   bands (ev):

   -45.4802 -23.9878 -23.6980 -23.3527 -20.6545 -12.2622  -3.2777  -2.6845
    -2.5699  -2.4932  -0.7404   0.4537   3.2961   6.3345   6.6638   7.3168
     7.9817   9.4743   9.8166  11.0422  11.3238  12.1990  13.0977  13.9234
    14.5047  15.1523

          k = 0.0625 0.0356 0.0000 (  5870 PWs)   bands (ev):

   -45.5305 -23.9745 -23.2841 -23.2606 -20.7480 -13.0346  -3.1863  -2.5855
    -2.5490  -1.1785   0.9983   1.1477   3.7369   5.6176   5.7694   5.8466
     6.5832   6.6741   7.9440   8.8415  11.1491  13.9037  14.1806  14.6086
    15.0760  17.3022

          k = 0.0625 0.1067 0.0000 (  5846 PWs)   bands (ev):

   -45.5267 -23.9595 -23.3441 -23.2624 -20.7338 -12.9832  -3.1254  -2.6558
    -2.5383  -1.1436   0.5934   1.1055   3.7439   5.5212   5.8890   5.9521
     6.5909   6.7828   8.1622   9.1827  11.4042  13.6164  13.9396  14.8137
    15.0634  17.3444

          k = 0.0625 0.1778 0.0000 (  5844 PWs)   bands (ev):

   -45.5196 -23.9324 -23.4397 -23.2769 -20.7112 -12.8857  -3.0229  -2.7535
    -2.5375  -1.0945  -0.0031   0.9700   3.7203   5.4649   6.0118   6.1111
     6.7686   6.9746   8.5484   9.6589  11.8646  13.0929  13.6224  14.9608
    15.6259  16.9433

          k = 0.0625 0.2489 0.0000 (  5858 PWs)   bands (ev):

   -45.5104 -23.9000 -23.5529 -23.2980 -20.6880 -12.7524  -2.9495  -2.8148
    -2.5436  -1.0913  -0.6199   0.7964   3.6413   5.5188   6.0882   6.4218
     7.0322   7.2674   9.0144  10.1169  12.0330  12.9166  13.3986  15.3857
    16.2655  16.5138

          k = 0.0625 0.3200 0.0000 (  5863 PWs)   bands (ev):

   -45.5004 -23.8774 -23.6552 -23.3213 -20.6699 -12.5999  -3.0209  -2.7383
    -2.5568  -1.4498  -0.8430   0.6211   3.5349   5.6822   6.2423   6.7736
     7.2621   7.7082   9.4437  10.4952  11.7933  12.5849  14.1371  15.1947
    15.8830  16.3419

          k = 0.0625 0.3911 0.0000 (  5869 PWs)   bands (ev):

   -45.4911 -23.8940 -23.7063 -23.3430 -20.6589 -12.4502  -3.1139  -2.6631
    -2.5775  -1.9509  -0.8135   0.4695   3.4477   5.9061   6.4528   7.0503
     7.4876   8.2896   9.7121  10.7635  11.7445  12.3885  14.0145  14.7767
    15.4051  16.2374

          k = 0.0625 0.4622 0.0000 (  5873 PWs)   bands (ev):

   -45.4839 -23.9423 -23.7063 -23.3596 -20.6539 -12.3292  -3.1928  -2.6541
    -2.5931  -2.2874  -0.7706   0.3592   3.4003   6.1429   6.6189   7.1978
     7.6990   8.9808   9.8289  10.9379  11.8349  12.3720  13.0681  14.5063
    14.8508  15.6229

          k = 0.0625 0.5333 0.0000 (  5872 PWs)   bands (ev):

   -45.4801 -23.9761 -23.6974 -23.3686 -20.6523 -12.2611  -3.2434  -2.7151
    -2.5865  -2.4117  -0.7447   0.3015   3.3839   6.3317   6.6583   7.2504
     7.8414   9.5695   9.9441  11.0670  11.5329  12.2279  13.0218  14.0084
    14.5465  15.1388

          k = 0.1250 0.0711 0.0000 (  5859 PWs)   bands (ev):

   -45.5245 -23.9515 -23.3604 -23.2786 -20.7277 -12.9547  -3.0968  -2.6678
    -2.5578  -1.1258   0.4580   1.0241   3.7539   5.5714   5.8496   5.9573
     6.6572   6.8061   8.2773   9.3280  11.5288  13.4905  13.9152  14.9189
    14.9942  17.3548

          k = 0.1250 0.1422 0.0000 (  5856 PWs)   bands (ev):

   -45.5192 -23.9315 -23.4327 -23.2873 -20.7113 -12.8821  -3.0218  -2.7438
    -2.5524  -1.0909   0.0313   0.9126   3.7386   5.4821   5.9964   6.0867
     6.7772   6.9578   8.5602   9.6651  11.8743  13.1191  13.6471  14.9707
    15.5547  16.9134

          k = 0.1250 0.2133 0.0000 (  5851 PWs)   bands (ev):

   -45.5114 -23.9031 -23.5270 -23.3087 -20.6908 -12.7695  -2.9255  -2.8273
    -2.5603  -1.0657  -0.4856   0.7038   3.7029   5.4501   6.1128   6.3913
     6.9194   7.2455   8.9644  10.0895  12.4168  12.7076  13.2424  15.2145
    16.1737  16.4719

          k = 0.1250 0.2844 0.0000 (  5852 PWs)   bands (ev):

   -45.5021 -23.8763 -23.6228 -23.3373 -20.6720 -12.6301  -2.9527  -2.7843
    -2.5798  -1.2377  -0.8270   0.4614   3.6523   5.5369   6.2287   6.7098
     7.1582   7.6479   9.3983  10.5262  12.2693  12.7341  13.3490  15.1436
    15.9267  16.4070

          k = 0.1250 0.3555 0.0000 (  5867 PWs)   bands (ev):

   -45.4929 -23.8724 -23.6892 -23.3672 -20.6584 -12.4826  -3.0390  -2.6934
    -2.6112  -1.6901  -0.8332   0.2343   3.6090   5.7478   6.3525   6.9238
     7.4241   8.2348   9.7593  10.9284  12.0254  12.4995  14.1148  14.4709
    15.2040  16.2599

          k = 0.1250 0.4266 0.0000 (  5872 PWs)   bands (ev):

   -45.4850 -23.9064 -23.7038 -23.3930 -20.6506 -12.3504  -3.1124  -2.6794
    -2.6196  -2.0617  -0.7919   0.0523   3.5906   6.0382   6.4607   7.0723
     7.5867   8.9839   9.9782  11.2287  11.9755  12.4424  13.4876  14.2576
    14.9399  16.0727

          k = 0.1250 0.4977 0.0000 (  5871 PWs)   bands (ev):

   -45.4797 -23.9451 -23.6955 -23.4105 -20.6471 -12.2580  -3.1633  -2.7591
    -2.5918  -2.2548  -0.7579  -0.0653   3.5926   6.3107   6.5403   7.1610
     7.6355   9.7315  10.1428  11.3615  11.9087  12.3558  12.9308  14.0287
    14.6108  15.4077

          k = 0.1250 0.5688 0.0000 (  5878 PWs)   bands (ev):

   -45.4778 -23.9604 -23.6905 -23.4167 -20.6462 -12.2246  -3.1824  -2.8024
    -2.5838  -2.3047  -0.7451  -0.1060   3.5967   6.4132   6.5950   7.1720
     7.6441   9.9448  10.5040  11.3878  11.5148  12.2465  13.0786  13.8613
    14.5825  14.9422

          k = 0.1250 0.0000 0.0000 (  5872 PWs)   bands (ev):

   -45.5263 -23.9587 -23.3295 -23.2803 -20.7340 -12.9798  -3.1242  -2.6318
    -2.5679  -1.1403   0.6457   1.0347   3.7571   5.6323   5.7604   5.9509
     6.5637   6.7921   8.1773   9.1937  11.4147  13.6740  13.9593  14.7441
    15.0099  17.3433

          k = 0.1875 0.1067 0.0000 (  5867 PWs)   bands (ev):

   -45.5154 -23.9184 -23.4738 -23.2990 -20.7031 -12.8306  -2.9890  -2.7696
    -2.5626  -1.0747  -0.2289   0.8666   3.7169   5.5450   5.9996   6.0970
     6.9572   7.0010   8.7403   9.8262  11.9045  13.1123  13.5529  15.2664
    15.6305  17.0206

          k = 0.1875 0.1778 0.0000 (  5870 PWs)   bands (ev):

   -45.5094 -23.8976 -23.5440 -23.3152 -20.6886 -12.7432  -2.9446  -2.8064
    -2.5674  -1.0775  -0.5835   0.7029   3.6820   5.5235   6.0754   6.3845
     7.0198   7.2683   9.0383  10.1206  12.0298  12.9608  13.4651  15.4235
    16.1860  16.4760

          k = 0.1875 0.2489 0.0000 (  5864 PWs)   bands (ev):

   -45.5016 -23.8748 -23.6187 -23.3465 -20.6724 -12.6245  -2.9475  -2.7850
    -2.5906  -1.2213  -0.8174   0.4110   3.6756   5.5322   6.2196   6.7030
     7.1449   7.6540   9.4106  10.5239  12.2529  12.7415  13.4213  15.1444
    15.9793  16.4248

          k = 0.1875 0.3200 0.0000 (  5877 PWs)   bands (ev):

   -45.4930 -23.8637 -23.6761 -23.3868 -20.6583 -12.4895  -2.9967  -2.7205
    -2.6265  -1.5498  -0.8417   0.0750   3.7039   5.6261   6.3962   6.8127
     7.4142   8.2264   9.7848  10.9872  12.3540  12.5955  13.6464  14.4095
    15.5552  16.0130

          k = 0.1875 0.3911 0.0000 (  5868 PWs)   bands (ev):

   -45.4851 -23.8793 -23.6969 -23.4275 -20.6482 -12.3581  -3.0502  -2.7116
    -2.6283  -1.8592  -0.8174  -0.2278   3.7574   5.8248   6.5231   6.8854
     7.5854   8.9967  10.0861  11.4399  12.2465  12.5845  13.7116  14.2259
    14.6246  15.7051

          k = 0.1875 0.4622 0.0000 (  5868 PWs)   bands (ev):

   -45.4791 -23.9087 -23.6919 -23.4604 -20.6423 -12.2527  -3.0930  -2.7773
    -2.5917  -2.0648  -0.7920  -0.4498   3.8172   6.1008   6.5294   7.0426
     7.5829   9.8384  10.2686  11.7393  12.1624  12.6694  13.1300  13.9353
    14.6451  15.5462

          k = 0.1875 0.5333 0.0000 (  5882 PWs)   bands (ev):

   -45.4758 -23.9285 -23.6842 -23.4788 -20.6397 -12.1937  -3.1167  -2.8333
    -2.5729  -2.1556  -0.7773  -0.5660   3.8576   6.3439   6.5016   7.1684
     7.4847  10.1613  10.8484  11.7284  11.9550  12.4113  13.0950  13.9728
    14.5007  15.1292

          k = 0.1875-0.0356 0.0000 (  5864 PWs)   bands (ev):

   -45.5187 -23.9303 -23.4279 -23.2966 -20.7118 -12.8767  -3.0204  -2.7344
    -2.5696  -1.0861   0.0345   0.8922   3.7505   5.5326   5.9915   6.0152
     6.7268   6.9978   8.5779   9.6709  11.8816  13.1136  13.6560  14.9515
    15.5356  16.9425

          k = 0.2500 0.1422 0.0000 (  5878 PWs)   bands (ev):

   -45.5047 -23.8854 -23.5943 -23.3223 -20.6819 -12.6763  -2.9816  -2.7735
    -2.5715  -1.1817  -0.7686   0.6965   3.6138   5.6189   6.1649   6.4259
     7.1606   7.4132   9.2231  10.2318  11.7744  12.8105  13.9702  15.7415
    16.2887  16.4196

          k = 0.2500 0.2133 0.0000 (  5886 PWs)   bands (ev):

   -45.4987 -23.8730 -23.6475 -23.3433 -20.6712 -12.5836  -3.0120  -2.7368
    -2.5859  -1.4180  -0.8249   0.5053   3.5898   5.6762   6.2306   6.7380
     7.2334   7.7278   9.4756  10.4868  11.7948  12.6304  14.2548  15.2924
    15.9029  16.3383

          k = 0.2500 0.2844 0.0000 (  5877 PWs)   bands (ev):

   -45.4916 -23.8684 -23.6843 -23.3834 -20.6595 -12.4698  -3.0318  -2.7011
    -2.6244  -1.6665  -0.8211   0.1510   3.6488   5.7405   6.3382   6.9136
     7.4053   8.2481   9.7791  10.9121  12.0209  12.5154  14.2005  14.5573
    15.2685  16.2638

          k = 0.2500 0.3555 0.0000 (  5875 PWs)   bands (ev):

   -45.4845 -23.8770 -23.6948 -23.4358 -20.6489 -12.3508  -3.0468  -2.7229
    -2.6269  -1.8488  -0.8126  -0.2667   3.7760   5.8235   6.5107   6.8865
     7.5792   9.0029  10.0954  11.4270  12.2513  12.5542  13.7271  14.3378
    14.6821  15.6328

          k = 0.2500 0.4266 0.0000 (  5876 PWs)   bands (ev):

   -45.4784 -23.8902 -23.6885 -23.4889 -20.6408 -12.2456  -3.0687  -2.7816
    -2.5914  -1.9500  -0.8550  -0.6074   3.9301   5.9651   6.5764   6.9509
     7.5932   9.8749  10.3308  11.7743  12.2829  12.9075  13.4796  14.0129
    14.4405  15.0088

          k = 0.2500 0.4977 0.0000 (  5873 PWs)   bands (ev):

   -45.4744 -23.8988 -23.6796 -23.5289 -20.6359 -12.1729  -3.0993  -2.8107
    -2.5631  -1.9897  -1.0348  -0.7054   4.0567   6.1603   6.5064   7.1100
     7.4869  10.2967  10.8567  11.7286  12.5353  13.0513  13.2108  13.8419
    14.4029  14.9775

          k = 0.2500 0.5688 0.0000 (  5864 PWs)   bands (ev):

   -45.4729 -23.9013 -23.6759 -23.5439 -20.6343 -12.1469  -3.1149  -2.8158
    -2.5524  -1.9977  -1.1291  -0.7146   4.1058   6.2840   6.4555   7.1571
     7.4296  10.2634  11.6158  11.8145  11.8700  13.0581  13.4190  13.8606
    14.4338  15.0299

          k = 0.2500-0.0711 0.0000 (  5875 PWs)   bands (ev):

   -45.5087 -23.8965 -23.5450 -23.3190 -20.6894 -12.7366  -2.9446  -2.8043
    -2.5777  -1.0753  -0.6002   0.7118   3.6841   5.5420   6.0796   6.3416
     6.9986   7.2915   9.0536  10.1229  12.0233  12.9492  13.4320  15.4071
    16.2475  16.5272

          k = 0.2500 0.0000 0.0000 (  5876 PWs)   bands (ev):

   -45.5101 -23.9007 -23.5240 -23.3212 -20.6921 -12.7574  -2.9236  -2.8200
    -2.5840  -1.0563  -0.4939   0.6789   3.7225   5.4824   6.0935   6.3321
     6.8873   7.2735   8.9948  10.0950  12.4204  12.6722  13.2472  15.2245
    16.2048  16.4963

          k = 0.3125 0.1778 0.0000 (  5884 PWs)   bands (ev):

   -45.4940 -23.8765 -23.6833 -23.3453 -20.6680 -12.5123  -3.0741  -2.6957
    -2.5847  -1.7052  -0.8127   0.5397   3.4957   5.7704   6.4228   6.8062
     7.3535   7.9193   9.5828  10.5057  11.6580  12.4987  14.5914  15.0686
    16.0733  16.2479

          k = 0.3125 0.2489 0.0000 (  5893 PWs)   bands (ev):

   -45.4887 -23.8880 -23.7004 -23.3682 -20.6612 -12.4261  -3.1049  -2.6686
    -2.6079  -1.9302  -0.7911   0.3412   3.5078   5.8921   6.4508   7.0164
     7.4616   8.3178   9.7424  10.7387  11.7700  12.4429  14.1565  14.8542
    15.4158  16.2818

          k = 0.3125 0.3200 0.0000 (  5897 PWs)   bands (ev):

   -45.4830 -23.9012 -23.6990 -23.4138 -20.6527 -12.3297  -3.1044  -2.7061
    -2.6199  -2.0488  -0.7735  -0.0475   3.6371   6.0307   6.4507   7.0568
     7.5741   9.0032   9.9995  11.1860  11.9928  12.4763  13.5992  14.2754
    15.0492  16.1242

          k = 0.3125 0.3911 0.0000 (  5878 PWs)   bands (ev):

   -45.4777 -23.9054 -23.6886 -23.4744 -20.6440 -12.2376  -3.0894  -2.7915
    -2.5931  -2.0591  -0.7869  -0.5042   3.8445   6.1073   6.5135   7.0384
     7.5762   9.8579  10.2843  11.7029  12.1405  12.6711  13.2380  13.9236
    14.7533  15.4712

          k = 0.3125 0.4622 0.0000 (  5864 PWs)   bands (ev):

   -45.4737 -23.8976 -23.6779 -23.5352 -20.6369 -12.1651  -3.1005  -2.8152
    -2.5644  -1.9880  -1.0590  -0.7011   4.0658   6.1702   6.5001   7.1069
     7.4821  10.3192  10.8600  11.7162  12.5617  13.0426  13.2237  13.7709
    14.4439  15.0007

          k = 0.3125 0.5333 0.0000 (  5865 PWs)   bands (ev):

   -45.4715 -23.8864 -23.6722 -23.5753 -20.6329 -12.1251  -3.1278  -2.7926
    -2.5426  -1.8544  -1.4131  -0.7148   4.2151   6.2428   6.4460   7.0960
     7.4641  10.2894  11.6262  11.7693  12.6437  12.8674  13.5837  13.7501
    14.5444  15.1607

          k = 0.3125-0.1067 0.0000 (  5884 PWs)   bands (ev):

   -45.4980 -23.8728 -23.6502 -23.3439 -20.6723 -12.5765  -3.0151  -2.7350
    -2.5937  -1.4382  -0.8259   0.5268   3.5821   5.6754   6.2325   6.7331
     7.2377   7.7317   9.4876  10.4874  11.7835  12.6238  14.1870  15.2945
    15.9131  16.3614

          k = 0.3125-0.0356 0.0000 (  5868 PWs)   bands (ev):

   -45.5002 -23.8731 -23.6218 -23.3519 -20.6743 -12.6106  -2.9501  -2.7824
    -2.6078  -1.2431  -0.8240   0.4279   3.6753   5.5462   6.1970   6.6900
     7.1447   7.6655   9.4366  10.5273  12.2236  12.7311  13.3524  15.1815
    16.0180  16.4537

          k = 0.3750 0.2133 0.0000 (  5903 PWs)   bands (ev):

   -45.4848 -23.9168 -23.7058 -23.3648 -20.6613 -12.3643  -3.1653  -2.6503
    -2.5989  -2.1772  -0.7629   0.4159   3.4108   5.9710   6.6387   7.1067
     7.6039   8.5170   9.7296  10.7086  11.7791  12.4257  13.5989  14.9985
    15.4758  15.5777

          k = 0.3750 0.2844 0.0000 (  5874 PWs)   bands (ev):

   -45.4810 -23.9371 -23.7002 -23.3868 -20.6572 -12.2978  -3.1825  -2.6777
    -2.6112  -2.2841  -0.7423   0.2260   3.4604   6.1191   6.6271   7.1623
     7.6935   9.0123   9.8544  10.9127  11.8917  12.4559  13.1640  14.5392
    14.9368  15.5884

          k = 0.3750 0.3555 0.0000 (  5870 PWs)   bands (ev):

   -45.4771 -23.9410 -23.6900 -23.4335 -20.6502 -12.2301  -3.1548  -2.7840
    -2.5977  -2.2598  -0.7341  -0.1681   3.6388   6.2896   6.5510   7.1358
     7.6381   9.7657  10.1597  11.3049  11.9732  12.4369  12.9744  14.0488
    14.7030  15.4318

          k = 0.3750 0.4266 0.0000 (  5865 PWs)   bands (ev):

   -45.4738 -23.9264 -23.6799 -23.4951 -20.6424 -12.1717  -3.1152  -2.8501
    -2.5770  -2.1630  -0.7820  -0.6079   3.8840   6.3488   6.5005   7.1479
     7.4879  10.2125  10.8587  11.7382  11.9576  12.3986  13.1316  14.0006
    14.5445  15.1864

          k = 0.3750 0.4977 0.0000 (  5860 PWs)   bands (ev):

   -45.4717 -23.9017 -23.6731 -23.5524 -20.6362 -12.1322  -3.1191  -2.8256
    -2.5553  -2.0091  -1.1563  -0.7013   4.1125   6.2956   6.4589   7.1508
     7.4232  10.3100  11.5991  11.8679  11.9410  12.9276  13.3984  13.8512
    14.4694  15.0679

          k = 0.3750 0.5688 0.0000 (  5866 PWs)   bands (ev):

   -45.4709 -23.8881 -23.6711 -23.5772 -20.6339 -12.1182  -3.1307  -2.7987
    -2.5440  -1.8768  -1.4043  -0.7078   4.2117   6.2442   6.4541   7.0984
     7.4598  10.3147  11.6080  11.8856  12.5939  12.8470  13.4753  13.7957
    14.5649  15.1824

          k = 0.3750-0.1422 0.0000 (  5886 PWs)   bands (ev):

   -45.4881 -23.8901 -23.7015 -23.3675 -20.6623 -12.4197  -3.1091  -2.6654
    -2.6161  -1.9512  -0.7891   0.3642   3.4958   5.8854   6.4406   7.0321
     7.4761   8.3241   9.7562  10.7370  11.7648  12.4421  14.1376  14.8134
    15.4563  16.2355

          k = 0.3750-0.0711 0.0000 (  5879 PWs)   bands (ev):

   -45.4903 -23.8703 -23.6874 -23.3841 -20.6617 -12.4562  -3.0385  -2.6966
    -2.6409  -1.7081  -0.8170   0.1868   3.6336   5.7407   6.3258   6.9141
     7.4327   8.2606   9.8045  10.9149  11.9971  12.5069  14.1266  14.5438
    15.2484  16.3097

          k = 0.3750 0.0000 0.0000 (  5874 PWs)   bands (ev):

   -45.4911 -23.8636 -23.6784 -23.3940 -20.6612 -12.4689  -3.0013  -2.7214
    -2.6476  -1.5913  -0.8335   0.0880   3.7025   5.6325   6.3623   6.8158
     7.4360   8.2453   9.8218  10.9912  12.3315  12.5397  13.6068  14.4432
    15.5833  16.0629

          k = 0.4375 0.2489 0.0000 (  5875 PWs)   bands (ev):

   -45.4787 -23.9654 -23.6966 -23.3777 -20.6591 -12.2603  -3.2364  -2.6660
    -2.6103  -2.4377  -0.7214   0.3372   3.3692   6.1865   6.6890   7.2471
     7.8822   9.1630   9.7988  10.8827  11.8083  12.3611  12.9871  14.4648
    14.7959  15.1302

          k = 0.4375 0.3200 0.0000 (  5870 PWs)   bands (ev):

   -45.4767 -23.9725 -23.6907 -23.3965 -20.6563 -12.2247  -3.2322  -2.7414
    -2.6053  -2.4229  -0.7128   0.1697   3.4415   6.3038   6.6570   7.2193
     7.8591   9.6110   9.9587  11.0675  11.6446  12.3056  13.0592  14.0807
    14.6506  15.0174

          k = 0.4375 0.3911 0.0000 (  5873 PWs)   bands (ev):

   -45.4749 -23.9583 -23.6845 -23.4399 -20.6501 -12.1919  -3.1753  -2.8303
    -2.5920  -2.3216  -0.7191  -0.2014   3.6379   6.3917   6.5958   7.1465
     7.6646  10.0070  10.5127  11.4290  11.5290  12.2918  13.1083  13.9260
    14.6492  14.9218

          k = 0.4375 0.4622 0.0000 (  5868 PWs)   bands (ev):

   -45.4734 -23.9290 -23.6795 -23.4944 -20.6432 -12.1671  -3.1173  -2.8572
    -2.5777  -2.1761  -0.7822  -0.5921   3.8767   6.3406   6.5066   7.1335
     7.5122  10.2299  10.9430  11.7238  11.8988  12.3882  13.1396  14.0042
    14.5276  15.1541

          k = 0.4375 0.5333 0.0000 (  5865 PWs)   bands (ev):

   -45.4727 -23.9024 -23.6767 -23.5357 -20.6387 -12.1537  -3.1046  -2.8294
    -2.5664  -2.0236  -1.0432  -0.6848   4.0540   6.1648   6.5192   7.0824
     7.5108  10.3545  10.9747  11.6845  12.5728  12.9716  13.1667  13.8120
    14.4307  14.9634

          k = 0.4375-0.1778 0.0000 (  5884 PWs)   bands (ev):

   -45.4806 -23.9397 -23.7001 -23.3859 -20.6580 -12.2934  -3.1864  -2.6801
    -2.6131  -2.2973  -0.7409   0.2431   3.4503   6.1209   6.5983   7.1798
     7.7081   9.0325   9.8734  10.9092  11.8855  12.4623  13.1485  14.5179
    14.9431  15.5762

          k = 0.4375-0.1067 0.0000 (  5883 PWs)   bands (ev):

   -45.4820 -23.9062 -23.6993 -23.4125 -20.6546 -12.3187  -3.1115  -2.7124
    -2.6248  -2.0828  -0.7701  -0.0119   3.6187   6.0229   6.4434   7.0507
     7.6136   9.0333  10.0363  11.1829  11.9799  12.4818  13.5642  14.2659
    14.9984  16.0871

          k = 0.4375-0.0356 0.0000 (  5881 PWs)   bands (ev):

   -45.4828 -23.8822 -23.6954 -23.4374 -20.6518 -12.3324  -3.0546  -2.7361
    -2.6334  -1.9008  -0.8056  -0.2287   3.7591   5.8252   6.5059   6.8673
     7.6232   9.0411  10.1435  11.4337  12.2509  12.5042  13.7301  14.2453
    14.6447  15.6722

          k =-0.5000-0.2844 0.0000 (  5882 PWs)   bands (ev):

   -45.4766 -23.9846 -23.6909 -23.3822 -20.6588 -12.2227  -3.2660  -2.7021
    -2.6151  -2.4939  -0.7060   0.3104   3.3582   6.3115   6.6459   7.2847
     8.0048   9.5252   9.8320  11.0686  11.4351  12.2798  13.1478  14.0049
    14.6229  14.9570

          k =-0.5000-0.2133 0.0000 (  5876 PWs)   bands (ev):

   -45.4766 -23.9735 -23.6906 -23.3961 -20.6566 -12.2230  -3.2340  -2.7434
    -2.6054  -2.4267  -0.7124   0.1759   3.4376   6.3122   6.6342   7.2283
     7.8634   9.6321   9.9649  11.0721  11.6228  12.3085  13.0684  14.0664
    14.6243  15.0380

          k =-0.5000-0.1422 0.0000 (  5872 PWs)   bands (ev):

   -45.4766 -23.9447 -23.6897 -23.4323 -20.6513 -12.2239  -3.1596  -2.7916
    -2.5986  -2.2761  -0.7330  -0.1464   3.6269   6.2976   6.5218   7.1358
     7.6667   9.8003  10.2066  11.3019  11.9340  12.4406  12.9710  14.0360
    14.6711  15.4223

          k =-0.5000-0.0711 0.0000 (  5881 PWs)   bands (ev):

   -45.4766 -23.9116 -23.6879 -23.4734 -20.6461 -12.2248  -3.0956  -2.8067
    -2.5955  -2.0972  -0.7848  -0.4662   3.8267   6.0986   6.5286   7.0047
     7.6243   9.9013  10.3607  11.6991  12.1311  12.6476  13.1892  13.9303
    14.6907  15.4583

          k =-0.5000-0.0000 0.0000 (  5884 PWs)   bands (ev):

   -45.4766 -23.8962 -23.6867 -23.4927 -20.6440 -12.2251  -3.0746  -2.8040
    -2.5948  -1.9991  -0.8509  -0.5764   3.9179   5.9675   6.5966   6.9038
     7.6389   9.9292  10.4209  11.7529  12.3282  12.7896  13.4781  13.9903
    14.4209  14.9796

     highest occupied, lowest unoccupied level (ev):     4.2151    5.4501

!    total energy              =    -571.23421839 Ry
     total all-electron energy =    -12610.611630 Ry
     estimated scf accuracy    <          4.0E-11 Ry

     The total energy is the sum of the following terms:
     one-electron contribution =    -277.18555321 Ry
     hartree contribution      =     147.00444095 Ry
     xc contribution           =     -36.33565689 Ry
     ewald contribution        =      -7.86320609 Ry
     one-center paw contrib.   =    -396.85424315 Ry

     convergence has been achieved in   7 iterations

     negative rho (up, down):  3.684E-05 0.000E+00

     Forces acting on atoms (cartesian axes, Ry/au):

     atom    1 type  1   force =     0.00000000   -0.00141497    0.00015292
     atom    2 type  2   force =     0.00000000    0.00098323   -0.00076528
     atom    3 type  3   force =     0.00000000    0.00043174    0.00061235
     The non-local contrib.  to forces
     atom    1 type  1   force =     0.00000000    0.00188069   -0.02506060
     atom    2 type  2   force =     0.00000000    0.01670283   -0.98064578
     atom    3 type  3   force =     0.00000000    0.00138553    0.21118122
     The ionic contribution  to forces
     atom    1 type  1   force =    -0.00000001    0.12295441   -0.48176138
     atom    2 type  2   force =     0.00000001   -0.08511217   24.23316425
     atom    3 type  3   force =     0.00000000   -0.03784224  -23.75140288
     The local contribution  to forces
     atom    1 type  1   force =    -0.00000000   -0.12612077    0.50277981
     atom    2 type  2   force =     0.00000027    0.06944652  -23.25648383
     atom    3 type  3   force =    -0.00000000    0.03681920   23.54364004
     The core correction contribution to forces
     atom    1 type  1   force =    -0.00000000   -0.00013062    0.00417543
     atom    2 type  2   force =     0.00000000   -0.00005354    0.00319287
     atom    3 type  3   force =    -0.00000000    0.00006850   -0.00280520
     The Hubbard contrib.    to forces
     atom    1 type  1   force =     0.00000000    0.00000000    0.00000000
     atom    2 type  2   force =     0.00000000    0.00000000    0.00000000
     atom    3 type  3   force =     0.00000000    0.00000000    0.00000000
     The SCF correction term to forces
     atom    1 type  1   force =     0.00000000    0.00000248    0.00001560
     atom    2 type  2   force =    -0.00000000    0.00000074    0.00000315
     atom    3 type  3   force =    -0.00000000    0.00000191   -0.00000489

     Total force =     0.002035     Total SCF correction =     0.000017
     Energy error            =      5.4E-05 Ry
     Gradient error          =      1.4E-03 Ry/Bohr

     number of scf cycles    =   4
     number of bfgs steps    =   3

     energy             old  =    -571.2341645565 Ry
     energy             new  =    -571.2342183937 Ry

     CASE: energy            _new < energy            _old

     new trust radius        =       0.0071042443 bohr
     new conv_thr            =       0.0000000005 Ry


ATOMIC_POSITIONS (angstrom)
Zr           -0.0000000000       -0.0174368854       10.1028589564
F            -0.0000000020        1.9390293289       11.4004718497
Br           -0.0000000020        1.9402153197        8.2148479069



     Writing config-only to output data dir ./tmp/ZrFBr.save/
     NEW-OLD atomic charge density approx. for the potential

     Check: negative core charge=   -0.000002

     negative rho (up, down):  3.707E-05 0.000E+00

     total cpu time spent up to now is       50.2 secs

     Self-consistent Calculation

     iteration #  1     ecut=    65.00 Ry     beta= 0.70
     Davidson diagonalization with overlap
     ethr =  1.00E-06,  avg # of iterations =  3.0

     Threshold (ethr) on eigenvalues was too large:
     Diagonalizing with lowered threshold

     Davidson diagonalization with overlap
     ethr =  1.31E-08,  avg # of iterations =  3.0

     negative rho (up, down):  3.722E-05 0.000E+00

     total cpu time spent up to now is       53.6 secs

     total energy              =    -571.23422710 Ry
     estimated scf accuracy    <       0.00000346 Ry

     iteration #  2     ecut=    65.00 Ry     beta= 0.70
     Davidson diagonalization with overlap
     ethr =  1.33E-08,  avg # of iterations =  2.0

     negative rho (up, down):  3.705E-05 0.000E+00

     total cpu time spent up to now is       55.1 secs

     total energy              =    -571.23422688 Ry
     estimated scf accuracy    <       0.00000441 Ry

     iteration #  3     ecut=    65.00 Ry     beta= 0.70
     Davidson diagonalization with overlap
     ethr =  1.33E-08,  avg # of iterations =  2.1

     negative rho (up, down):  3.702E-05 0.000E+00

     total cpu time spent up to now is       56.4 secs

     total energy              =    -571.23422803 Ry
     estimated scf accuracy    <       0.00000098 Ry

     iteration #  4     ecut=    65.00 Ry     beta= 0.70
     Davidson diagonalization with overlap
     ethr =  3.77E-09,  avg # of iterations =  1.0

     negative rho (up, down):  3.701E-05 0.000E+00

     total cpu time spent up to now is       57.6 secs

     total energy              =    -571.23422820 Ry
     estimated scf accuracy    <       0.00000005 Ry

     iteration #  5     ecut=    65.00 Ry     beta= 0.70
     Davidson diagonalization with overlap
     ethr =  2.11E-10,  avg # of iterations =  2.0

     negative rho (up, down):  3.701E-05 0.000E+00

     total cpu time spent up to now is       59.0 secs

     total energy              =    -571.23422822 Ry
     estimated scf accuracy    <       0.00000001 Ry

     iteration #  6     ecut=    65.00 Ry     beta= 0.70
     Davidson diagonalization with overlap
     ethr =  5.15E-11,  avg # of iterations =  2.0

     negative rho (up, down):  3.701E-05 0.000E+00

     total cpu time spent up to now is       60.4 secs

     total energy              =    -571.23422822 Ry
     estimated scf accuracy    <          7.6E-10 Ry

     iteration #  7     ecut=    65.00 Ry     beta= 0.70
     Davidson diagonalization with overlap
     ethr =  2.92E-12,  avg # of iterations =  2.0

     negative rho (up, down):  3.701E-05 0.000E+00

     total cpu time spent up to now is       61.7 secs

     End of self-consistent calculation

          k = 0.0000 0.0000 0.0000 (  5879 PWs)   bands (ev):

   -45.5274 -23.9796 -23.2624 -23.2389 -20.7585 -13.0620  -3.2231  -2.5713
    -2.5392  -1.1986   1.1479   1.2527   3.7299   5.6245   5.7477   5.7987
     6.5940   6.6688   7.8192   8.6161  11.0183  13.8496  14.3993  14.6579
    15.1980  17.0875

          k = 0.0000 0.0711 0.0000 (  5863 PWs)   bands (ev):

   -45.5254 -23.9717 -23.2910 -23.2431 -20.7505 -13.0358  -3.1905  -2.6052
    -2.5386  -1.1781   0.9337   1.2153   3.7403   5.5705   5.8398   5.8451
     6.5552   6.7181   7.9366   8.8331  11.1449  13.9004  14.0621  14.7864
    15.0619  17.2439

          k = 0.0000 0.1422 0.0000 (  5849 PWs)   bands (ev):

   -45.5197 -23.9496 -23.3698 -23.2551 -20.7300 -12.9594  -3.1028  -2.6916
    -2.5380  -1.1287   0.3937   1.1126   3.7426   5.5029   5.9451   5.9696
     6.6450   6.8482   8.2576   9.3112  11.5131  13.4367  13.8762  14.8978
    15.1684  17.3189

          k = 0.0000 0.2133 0.0000 (  5850 PWs)   bands (ev):

   -45.5113 -23.9179 -23.4808 -23.2730 -20.7050 -12.8409  -2.9973  -2.7888
    -2.5397  -1.0834  -0.2786   0.9681   3.6862   5.5132   5.9953   6.1965
     6.9676   7.0214   8.7088   9.8112  11.8907  13.0689  13.5031  15.2256
    15.7897  17.0010

          k = 0.0000 0.2844 0.0000 (  5874 PWs)   bands (ev):

   -45.5013 -23.8867 -23.5980 -23.2941 -20.6830 -12.6937  -2.9941  -2.7843
    -2.5457  -1.2070  -0.7922   0.8102   3.5705   5.6198   6.1517   6.5105
     7.2064   7.3928   9.1842  10.2261  11.7735  12.7697  13.8818  15.6548
    16.1841  16.5585

          k = 0.0000 0.3555 0.0000 (  5874 PWs)   bands (ev):

   -45.4912 -23.8791 -23.6844 -23.3150 -20.6681 -12.5375  -3.0858  -2.7017
    -2.5559  -1.7261  -0.8321   0.6641   3.4486   5.7866   6.4134   6.8625
     7.3992   7.8903   9.5443  10.5151  11.6406  12.4534  14.4373  14.9705
    16.1391  16.2404

          k = 0.0000 0.4266 0.0000 (  5870 PWs)   bands (ev):

   -45.4827 -23.9180 -23.7074 -23.3327 -20.6604 -12.3968  -3.1772  -2.6499
    -2.5674  -2.1860  -0.7876   0.5481   3.3632   5.9927   6.6389   7.1451
     7.6346   8.4793   9.6977  10.7211  11.7366  12.3610  13.4715  14.9036
    15.3668  15.7341

          k = 0.0000 0.4977 0.0000 (  5892 PWs)   bands (ev):

   -45.4770 -23.9648 -23.6994 -23.3444 -20.6576 -12.2981  -3.2498  -2.6561
    -2.5767  -2.4416  -0.7500   0.4744   3.3214   6.2081   6.7020   7.2862
     7.8827   9.1199   9.7704  10.8808  11.7236  12.2635  12.9271  14.3831
    14.6813  15.3212

          k = 0.0000-0.5688 0.0000 (  5874 PWs)   bands (ev):

   -45.4750 -23.9833 -23.6941 -23.3485 -20.6570 -12.2625  -3.2801  -2.6871
    -2.5802  -2.4978  -0.7361   0.4491   3.3102   6.3299   6.6676   7.3254
     7.9914   9.4718   9.8238  11.0493  11.3178  12.2026  13.0941  13.9320
    14.5061  15.1587

          k = 0.0625 0.0356 0.0000 (  5870 PWs)   bands (ev):

   -45.5253 -23.9714 -23.2792 -23.2562 -20.7504 -13.0346  -3.1897  -2.5892
    -2.5564  -1.1768   0.9960   1.1447   3.7444   5.6298   5.7715   5.8477
     6.5854   6.6773   7.9431   8.8418  11.1495  13.9005  14.1844  14.6116
    15.0843  17.3066

          k = 0.0625 0.1067 0.0000 (  5846 PWs)   bands (ev):

   -45.5214 -23.9564 -23.3392 -23.2581 -20.7362 -12.9833  -3.1292  -2.6586
    -2.5467  -1.1420   0.5934   1.1002   3.7525   5.5312   5.8889   5.9551
     6.5882   6.7944   8.1612   9.1813  11.4047  13.6181  13.9390  14.8207
    15.0689  17.3481

          k = 0.0625 0.1778 0.0000 (  5844 PWs)   bands (ev):

   -45.5144 -23.9293 -23.4345 -23.2727 -20.7136 -12.8857  -3.0274  -2.7557
    -2.5465  -1.0928  -0.0025   0.9644   3.7308   5.4734   6.0089   6.1141
     6.7714   6.9845   8.5477   9.6562  11.8653  13.0944  13.6282  14.9641
    15.6297  16.9468

          k = 0.0625 0.2489 0.0000 (  5858 PWs)   bands (ev):

   -45.5051 -23.8970 -23.5476 -23.2938 -20.6904 -12.7525  -2.9546  -2.8171
    -2.5531  -1.0894  -0.6191   0.7911   3.6534   5.5256   6.0849   6.4248
     7.0432   7.2703   9.0144  10.1134  12.0335  12.9243  13.4011  15.3870
    16.2643  16.5211

          k = 0.0625 0.3200 0.0000 (  5863 PWs)   bands (ev):

   -45.4951 -23.8745 -23.6499 -23.3172 -20.6723 -12.6000  -3.0247  -2.7426
    -2.5664  -1.4492  -0.8407   0.6162   3.5479   5.6869   6.2396   6.7777
     7.2752   7.7090   9.4449  10.4909  11.7938  12.5953  14.1358  15.1975
    15.8866  16.3435

          k = 0.0625 0.3911 0.0000 (  5869 PWs)   bands (ev):

   -45.4858 -23.8905 -23.7015 -23.3389 -20.6613 -12.4505  -3.1174  -2.6680
    -2.5873  -1.9512  -0.8103   0.4650   3.4612   5.9084   6.4511   7.0564
     7.4990   8.2911   9.7147  10.7584  11.7458  12.3980  14.0112  14.7813
    15.4092  16.2454

          k = 0.0625 0.4622 0.0000 (  5873 PWs)   bands (ev):

   -45.4787 -23.9381 -23.7021 -23.3555 -20.6563 -12.3295  -3.1958  -2.6600
    -2.6013  -2.2895  -0.7668   0.3550   3.4139   6.1425   6.6189   7.2055
     7.7091   8.9826   9.8324  10.9338  11.8387  12.3790  13.0645  14.5129
    14.8505  15.6316

          k = 0.0625 0.5333 0.0000 (  5872 PWs)   bands (ev):

   -45.4748 -23.9717 -23.6935 -23.3646 -20.6547 -12.2615  -3.2458  -2.7204
    -2.5937  -2.4162  -0.7406   0.2973   3.3976   6.3285   6.6608   7.2588
     7.8512   9.5675   9.9514  11.0675  11.5334  12.2318  13.0191  14.0150
    14.5470  15.1463

          k = 0.1250 0.0711 0.0000 (  5859 PWs)   bands (ev):

   -45.5192 -23.9483 -23.3563 -23.2738 -20.7298 -12.9548  -3.1001  -2.6742
    -2.5618  -1.1243   0.4547   1.0230   3.7593   5.5791   5.8569   5.9606
     6.6611   6.8056   8.2774   9.3287  11.5299  13.4943  13.9161  14.9225
    14.9940  17.3563

          k = 0.1250 0.1422 0.0000 (  5856 PWs)   bands (ev):

   -45.5140 -23.9283 -23.4282 -23.2829 -20.7135 -12.8822  -3.0255  -2.7483
    -2.5586  -1.0895   0.0303   0.9093   3.7454   5.4902   6.0006   6.0896
     6.7778   6.9643   8.5601   9.6643  11.8759  13.1209  13.6509  14.9719
    15.5574  16.9190

          k = 0.1250 0.2133 0.0000 (  5851 PWs)   bands (ev):

   -45.5061 -23.9000 -23.5221 -23.3045 -20.6930 -12.7697  -2.9301  -2.8306
    -2.5677  -1.0644  -0.4853   0.6997   3.7114   5.4576   6.1137   6.3946
     6.9267   7.2486   8.9646  10.0875  12.4193  12.7088  13.2478  15.2156
    16.1733  16.4790

          k = 0.1250 0.2844 0.0000 (  5852 PWs)   bands (ev):

   -45.4969 -23.8733 -23.6177 -23.3332 -20.6742 -12.6303  -2.9564  -2.7886
    -2.5879  -1.2371  -0.8252   0.4573   3.6624   5.5434   6.2271   6.7156
     7.1685   7.6482   9.3993  10.5232  12.2694  12.7435  13.3498  15.1455
    15.9276  16.4100

          k = 0.1250 0.3555 0.0000 (  5867 PWs)   bands (ev):

   -45.4876 -23.8692 -23.6841 -23.3632 -20.6606 -12.4829  -3.0424  -2.6989
    -2.6194  -1.6899  -0.8308   0.2306   3.6202   5.7531   6.3498   6.9324
     7.4331   8.2352   9.7614  10.9247  12.0256  12.5082  14.1157  14.4730
    15.2076  16.2603

          k = 0.1250 0.4266 0.0000 (  5872 PWs)   bands (ev):

   -45.4797 -23.9025 -23.6993 -23.3892 -20.6528 -12.3507  -3.1154  -2.6880
    -2.6249  -2.0623  -0.7891   0.0490   3.6024   6.0420   6.4582   7.0814
     7.5953   8.9850   9.9812  11.2251  11.9777  12.4490  13.4874  14.2610
    14.9412  16.0816

          k = 0.1250 0.4977 0.0000 (  5871 PWs)   bands (ev):

   -45.4744 -23.9409 -23.6913 -23.4067 -20.6494 -12.2583  -3.1658  -2.7666
    -2.5972  -2.2572  -0.7548  -0.0684   3.6048   6.3119   6.5399   7.1691
     7.6448   9.7311  10.1483  11.3590  11.9133  12.3607  12.9275  14.0337
    14.6097  15.4165

          k = 0.1250 0.5688 0.0000 (  5878 PWs)   bands (ev):

   -45.4726 -23.9561 -23.6865 -23.4129 -20.6485 -12.2250  -3.1848  -2.8093
    -2.5893  -2.3081  -0.7419  -0.1090   3.6090   6.4120   6.5966   7.1797
     7.6538   9.9433  10.5121  11.3872  11.5153  12.2517  13.0755  13.8645
    14.5822  14.9517

          k = 0.1250 0.0000 0.0000 (  5872 PWs)   bands (ev):

   -45.5210 -23.9554 -23.3260 -23.2751 -20.7361 -12.9799  -3.1273  -2.6407
    -2.5695  -1.1387   0.6398   1.0360   3.7618   5.6363   5.7739   5.9526
     6.5714   6.7864   8.1775   9.1951  11.4155  13.6795  13.9590  14.7462
    15.0096  17.3450

          k = 0.1875 0.1067 0.0000 (  5867 PWs)   bands (ev):

   -45.5101 -23.9151 -23.4703 -23.2941 -20.7050 -12.8309  -2.9922  -2.7758
    -2.5658  -1.0738  -0.2311   0.8656   3.7195   5.5519   6.0077   6.1030
     6.9588   7.0022   8.7418   9.8273  11.9073  13.1148  13.5542  15.2647
    15.6318  17.0216

          k = 0.1875 0.1778 0.0000 (  5870 PWs)   bands (ev):

   -45.5041 -23.8943 -23.5401 -23.3107 -20.6904 -12.7435  -2.9488  -2.8109
    -2.5722  -1.0773  -0.5835   0.7007   3.6861   5.5306   6.0832   6.3880
     7.0237   7.2702   9.0397  10.1206  12.0337  12.9626  13.4657  15.4250
    16.1857  16.4816

          k = 0.1875 0.2489 0.0000 (  5864 PWs)   bands (ev):

   -45.4963 -23.8716 -23.6142 -23.3423 -20.6743 -12.6247  -2.9521  -2.7887
    -2.5966  -1.2219  -0.8156   0.4082   3.6811   5.5397   6.2242   6.7078
     7.1525   7.6538   9.4125  10.5225  12.2573  12.7441  13.4211  15.1490
    15.9781  16.4257

          k = 0.1875 0.3200 0.0000 (  5877 PWs)   bands (ev):

   -45.4878 -23.8606 -23.6714 -23.3828 -20.6602 -12.4898  -3.0007  -2.7252
    -2.6330  -1.5498  -0.8398   0.0722   3.7108   5.6332   6.3972   6.8210
     7.4222   8.2257   9.7877  10.9846  12.3568  12.5991  13.6469  14.4140
    15.5564  16.0133

          k = 0.1875 0.3911 0.0000 (  5868 PWs)   bands (ev):

   -45.4799 -23.8759 -23.6923 -23.4238 -20.6502 -12.3585  -3.0537  -2.7191
    -2.6330  -1.8590  -0.8157  -0.2302   3.7655   5.8312   6.5214   6.8960
     7.5929   8.9967  10.0898  11.4370  12.2485  12.5872  13.7163  14.2263
    14.6270  15.7052

          k = 0.1875 0.4622 0.0000 (  5868 PWs)   bands (ev):

   -45.4738 -23.9049 -23.6875 -23.4568 -20.6443 -12.2531  -3.0961  -2.7848
    -2.5964  -2.0654  -0.7907  -0.4512   3.8264   6.1061   6.5286   7.0515
     7.5906   9.8387  10.2724  11.7387  12.1648  12.6721  13.1304  13.9369
    14.6468  15.5447

          k = 0.1875 0.5333 0.0000 (  5882 PWs)   bands (ev):

   -45.4705 -23.9244 -23.6800 -23.4752 -20.6417 -12.1942  -3.1198  -2.8402
    -2.5777  -2.1571  -0.7770  -0.5661   3.8674   6.3481   6.5020   7.1756
     7.4928  10.1627  10.8519  11.7299  11.9569  12.4147  13.0917  13.9738
    14.5024  15.1347

          k = 0.1875-0.0356 0.0000 (  5864 PWs)   bands (ev):

   -45.5134 -23.9269 -23.4249 -23.2914 -20.7136 -12.8770  -3.0234  -2.7421
    -2.5712  -1.0849   0.0304   0.8929   3.7519   5.5390   5.9972   6.0263
     6.7287   6.9959   8.5798   9.6726  11.8832  13.1192  13.6564  14.9489
    15.5355  16.9423

          k = 0.2500 0.1422 0.0000 (  5878 PWs)   bands (ev):

   -45.4994 -23.8821 -23.5910 -23.3174 -20.6835 -12.6767  -2.9863  -2.7776
    -2.5742  -1.1835  -0.7675   0.6956   3.6142   5.6255   6.1741   6.4318
     7.1625   7.4153   9.2267  10.2338  11.7771  12.8115  13.9704  15.7400
    16.2885  16.4208

          k = 0.2500 0.2133 0.0000 (  5886 PWs)   bands (ev):

   -45.4934 -23.8699 -23.6437 -23.3387 -20.6729 -12.5840  -3.0170  -2.7400
    -2.5899  -1.4195  -0.8232   0.5036   3.5915   5.6825   6.2407   6.7430
     7.2383   7.7280   9.4794  10.4876  11.7977  12.6313  14.2542  15.2951
    15.9017  16.3397

          k = 0.2500 0.2844 0.0000 (  5877 PWs)   bands (ev):

   -45.4863 -23.8655 -23.6800 -23.3791 -20.6612 -12.4702  -3.0366  -2.7039
    -2.6298  -1.6670  -0.8195   0.1490   3.6515   5.7475   6.3464   6.9186
     7.4129   8.2469   9.7839  10.9109  12.0245  12.5152  14.1992  14.5617
    15.2688  16.2671

          k = 0.2500 0.3555 0.0000 (  5875 PWs)   bands (ev):

   -45.4792 -23.8740 -23.6903 -23.4317 -20.6507 -12.3513  -3.0514  -2.7279
    -2.6312  -1.8487  -0.8112  -0.2685   3.7798   5.8309   6.5170   6.8919
     7.5873   9.0019  10.1013  11.4240  12.2536  12.5534  13.7305  14.3409
    14.6823  15.6342

          k = 0.2500 0.4266 0.0000 (  5876 PWs)   bands (ev):

   -45.4731 -23.8870 -23.6839 -23.4851 -20.6426 -12.2461  -3.0729  -2.7874
    -2.5954  -1.9499  -0.8550  -0.6075   3.9351   5.9717   6.5806   6.9578
     7.6010   9.8743  10.3369  11.7716  12.2837  12.9075  13.4846  14.0118
    14.4441  15.0093

          k = 0.2500 0.4977 0.0000 (  5873 PWs)   bands (ev):

   -45.4691 -23.8953 -23.6751 -23.5253 -20.6377 -12.1735  -3.1035  -2.8161
    -2.5672  -1.9900  -1.0370  -0.7032   4.0628   6.1656   6.5102   7.1178
     7.4939  10.3006  10.8572  11.7308  12.5364  13.0517  13.2092  13.8410
    14.4084  14.9764

          k = 0.2500 0.5688 0.0000 (  5864 PWs)   bands (ev):

   -45.4676 -23.8977 -23.6715 -23.5403 -20.6361 -12.1474  -3.1192  -2.8209
    -2.5566  -1.9981  -1.1316  -0.7121   4.1124   6.2879   6.4599   7.1660
     7.4354  10.2671  11.6208  11.8137  11.8704  13.0583  13.4174  13.8592
    14.4372  15.0324

          k = 0.2500-0.0711 0.0000 (  5875 PWs)   bands (ev):

   -45.5034 -23.8930 -23.5423 -23.3137 -20.6910 -12.7370  -2.9485  -2.8097
    -2.5793  -1.0758  -0.6015   0.7120   3.6831   5.5498   6.0859   6.3507
     6.9982   7.2942   9.0577  10.1250  12.0261  12.9511  13.4328  15.4025
    16.2535  16.5218

          k = 0.2500 0.0000 0.0000 (  5876 PWs)   bands (ev):

   -45.5048 -23.8972 -23.5215 -23.3158 -20.6937 -12.7578  -2.9268  -2.8264
    -2.5851  -1.0562  -0.4963   0.6798   3.7208   5.4903   6.1011   6.3409
     6.8862   7.2757   8.9991  10.0968  12.4214  12.6777  13.2470  15.2191
    16.2119  16.4897

          k = 0.3125 0.1778 0.0000 (  5884 PWs)   bands (ev):

   -45.4887 -23.8738 -23.6796 -23.3405 -20.6695 -12.5128  -3.0789  -2.6987
    -2.5871  -1.7069  -0.8114   0.5389   3.4951   5.7772   6.4324   6.8108
     7.3570   7.9223   9.5882  10.5086  11.6591  12.4985  14.5957  15.0626
    16.0740  16.2518

          k = 0.3125 0.2489 0.0000 (  5893 PWs)   bands (ev):

   -45.4834 -23.8856 -23.6962 -23.3636 -20.6628 -12.4267  -3.1097  -2.6711
    -2.6117  -1.9308  -0.7900   0.3399   3.5081   5.8986   6.4604   7.0219
     7.4677   8.3180   9.7484  10.7400  11.7716  12.4420  14.1571  14.8532
    15.4178  16.2854

          k = 0.3125 0.3200 0.0000 (  5897 PWs)   bands (ev):

   -45.4777 -23.8989 -23.6945 -23.4094 -20.6543 -12.3303  -3.1092  -2.7098
    -2.6232  -2.0487  -0.7725  -0.0488   3.6381   6.0373   6.4603   7.0608
     7.5829   9.0024  10.0067  11.1853  11.9944  12.4740  13.5987  14.2797
    15.0506  16.1271

          k = 0.3125 0.3911 0.0000 (  5878 PWs)   bands (ev):

   -45.4724 -23.9030 -23.6840 -23.4700 -20.6456 -12.2383  -3.0942  -2.7956
    -2.5962  -2.0591  -0.7860  -0.5053   3.8462   6.1136   6.5229   7.0421
     7.5853   9.8572  10.2922  11.6994  12.1407  12.6704  13.2386  13.9299
    14.7551  15.4696

          k = 0.3125 0.4622 0.0000 (  5864 PWs)   bands (ev):

   -45.4684 -23.8952 -23.6733 -23.5309 -20.6385 -12.1658  -3.1050  -2.8193
    -2.5677  -1.9883  -1.0596  -0.7002   4.0684   6.1754   6.5074   7.1132
     7.4906  10.3247  10.8602  11.7154  12.5615  13.0416  13.2256  13.7739
    14.4477  15.0002

          k = 0.3125 0.5333 0.0000 (  5865 PWs)   bands (ev):

   -45.4662 -23.8839 -23.6676 -23.5710 -20.6346 -12.1258  -3.1323  -2.7966
    -2.5462  -1.8549  -1.4140  -0.7134   4.2184   6.2460   6.4528   7.1046
     7.4715  10.2940  11.6280  11.7696  12.6437  12.8656  13.5845  13.7528
    14.5478  15.1606

          k = 0.3125-0.1067 0.0000 (  5884 PWs)   bands (ev):

   -45.4927 -23.8698 -23.6473 -23.3388 -20.6738 -12.5770  -3.0200  -2.7384
    -2.5950  -1.4410  -0.8243   0.5268   3.5802   5.6833   6.2401   6.7376
     7.2396   7.7366   9.4935  10.4904  11.7847  12.6238  14.1892  15.2926
    15.9140  16.3602

          k = 0.3125-0.0356 0.0000 (  5868 PWs)   bands (ev):

   -45.4949 -23.8699 -23.6193 -23.3464 -20.6757 -12.6111  -2.9556  -2.7856
    -2.6085  -1.2464  -0.8226   0.4287   3.6723   5.5546   6.2064   6.6913
     7.1469   7.6709   9.4434  10.5296  12.2257  12.7298  13.3553  15.1805
    16.0200  16.4517

          k = 0.3750 0.2133 0.0000 (  5903 PWs)   bands (ev):

   -45.4795 -23.9151 -23.7013 -23.3599 -20.6628 -12.3650  -3.1698  -2.6526
    -2.6012  -2.1780  -0.7623   0.4152   3.4099   5.9788   6.6473   7.1104
     7.6077   8.5224   9.7338  10.7128  11.7803  12.4243  13.5998  14.9975
    15.4759  15.5817

          k = 0.3750 0.2844 0.0000 (  5874 PWs)   bands (ev):

   -45.4757 -23.9355 -23.6955 -23.3821 -20.6587 -12.2986  -3.1870  -2.6810
    -2.6135  -2.2840  -0.7418   0.2251   3.4601   6.1279   6.6334   7.1674
     7.7007   9.0150   9.8590  10.9158  11.8929  12.4531  13.1644  14.5404
    14.9394  15.5902

          k = 0.3750 0.3555 0.0000 (  5870 PWs)   bands (ev):

   -45.4718 -23.9393 -23.6853 -23.4288 -20.6518 -12.2308  -3.1594  -2.7871
    -2.6001  -2.2599  -0.7335  -0.1690   3.6389   6.2986   6.5570   7.1400
     7.6471   9.7688  10.1638  11.3064  11.9742  12.4333  12.9750  14.0537
    14.7051  15.4313

          k = 0.3750 0.4266 0.0000 (  5865 PWs)   bands (ev):

   -45.4685 -23.9247 -23.6752 -23.4904 -20.6440 -12.1725  -3.1197  -2.8529
    -2.5797  -2.1635  -0.7813  -0.6084   3.8847   6.3543   6.5086   7.1527
     7.4973  10.2183  10.8598  11.7356  11.9612  12.3980  13.1335  14.0049
    14.5465  15.1833

          k = 0.3750 0.4977 0.0000 (  5860 PWs)   bands (ev):

   -45.4663 -23.9002 -23.6684 -23.5474 -20.6378 -12.1330  -3.1233  -2.8286
    -2.5584  -2.0102  -1.1560  -0.7006   4.1136   6.2981   6.4677   7.1568
     7.4329  10.3143  11.6019  11.8675  11.9410  12.9310  13.4000  13.8550
    14.4681  15.0697

          k = 0.3750 0.5688 0.0000 (  5866 PWs)   bands (ev):

   -45.4656 -23.8868 -23.6664 -23.5721 -20.6355 -12.1190  -3.1347  -2.8017
    -2.5474  -1.8787  -1.4033  -0.7069   4.2131   6.2459   6.4630   7.1045
     7.4697  10.3182  11.6127  11.8850  12.5949  12.8446  13.4825  13.8003
    14.5636  15.1794

          k = 0.3750-0.1422 0.0000 (  5886 PWs)   bands (ev):

   -45.4828 -23.8883 -23.6974 -23.3624 -20.6638 -12.4204  -3.1136  -2.6680
    -2.6173  -1.9533  -0.7881   0.3641   3.4941   5.8932   6.4494   7.0341
     7.4785   8.3313   9.7616  10.7413  11.7655  12.4417  14.1403  14.8119
    15.4568  16.2372

          k = 0.3750-0.0711 0.0000 (  5879 PWs)   bands (ev):

   -45.4850 -23.8682 -23.6839 -23.3787 -20.6631 -12.4569  -3.0433  -2.6996
    -2.6412  -1.7111  -0.8158   0.1874   3.6310   5.7487   6.3354   6.9139
     7.4354   8.2679   9.8121  10.9180  11.9975  12.5066  14.1297  14.5462
    15.2460  16.3106

          k = 0.3750 0.0000 0.0000 (  5874 PWs)   bands (ev):

   -45.4857 -23.8614 -23.6753 -23.3883 -20.6626 -12.4696  -3.0063  -2.7241
    -2.6479  -1.5947  -0.8322   0.0890   3.6993   5.6404   6.3746   6.8125
     7.4391   8.2525   9.8304  10.9934  12.3334  12.5370  13.6111  14.4459
    15.5820  16.0619

          k = 0.4375 0.2489 0.0000 (  5875 PWs)   bands (ev):

   -45.4734 -23.9641 -23.6918 -23.3728 -20.6607 -12.2611  -3.2407  -2.6678
    -2.6124  -2.4385  -0.7212   0.3367   3.3685   6.1963   6.6957   7.2510
     7.8851   9.1724   9.7995  10.8875  11.8094  12.3598  12.9890  14.4632
    14.7974  15.1333

          k = 0.4375 0.3200 0.0000 (  5870 PWs)   bands (ev):

   -45.4714 -23.9712 -23.6859 -23.3917 -20.6579 -12.2255  -3.2366  -2.7435
    -2.6073  -2.4235  -0.7126   0.1691   3.4410   6.3156   6.6605   7.2240
     7.8646   9.6203   9.9585  11.0708  11.6449  12.3059  13.0598  14.0814
    14.6526  15.0186

          k = 0.4375 0.3911 0.0000 (  5873 PWs)   bands (ev):

   -45.4695 -23.9571 -23.6797 -23.4350 -20.6517 -12.1928  -3.1797  -2.8319
    -2.5944  -2.3225  -0.7188  -0.2018   3.6376   6.4022   6.6003   7.1514
     7.6706  10.0137  10.5149  11.4303  11.5297  12.2945  13.1095  13.9263
    14.6524  14.9197

          k = 0.4375 0.4622 0.0000 (  5868 PWs)   bands (ev):

   -45.4681 -23.9280 -23.6747 -23.4892 -20.6447 -12.1679  -3.1216  -2.8587
    -2.5805  -2.1774  -0.7817  -0.5918   3.8767   6.3452   6.5154   7.1395
     7.5185  10.2335  10.9464  11.7273  11.8997  12.3927  13.1421  14.0031
    14.5263  15.1555

          k = 0.4375 0.5333 0.0000 (  5865 PWs)   bands (ev):

   -45.4674 -23.9017 -23.6719 -23.5302 -20.6402 -12.1545  -3.1084  -2.8312
    -2.5696  -2.0255  -1.0426  -0.6840   4.0541   6.1681   6.5287   7.0870
     7.5187  10.3556  10.9786  11.6916  12.5738  12.9758  13.1708  13.8129
    14.4270  14.9597

          k = 0.4375-0.1778 0.0000 (  5884 PWs)   bands (ev):

   -45.4753 -23.9385 -23.6954 -23.3808 -20.6595 -12.2942  -3.1907  -2.6805
    -2.6159  -2.2989  -0.7404   0.2429   3.4492   6.1289   6.6075   7.1830
     7.7090   9.0420   9.8750  10.9148  11.8877  12.4611  13.1509  14.5158
    14.9454  15.5768

          k = 0.4375-0.1067 0.0000 (  5883 PWs)   bands (ev):

   -45.4767 -23.9051 -23.6948 -23.4072 -20.6560 -12.3195  -3.1159  -2.7127
    -2.6274  -2.0851  -0.7694  -0.0115   3.6169   6.0300   6.4528   7.0538
     7.6147   9.0408  10.0411  11.1874  11.9822  12.4830  13.5666  14.2647
    14.9980  16.0892

          k = 0.4375-0.0356 0.0000 (  5881 PWs)   bands (ev):

   -45.4774 -23.8811 -23.6911 -23.4317 -20.6533 -12.3332  -3.0591  -2.7366
    -2.6358  -1.9038  -0.8048  -0.2276   3.7569   5.8320   6.5187   6.8664
     7.6255   9.0470  10.1512  11.4365  12.2520  12.5072  13.7337  14.2474
    14.6415  15.6695

          k =-0.5000-0.2844 0.0000 (  5882 PWs)   bands (ev):

   -45.4712 -23.9834 -23.6860 -23.3773 -20.6604 -12.2235  -3.2702  -2.7034
    -2.6170  -2.4951  -0.7060   0.3098   3.3575   6.3236   6.6503   7.2888
     8.0073   9.5378   9.8314  11.0700  11.4364  12.2818  13.1488  14.0039
    14.6231  14.9601

          k =-0.5000-0.2133 0.0000 (  5876 PWs)   bands (ev):

   -45.4712 -23.9724 -23.6857 -23.3912 -20.6581 -12.2239  -3.2382  -2.7442
    -2.6078  -2.4280  -0.7122   0.1755   3.4369   6.3225   6.6408   7.2321
     7.8657   9.6438   9.9642  11.0752  11.6237  12.3107  13.0703  14.0643
    14.6259  15.0391

          k =-0.5000-0.1422 0.0000 (  5872 PWs)   bands (ev):

   -45.4712 -23.9438 -23.6848 -23.4271 -20.6529 -12.2247  -3.1640  -2.7920
    -2.6014  -2.2778  -0.7326  -0.1464   3.6261   6.3045   6.5309   7.1408
     7.6687   9.8081  10.2077  11.3064  11.9382  12.4415  12.9743  14.0322
    14.6721  15.4228

          k =-0.5000-0.0711 0.0000 (  5881 PWs)   bands (ev):

   -45.4713 -23.9109 -23.6831 -23.4679 -20.6476 -12.2256  -3.0998  -2.8071
    -2.5984  -2.0994  -0.7844  -0.4654   3.8257   6.1039   6.5388   7.0090
     7.6276   9.9046  10.3658  11.7034  12.1381  12.6510  13.1895  13.9275
    14.6891  15.4595

          k =-0.5000-0.0000 0.0000 (  5884 PWs)   bands (ev):

   -45.4713 -23.8957 -23.6820 -23.4870 -20.6455 -12.2260  -3.0787  -2.8046
    -2.5978  -2.0017  -0.8505  -0.5750   3.9168   5.9726   6.6088   6.9055
     7.6431   9.9308  10.4276  11.7595  12.3296  12.7985  13.4768  13.9903
    14.4197  14.9737

     highest occupied, lowest unoccupied level (ev):     4.2184    5.4576

!    total energy              =    -571.23422822 Ry
     total all-electron energy =    -12610.611640 Ry
     estimated scf accuracy    <          1.6E-11 Ry

     The total energy is the sum of the following terms:
     one-electron contribution =    -277.46564759 Ry
     hartree contribution      =     147.14584117 Ry
     xc contribution           =     -36.33709845 Ry
     ewald contribution        =      -7.72301138 Ry
     one-center paw contrib.   =    -396.85431197 Ry

     convergence has been achieved in   7 iterations

     negative rho (up, down):  3.701E-05 0.000E+00

     Forces acting on atoms (cartesian axes, Ry/au):

     atom    1 type  1   force =     0.00000000    0.00006927    0.00016434
     atom    2 type  2   force =     0.00000000    0.00041904   -0.00023118
     atom    3 type  3   force =     0.00000000   -0.00048831    0.00006684
     The non-local contrib.  to forces
     atom    1 type  1   force =     0.00000000    0.00294514   -0.02504168
     atom    2 type  2   force =     0.00000000    0.02021086   -0.97893359
     atom    3 type  3   force =     0.00000000    0.00099164    0.21092402
     The ionic contribution  to forces
     atom    1 type  1   force =    -0.00000001    0.15564736   -0.47378893
     atom    2 type  2   force =     0.00000001   -0.10967346   24.24174878
     atom    3 type  3   force =     0.00000000   -0.04597391  -23.76795985
     The local contribution  to forces
     atom    1 type  1   force =    -0.00000000   -0.15839616    0.49480216
     atom    2 type  2   force =     0.00000027    0.08994376  -23.26623651
     atom    3 type  3   force =    -0.00000000    0.04436415   23.55986848
     The core correction contribution to forces
     atom    1 type  1   force =    -0.00000000   -0.00012803    0.00418012
     atom    2 type  2   force =     0.00000000   -0.00006210    0.00318465
     atom    3 type  3   force =    -0.00000000    0.00012918   -0.00276680
     The Hubbard contrib.    to forces
     atom    1 type  1   force =     0.00000000    0.00000000    0.00000000
     atom    2 type  2   force =     0.00000000    0.00000000    0.00000000
     atom    3 type  3   force =     0.00000000    0.00000000    0.00000000
     The SCF correction term to forces
     atom    1 type  1   force =     0.00000000    0.00000148    0.00000882
     atom    2 type  2   force =    -0.00000000    0.00000048    0.00000165
     atom    3 type  3   force =    -0.00000000    0.00000114   -0.00000286

     Total force =     0.000710     Total SCF correction =     0.000010
     Energy error            =      9.8E-06 Ry
     Gradient error          =      4.9E-04 Ry/Bohr

     number of scf cycles    =   5
     number of bfgs steps    =   4

     energy             old  =    -571.2342183937 Ry
     energy             new  =    -571.2342282199 Ry

     CASE: energy            _new < energy            _old

     new trust radius        =       0.0006114519 bohr
     new conv_thr            =            1.0E-10 Ry


ATOMIC_POSITIONS (angstrom)
Zr           -0.0000000000       -0.0175051695       10.1029436874
F            -0.0000000020        1.9393085923       11.4003084263
Br           -0.0000000020        1.9400043404        8.2149265993



     Writing config-only to output data dir ./tmp/ZrFBr.save/
     NEW-OLD atomic charge density approx. for the potential

     Check: negative core charge=   -0.000002

     negative rho (up, down):  3.699E-05 0.000E+00

     total cpu time spent up to now is       62.2 secs

     Self-consistent Calculation

     iteration #  1     ecut=    65.00 Ry     beta= 0.70
     Davidson diagonalization with overlap
     ethr =  1.00E-06,  avg # of iterations =  2.0

     Threshold (ethr) on eigenvalues was too large:
     Diagonalizing with lowered threshold

     Davidson diagonalization with overlap
     ethr =  9.31E-11,  avg # of iterations =  4.0

     negative rho (up, down):  3.704E-05 0.000E+00

     total cpu time spent up to now is       65.4 secs

     total energy              =    -571.23422869 Ry
     estimated scf accuracy    <       0.00000003 Ry

     iteration #  2     ecut=    65.00 Ry     beta= 0.70
     Davidson diagonalization with overlap
     ethr =  9.93E-11,  avg # of iterations =  2.0

     negative rho (up, down):  3.703E-05 0.000E+00

     total cpu time spent up to now is       66.8 secs

     total energy              =    -571.23422869 Ry
     estimated scf accuracy    <          8.6E-09 Ry

     iteration #  3     ecut=    65.00 Ry     beta= 0.70
     Davidson diagonalization with overlap
     ethr =  3.32E-11,  avg # of iterations =  2.0

     negative rho (up, down):  3.703E-05 0.000E+00

     total cpu time spent up to now is       68.2 secs

     total energy              =    -571.23422870 Ry
     estimated scf accuracy    <          8.1E-09 Ry

     iteration #  4     ecut=    65.00 Ry     beta= 0.70
     Davidson diagonalization with overlap
     ethr =  3.10E-11,  avg # of iterations =  1.0

     negative rho (up, down):  3.703E-05 0.000E+00

     total cpu time spent up to now is       69.4 secs

     total energy              =    -571.23422870 Ry
     estimated scf accuracy    <          4.8E-10 Ry

     iteration #  5     ecut=    65.00 Ry     beta= 0.70
     Davidson diagonalization with overlap
     ethr =  1.86E-12,  avg # of iterations =  2.0

     negative rho (up, down):  3.703E-05 0.000E+00

     total cpu time spent up to now is       70.7 secs

     total energy              =    -571.23422870 Ry
     estimated scf accuracy    <          1.3E-10 Ry

     iteration #  6     ecut=    65.00 Ry     beta= 0.70
     Davidson diagonalization with overlap
     ethr =  4.91E-13,  avg # of iterations =  2.0

     negative rho (up, down):  3.703E-05 0.000E+00

     total cpu time spent up to now is       72.1 secs

     End of self-consistent calculation

          k = 0.0000 0.0000 0.0000 (  5879 PWs)   bands (ev):

   -45.5269 -23.9793 -23.2620 -23.2384 -20.7590 -13.0616  -3.2235  -2.5721
    -2.5405  -1.1983   1.1483   1.2532   3.7307   5.6253   5.7477   5.7994
     6.5942   6.6695   7.8191   8.6161  11.0184  13.8494  14.3996  14.6586
    15.1983  17.0885

          k = 0.0000 0.0711 0.0000 (  5863 PWs)   bands (ev):

   -45.5249 -23.9715 -23.2905 -23.2426 -20.7510 -13.0353  -3.1910  -2.6060
    -2.5399  -1.1777   0.9341   1.2159   3.7411   5.5713   5.8404   5.8451
     6.5554   6.7189   7.9365   8.8330  11.1451  13.9002  14.0624  14.7871
    15.0621  17.2447

          k = 0.0000 0.1422 0.0000 (  5849 PWs)   bands (ev):

   -45.5193 -23.9494 -23.3694 -23.2547 -20.7306 -12.9590  -3.1033  -2.6924
    -2.5393  -1.1284   0.3942   1.1132   3.7435   5.5037   5.9451   5.9701
     6.6451   6.8490   8.2576   9.3112  11.5133  13.4371  13.8763  14.8978
    15.1690  17.3193

          k = 0.0000 0.2133 0.0000 (  5850 PWs)   bands (ev):

   -45.5108 -23.9177 -23.4804 -23.2726 -20.7055 -12.8404  -2.9979  -2.7895
    -2.5410  -1.0831  -0.2781   0.9687   3.6871   5.5140   5.9953   6.1970
     6.9676   7.0224   8.7089   9.8111  11.8908  13.0692  13.5035  15.2255
    15.7903  17.0012

          k = 0.0000 0.2844 0.0000 (  5874 PWs)   bands (ev):

   -45.5008 -23.8865 -23.5976 -23.2936 -20.6836 -12.6933  -2.9949  -2.7849
    -2.5470  -1.2066  -0.7917   0.8108   3.5715   5.6205   6.1519   6.5108
     7.2075   7.3927   9.1845  10.2261  11.7736  12.7698  13.8822  15.6547
    16.1840  16.5590

          k = 0.0000 0.3555 0.0000 (  5874 PWs)   bands (ev):

   -45.4907 -23.8789 -23.6840 -23.3146 -20.6687 -12.5370  -3.0866  -2.7023
    -2.5571  -1.7256  -0.8317   0.6647   3.4496   5.7872   6.4137   6.8628
     7.4004   7.8904   9.5446  10.5151  11.6406  12.4534  14.4374  14.9703
    16.1394  16.2408

          k = 0.0000 0.4266 0.0000 (  5870 PWs)   bands (ev):

   -45.4822 -23.9177 -23.7069 -23.3322 -20.6609 -12.3964  -3.1779  -2.6505
    -2.5687  -2.1856  -0.7871   0.5487   3.3641   5.9931   6.6393   7.1454
     7.6357   8.4796   9.6980  10.7211  11.7366  12.3610  13.4712  14.9035
    15.3672  15.7346

          k = 0.0000 0.4977 0.0000 (  5892 PWs)   bands (ev):

   -45.4765 -23.9646 -23.6990 -23.3440 -20.6581 -12.2977  -3.2504  -2.6565
    -2.5779  -2.4415  -0.7495   0.4749   3.3224   6.2085   6.7023   7.2867
     7.8836   9.1205   9.7706  10.8808  11.7236  12.2634  12.9269  14.3832
    14.6815  15.3218

          k = 0.0000-0.5688 0.0000 (  5874 PWs)   bands (ev):

   -45.4745 -23.9831 -23.6938 -23.3481 -20.6575 -12.2620  -3.2807  -2.6874
    -2.5814  -2.4980  -0.7356   0.4497   3.3112   6.3303   6.6679   7.3260
     7.9922   9.4725   9.8241  11.0496  11.3173  12.2024  13.0941  13.9321
    14.5061  15.1592

          k = 0.0625 0.0356 0.0000 (  5870 PWs)   bands (ev):

   -45.5248 -23.9711 -23.2788 -23.2558 -20.7510 -13.0341  -3.1902  -2.5902
    -2.5575  -1.1765   0.9964   1.1452   3.7452   5.6306   5.7722   5.8477
     6.5859   6.6778   7.9430   8.8417  11.1497  13.9003  14.1848  14.6120
    15.0846  17.3073

          k = 0.0625 0.1067 0.0000 (  5846 PWs)   bands (ev):

   -45.5210 -23.9561 -23.3387 -23.2577 -20.7368 -12.9828  -3.1297  -2.6595
    -2.5479  -1.1417   0.5939   1.1007   3.7534   5.5320   5.8893   5.9553
     6.5884   6.7951   8.1612   9.1813  11.4050  13.6185  13.9390  14.8210
    15.0694  17.3485

          k = 0.0625 0.1778 0.0000 (  5844 PWs)   bands (ev):

   -45.5139 -23.9291 -23.4341 -23.2722 -20.7142 -12.8852  -3.0280  -2.7565
    -2.5477  -1.0924  -0.0020   0.9650   3.7316   5.4742   6.0089   6.1146
     6.7717   6.9852   8.5478   9.6561  11.8656  13.0948  13.6284  14.9641
    15.6303  16.9471

          k = 0.0625 0.2489 0.0000 (  5858 PWs)   bands (ev):

   -45.5046 -23.8968 -23.5472 -23.2934 -20.6909 -12.7520  -2.9553  -2.8177
    -2.5543  -1.0890  -0.6186   0.7917   3.6543   5.5263   6.0850   6.4251
     7.0440   7.2705   9.0145  10.1133  12.0337  12.9244  13.4015  15.3869
    16.2647  16.5216

          k = 0.0625 0.3200 0.0000 (  5863 PWs)   bands (ev):

   -45.4946 -23.8743 -23.6494 -23.3168 -20.6728 -12.5995  -3.0254  -2.7432
    -2.5676  -1.4487  -0.8403   0.6168   3.5489   5.6876   6.2398   6.7779
     7.2763   7.7090   9.4451  10.4909  11.7939  12.5954  14.1362  15.1974
    15.8867  16.3437

          k = 0.0625 0.3911 0.0000 (  5869 PWs)   bands (ev):

   -45.4853 -23.8903 -23.7010 -23.3385 -20.6619 -12.4500  -3.1181  -2.6687
    -2.5885  -1.9508  -0.8099   0.4656   3.4622   5.9089   6.4515   7.0567
     7.5001   8.2912   9.7150  10.7584  11.7458  12.3980  14.0111  14.7814
    15.4096  16.2458

          k = 0.0625 0.4622 0.0000 (  5873 PWs)   bands (ev):

   -45.4782 -23.9379 -23.7017 -23.3551 -20.6568 -12.3290  -3.1964  -2.6607
    -2.6022  -2.2893  -0.7664   0.3556   3.4149   6.1430   6.6192   7.2059
     7.7101   8.9829   9.8327  10.9338  11.8387  12.3790  13.0641  14.5131
    14.8506  15.6321

          k = 0.0625 0.5333 0.0000 (  5872 PWs)   bands (ev):

   -45.4743 -23.9714 -23.6931 -23.3641 -20.6552 -12.2610  -3.2464  -2.7209
    -2.5946  -2.4164  -0.7401   0.2979   3.3985   6.3289   6.6611   7.2593
     7.8522   9.5681   9.9517  11.0676  11.5332  12.2317  13.0189  14.0152
    14.5471  15.1467

          k = 0.1250 0.0711 0.0000 (  5859 PWs)   bands (ev):

   -45.5187 -23.9480 -23.3559 -23.2733 -20.7304 -12.9544  -3.1006  -2.6753
    -2.5628  -1.1240   0.4552   1.0234   3.7600   5.5798   5.8575   5.9608
     6.6616   6.8060   8.2774   9.3286  11.5302  13.4947  13.9162  14.9226
    14.9943  17.3559

          k = 0.1250 0.1422 0.0000 (  5856 PWs)   bands (ev):

   -45.5135 -23.9280 -23.4278 -23.2824 -20.7140 -12.8818  -3.0261  -2.7492
    -2.5596  -1.0891   0.0308   0.9098   3.7461   5.4910   6.0007   6.0903
     6.7780   6.9649   8.5601   9.6642  11.8763  13.1212  13.6511  14.9718
    15.5580  16.9193

          k = 0.1250 0.2133 0.0000 (  5851 PWs)   bands (ev):

   -45.5057 -23.8998 -23.5217 -23.3041 -20.6935 -12.7692  -2.9307  -2.8314
    -2.5688  -1.0640  -0.4848   0.7002   3.7122   5.4584   6.1140   6.3950
     6.9273   7.2488   8.9647  10.0874  12.4196  12.7092  13.2481  15.2156
    16.1736  16.4796

          k = 0.1250 0.2844 0.0000 (  5852 PWs)   bands (ev):

   -45.4964 -23.8731 -23.6172 -23.3328 -20.6747 -12.6298  -2.9572  -2.7893
    -2.5890  -1.2366  -0.8248   0.4578   3.6632   5.5442   6.2274   6.7159
     7.1695   7.6482   9.3995  10.5231  12.2696  12.7436  13.3502  15.1457
    15.9278  16.4099

          k = 0.1250 0.3555 0.0000 (  5867 PWs)   bands (ev):

   -45.4871 -23.8690 -23.6837 -23.3628 -20.6611 -12.4824  -3.0431  -2.6996
    -2.6204  -1.6894  -0.8304   0.2311   3.6210   5.7538   6.3500   6.9329
     7.4340   8.2352   9.7616  10.9247  12.0258  12.5083  14.1160  14.4733
    15.2076  16.2604

          k = 0.1250 0.4266 0.0000 (  5872 PWs)   bands (ev):

   -45.4792 -23.9023 -23.6989 -23.3888 -20.6533 -12.3503  -3.1161  -2.6889
    -2.6256  -2.0620  -0.7886   0.0495   3.6033   6.0426   6.4585   7.0820
     7.5960   8.9851   9.9815  11.2251  11.9778  12.4491  13.4874  14.2613
    14.9413  16.0819

          k = 0.1250 0.4977 0.0000 (  5871 PWs)   bands (ev):

   -45.4739 -23.9407 -23.6909 -23.4063 -20.6499 -12.2578  -3.1665  -2.7674
    -2.5980  -2.2571  -0.7543  -0.0678   3.6057   6.3124   6.5402   7.1696
     7.6456   9.7314  10.1485  11.3590  11.9136  12.3607  12.9271  14.0339
    14.6098  15.4168

          k = 0.1250 0.5688 0.0000 (  5878 PWs)   bands (ev):

   -45.4721 -23.9558 -23.6861 -23.4125 -20.6490 -12.2245  -3.1854  -2.8100
    -2.5901  -2.3081  -0.7414  -0.1085   3.6099   6.4125   6.5968   7.1802
     7.6548   9.9437  10.5124  11.3870  11.5154  12.2518  13.0751  13.8647
    14.5823  14.9519

          k = 0.1250 0.0000 0.0000 (  5872 PWs)   bands (ev):

   -45.5206 -23.9552 -23.3256 -23.2746 -20.7366 -12.9794  -3.1278  -2.6419
    -2.5703  -1.1383   0.6404   1.0365   3.7625   5.6368   5.7749   5.9525
     6.5721   6.7867   8.1774   9.1950  11.4158  13.6800  13.9590  14.7466
    15.0096  17.3455

          k = 0.1875 0.1067 0.0000 (  5867 PWs)   bands (ev):

   -45.5097 -23.9148 -23.4699 -23.2937 -20.7055 -12.8304  -2.9928  -2.7768
    -2.5666  -1.0734  -0.2306   0.8661   3.7200   5.5525   6.0082   6.1038
     6.9593   7.0023   8.7418   9.8271  11.9077  13.1151  13.5545  15.2646
    15.6322  17.0212

          k = 0.1875 0.1778 0.0000 (  5870 PWs)   bands (ev):

   -45.5037 -23.8941 -23.5397 -23.3103 -20.6909 -12.7430  -2.9495  -2.8117
    -2.5731  -1.0768  -0.5831   0.7012   3.6867   5.5313   6.0839   6.3886
     7.0241   7.2703   9.0398  10.1205  12.0342  12.9629  13.4660  15.4249
    16.1860  16.4821

          k = 0.1875 0.2489 0.0000 (  5864 PWs)   bands (ev):

   -45.4958 -23.8714 -23.6138 -23.3418 -20.6748 -12.6243  -2.9529  -2.7893
    -2.5976  -1.2214  -0.8151   0.4087   3.6817   5.5404   6.2248   6.7082
     7.1533   7.6537   9.4126  10.5224  12.2576  12.7445  13.4213  15.1492
    15.9781  16.4255

          k = 0.1875 0.3200 0.0000 (  5877 PWs)   bands (ev):

   -45.4873 -23.8604 -23.6709 -23.3824 -20.6607 -12.4893  -3.0015  -2.7259
    -2.6340  -1.5493  -0.8394   0.0727   3.7114   5.6340   6.3976   6.8215
     7.4229   8.2256   9.7879  10.9845  12.3569  12.5995  13.6472  14.4145
    15.5562  16.0133

          k = 0.1875 0.3911 0.0000 (  5868 PWs)   bands (ev):

   -45.4794 -23.8757 -23.6918 -23.4234 -20.6506 -12.3580  -3.0544  -2.7201
    -2.6336  -1.8586  -0.8152  -0.2297   3.7662   5.8318   6.5216   6.8968
     7.5936   8.9967  10.0901  11.4369  12.2486  12.5874  13.7168  14.2266
    14.6268  15.7051

          k = 0.1875 0.4622 0.0000 (  5868 PWs)   bands (ev):

   -45.4733 -23.9047 -23.6871 -23.4564 -20.6447 -12.2526  -3.0969  -2.7856
    -2.5971  -2.0651  -0.7902  -0.4507   3.8272   6.1067   6.5290   7.0522
     7.5912   9.8387  10.2727  11.7388  12.1651  12.6723  13.1303  13.9371
    14.6468  15.5445

          k = 0.1875 0.5333 0.0000 (  5882 PWs)   bands (ev):

   -45.4701 -23.9242 -23.6796 -23.4749 -20.6422 -12.1937  -3.1205  -2.8409
    -2.5784  -2.1569  -0.7764  -0.5657   3.8682   6.3486   6.5023   7.1763
     7.4936  10.1630  10.8520  11.7299  11.9574  12.4150  13.0913  13.9740
    14.5024  15.1348

          k = 0.1875-0.0356 0.0000 (  5864 PWs)   bands (ev):

   -45.5129 -23.9266 -23.4246 -23.2909 -20.7141 -12.8765  -3.0239  -2.7432
    -2.5720  -1.0845   0.0309   0.8933   3.7525   5.5396   5.9976   6.0271
     6.7292   6.9960   8.5798   9.6724  11.8836  13.1197  13.6567  14.9491
    15.5355  16.9424

          k = 0.2500 0.1422 0.0000 (  5878 PWs)   bands (ev):

   -45.4989 -23.8819 -23.5907 -23.3170 -20.6840 -12.6762  -2.9871  -2.7782
    -2.5750  -1.1830  -0.7671   0.6960   3.6146   5.6258   6.1751   6.4324
     7.1631   7.4152   9.2268  10.2337  11.7775  12.8118  13.9708  15.7400
    16.2882  16.4212

          k = 0.2500 0.2133 0.0000 (  5886 PWs)   bands (ev):

   -45.4929 -23.8697 -23.6433 -23.3383 -20.6734 -12.5835  -3.0178  -2.7405
    -2.5908  -1.4190  -0.8227   0.5041   3.5920   5.6828   6.2418   6.7433
     7.2389   7.7279   9.4795  10.4876  11.7980  12.6316  14.2546  15.2951
    15.9015  16.3400

          k = 0.2500 0.2844 0.0000 (  5877 PWs)   bands (ev):

   -45.4858 -23.8653 -23.6796 -23.3786 -20.6617 -12.4697  -3.0375  -2.7046
    -2.6306  -1.6665  -0.8191   0.1495   3.6520   5.7481   6.3472   6.9189
     7.4137   8.2468   9.7841  10.9108  12.0247  12.5155  14.1996  14.5619
    15.2687  16.2674

          k = 0.2500 0.3555 0.0000 (  5875 PWs)   bands (ev):

   -45.4787 -23.8739 -23.6899 -23.4313 -20.6511 -12.3508  -3.0522  -2.7287
    -2.6318  -1.8482  -0.8107  -0.2680   3.7803   5.8316   6.5176   6.8925
     7.5879   9.0019  10.1016  11.4240  12.2537  12.5538  13.7310  14.3412
    14.6822  15.6341

          k = 0.2500 0.4266 0.0000 (  5876 PWs)   bands (ev):

   -45.4726 -23.8868 -23.6835 -23.4847 -20.6431 -12.2457  -3.0737  -2.7881
    -2.5960  -1.9496  -0.8545  -0.6071   3.9357   5.9723   6.5810   6.9585
     7.6016   9.8742  10.3373  11.7719  12.2836  12.9078  13.4851  14.0115
    14.4444  15.0092

          k = 0.2500 0.4977 0.0000 (  5873 PWs)   bands (ev):

   -45.4686 -23.8951 -23.6747 -23.5249 -20.6381 -12.1730  -3.1043  -2.8168
    -2.5678  -1.9896  -1.0365  -0.7027   4.0634   6.1661   6.5106   7.1187
     7.4943  10.3008  10.8572  11.7313  12.5364  13.0518  13.2093  13.8410
    14.4087  14.9763

          k = 0.2500 0.5688 0.0000 (  5864 PWs)   bands (ev):

   -45.4672 -23.8975 -23.6711 -23.5399 -20.6365 -12.1470  -3.1200  -2.8216
    -2.5572  -1.9977  -1.1311  -0.7116   4.1130   6.2883   6.4604   7.1671
     7.4357  10.2673  11.6214  11.8133  11.8705  13.0584  13.4173  13.8594
    14.4372  15.0330

          k = 0.2500-0.0711 0.0000 (  5875 PWs)   bands (ev):

   -45.5029 -23.8928 -23.5420 -23.3133 -20.6915 -12.7365  -2.9492  -2.8105
    -2.5801  -1.0753  -0.6011   0.7124   3.6835   5.5503   6.0863   6.3518
     6.9988   7.2941   9.0577  10.1248  12.0266  12.9515  13.4333  15.4026
    16.2539  16.5215

          k = 0.2500 0.0000 0.0000 (  5876 PWs)   bands (ev):

   -45.5044 -23.8969 -23.5212 -23.3153 -20.6941 -12.7573  -2.9274  -2.8274
    -2.5858  -1.0557  -0.4959   0.6802   3.7212   5.4909   6.1013   6.3420
     6.8868   7.2756   8.9992  10.0966  12.4219  12.6783  13.2474  15.2192
    16.2123  16.4894

          k = 0.3125 0.1778 0.0000 (  5884 PWs)   bands (ev):

   -45.4882 -23.8737 -23.6792 -23.3400 -20.6700 -12.5123  -3.0797  -2.6993
    -2.5879  -1.7064  -0.8109   0.5394   3.4955   5.7774   6.4335   6.8112
     7.3576   7.9222   9.5885  10.5085  11.6594  12.4988  14.5958  15.0626
    16.0744  16.2521

          k = 0.3125 0.2489 0.0000 (  5893 PWs)   bands (ev):

   -45.4829 -23.8855 -23.6957 -23.3632 -20.6632 -12.4262  -3.1105  -2.6717
    -2.6125  -1.9303  -0.7896   0.3404   3.5085   5.8988   6.4616   7.0222
     7.4685   8.3180   9.7487  10.7400  11.7718  12.4422  14.1569  14.8535
    15.4182  16.2857

          k = 0.3125 0.3200 0.0000 (  5897 PWs)   bands (ev):

   -45.4772 -23.8987 -23.6941 -23.4089 -20.6548 -12.3298  -3.1100  -2.7105
    -2.6238  -2.0484  -0.7720  -0.0483   3.6385   6.0375   6.4613   7.0611
     7.5836   9.0023  10.0071  11.1854  11.9946  12.4742  13.5986  14.2800
    15.0510  16.1273

          k = 0.3125 0.3911 0.0000 (  5878 PWs)   bands (ev):

   -45.4719 -23.9029 -23.6836 -23.4696 -20.6460 -12.2378  -3.0950  -2.7962
    -2.5968  -2.0589  -0.7855  -0.5048   3.8467   6.1140   6.5236   7.0427
     7.5859   9.8571  10.2926  11.6995  12.1409  12.6707  13.2386  13.9301
    14.7553  15.4695

          k = 0.3125 0.4622 0.0000 (  5864 PWs)   bands (ev):

   -45.4679 -23.8950 -23.6728 -23.5305 -20.6390 -12.1653  -3.1058  -2.8199
    -2.5683  -1.9880  -1.0592  -0.6997   4.0688   6.1758   6.5079   7.1141
     7.4910  10.3251  10.8601  11.7158  12.5615  13.0415  13.2259  13.7740
    14.4478  15.0002

          k = 0.3125 0.5333 0.0000 (  5865 PWs)   bands (ev):

   -45.4657 -23.8837 -23.6672 -23.5706 -20.6350 -12.1253  -3.1331  -2.7973
    -2.5468  -1.8545  -1.4136  -0.7129   4.2188   6.2463   6.4534   7.1057
     7.4718  10.2944  11.6286  11.7694  12.6434  12.8653  13.5849  13.7531
    14.5480  15.1606

          k = 0.3125-0.1067 0.0000 (  5884 PWs)   bands (ev):

   -45.4922 -23.8696 -23.6469 -23.3383 -20.6742 -12.5765  -3.0208  -2.7390
    -2.5958  -1.4404  -0.8238   0.5272   3.5806   5.6837   6.2407   6.7383
     7.2403   7.7365   9.4938  10.4903  11.7851  12.6241  14.1896  15.2926
    15.9143  16.3602

          k = 0.3125-0.0356 0.0000 (  5868 PWs)   bands (ev):

   -45.4944 -23.8697 -23.6190 -23.3459 -20.6762 -12.6107  -2.9565  -2.7862
    -2.6092  -1.2458  -0.8222   0.4291   3.6727   5.5552   6.2067   6.6920
     7.1478   7.6708   9.4436  10.5294  12.2261  12.7302  13.3558  15.1807
    16.0202  16.4517

          k = 0.3750 0.2133 0.0000 (  5903 PWs)   bands (ev):

   -45.4790 -23.9150 -23.7009 -23.3594 -20.6632 -12.3646  -3.1706  -2.6532
    -2.6020  -2.1777  -0.7618   0.4156   3.4104   5.9790   6.6481   7.1108
     7.6083   8.5226   9.7342  10.7129  11.7805  12.4245  13.5996  14.9976
    15.4762  15.5823

          k = 0.3750 0.2844 0.0000 (  5874 PWs)   bands (ev):

   -45.4752 -23.9354 -23.6951 -23.3816 -20.6591 -12.2981  -3.1877  -2.6815
    -2.6142  -2.2838  -0.7413   0.2256   3.4605   6.1281   6.6342   7.1677
     7.7015   9.0152   9.8593  10.9161  11.8931  12.4531  13.1643  14.5407
    14.9398  15.5903

          k = 0.3750 0.3555 0.0000 (  5870 PWs)   bands (ev):

   -45.4713 -23.9392 -23.6849 -23.4284 -20.6522 -12.2303  -3.1601  -2.7875
    -2.6007  -2.2598  -0.7330  -0.1685   3.6393   6.2987   6.5578   7.1403
     7.6479   9.7691  10.1642  11.3066  11.9744  12.4332  12.9751  14.0540
    14.7054  15.4312

          k = 0.3750 0.4266 0.0000 (  5865 PWs)   bands (ev):

   -45.4680 -23.9246 -23.6747 -23.4899 -20.6444 -12.1720  -3.1205  -2.8533
    -2.5803  -2.1634  -0.7808  -0.6079   3.8851   6.3544   6.5093   7.1532
     7.4980  10.2188  10.8599  11.7358  11.9615  12.3981  13.1337  14.0048
    14.5466  15.1832

          k = 0.3750 0.4977 0.0000 (  5860 PWs)   bands (ev):

   -45.4658 -23.9001 -23.6680 -23.5470 -20.6383 -12.1325  -3.1240  -2.8291
    -2.5590  -2.0100  -1.1556  -0.7000   4.1139   6.2982   6.4684   7.1576
     7.4334  10.3149  11.6023  11.8675  11.9409  12.9313  13.4002  13.8550
    14.4680  15.0697

          k = 0.3750 0.5688 0.0000 (  5866 PWs)   bands (ev):

   -45.4651 -23.8867 -23.6660 -23.5716 -20.6360 -12.1185  -3.1354  -2.8023
    -2.5480  -1.8784  -1.4029  -0.7063   4.2134   6.2460   6.4637   7.1054
     7.4701  10.3188  11.6132  11.8848  12.5950  12.8442  13.4830  13.8005
    14.5637  15.1789

          k = 0.3750-0.1422 0.0000 (  5886 PWs)   bands (ev):

   -45.4823 -23.8882 -23.6969 -23.3619 -20.6642 -12.4199  -3.1144  -2.6686
    -2.6180  -1.9529  -0.7876   0.3645   3.4945   5.8934   6.4501   7.0347
     7.4789   8.3315   9.7621  10.7413  11.7658  12.4419  14.1402  14.8122
    15.4570  16.2377

          k = 0.3750-0.0711 0.0000 (  5879 PWs)   bands (ev):

   -45.4845 -23.8681 -23.6835 -23.3782 -20.6636 -12.4564  -3.0441  -2.7002
    -2.6418  -1.7106  -0.8153   0.1878   3.6313   5.7492   6.3358   6.9143
     7.4359   8.2681   9.8126  10.9179  11.9979  12.5069  14.1300  14.5466
    15.2460  16.3110

          k = 0.3750 0.0000 0.0000 (  5874 PWs)   bands (ev):

   -45.4853 -23.8613 -23.6749 -23.3878 -20.6631 -12.4691  -3.0072  -2.7247
    -2.6484  -1.5942  -0.8317   0.0895   3.6995   5.6410   6.3750   6.8129
     7.4397   8.2526   9.8310  10.9932  12.3336  12.5373  13.6117  14.4463
    15.5819  16.0619

          k = 0.4375 0.2489 0.0000 (  5875 PWs)   bands (ev):

   -45.4729 -23.9641 -23.6913 -23.3723 -20.6611 -12.2606  -3.2414  -2.6681
    -2.6132  -2.4384  -0.7206   0.3371   3.3689   6.1966   6.6961   7.2515
     7.8856   9.1731   9.7997  10.8878  11.8096  12.3597  12.9890  14.4630
    14.7977  15.1341

          k = 0.4375 0.3200 0.0000 (  5870 PWs)   bands (ev):

   -45.4709 -23.9711 -23.6854 -23.3912 -20.6583 -12.2250  -3.2372  -2.7438
    -2.6079  -2.4236  -0.7121   0.1695   3.4414   6.3159   6.6608   7.2244
     7.8652   9.6210   9.9587  11.0710  11.6448  12.3060  13.0598  14.0813
    14.6530  15.0189

          k = 0.4375 0.3911 0.0000 (  5873 PWs)   bands (ev):

   -45.4690 -23.9570 -23.6792 -23.4345 -20.6521 -12.1923  -3.1804  -2.8322
    -2.5949  -2.3225  -0.7183  -0.2014   3.6380   6.4025   6.6006   7.1519
     7.6712  10.0143  10.5153  11.4304  11.5296  12.2948  13.1096  13.9261
    14.6526  14.9199

          k = 0.4375 0.4622 0.0000 (  5868 PWs)   bands (ev):

   -45.4676 -23.9279 -23.6742 -23.4888 -20.6452 -12.1674  -3.1224  -2.8591
    -2.5811  -2.1773  -0.7812  -0.5913   3.8770   6.3454   6.5160   7.1400
     7.5190  10.2341  10.9467  11.7276  11.8998  12.3929  13.1423  14.0029
    14.5262  15.1556

          k = 0.4375 0.5333 0.0000 (  5865 PWs)   bands (ev):

   -45.4669 -23.9017 -23.6715 -23.5297 -20.6407 -12.1540  -3.1092  -2.8317
    -2.5702  -2.0253  -1.0421  -0.6834   4.0543   6.1684   6.5293   7.0875
     7.5192  10.3562  10.9788  11.6922  12.5738  12.9759  13.1710  13.8127
    14.4270  14.9594

          k = 0.4375-0.1778 0.0000 (  5884 PWs)   bands (ev):

   -45.4748 -23.9385 -23.6949 -23.3804 -20.6599 -12.2937  -3.1914  -2.6810
    -2.6166  -2.2988  -0.7399   0.2433   3.4496   6.1291   6.6080   7.1836
     7.7092   9.0425   9.8754  10.9150  11.8880  12.4611  13.1508  14.5159
    14.9455  15.5774

          k = 0.4375-0.1067 0.0000 (  5883 PWs)   bands (ev):

   -45.4762 -23.9051 -23.6943 -23.4067 -20.6565 -12.3190  -3.1167  -2.7132
    -2.6280  -2.0849  -0.7688  -0.0111   3.6173   6.0303   6.4534   7.0544
     7.6150   9.0411  10.0418  11.1874  11.9826  12.4832  13.5666  14.2647
    14.9982  16.0898

          k = 0.4375-0.0356 0.0000 (  5881 PWs)   bands (ev):

   -45.4770 -23.8811 -23.6907 -23.4312 -20.6537 -12.3327  -3.0599  -2.7372
    -2.6364  -1.9034  -0.8043  -0.2272   3.7572   5.8325   6.5192   6.8668
     7.6258   9.0472  10.1520  11.4365  12.2523  12.5075  13.7340  14.2478
    14.6414  15.6694

          k =-0.5000-0.2844 0.0000 (  5882 PWs)   bands (ev):

   -45.4708 -23.9833 -23.6855 -23.3768 -20.6608 -12.2231  -3.2708  -2.7035
    -2.6177  -2.4953  -0.7054   0.3102   3.3580   6.3240   6.6505   7.2893
     8.0077   9.5387   9.8317  11.0701  11.4363  12.2820  13.1488  14.0038
    14.6231  14.9610

          k =-0.5000-0.2133 0.0000 (  5876 PWs)   bands (ev):

   -45.4708 -23.9724 -23.6853 -23.3907 -20.6586 -12.2234  -3.2388  -2.7444
    -2.6084  -2.4281  -0.7117   0.1760   3.4373   6.3228   6.6411   7.2327
     7.8661   9.6446   9.9645  11.0754  11.6237  12.3109  13.0704  14.0641
    14.6258  15.0398

          k =-0.5000-0.1422 0.0000 (  5872 PWs)   bands (ev):

   -45.4708 -23.9437 -23.6844 -23.4267 -20.6533 -12.2243  -3.1647  -2.7923
    -2.6020  -2.2777  -0.7320  -0.1459   3.6264   6.3047   6.5314   7.1414
     7.6689   9.8086  10.2082  11.3066  11.9386  12.4415  12.9743  14.0320
    14.6720  15.4233

          k =-0.5000-0.0711 0.0000 (  5881 PWs)   bands (ev):

   -45.4708 -23.9109 -23.6827 -23.4675 -20.6481 -12.2251  -3.1006  -2.8075
    -2.5990  -2.0992  -0.7839  -0.4649   3.8260   6.1043   6.5393   7.0095
     7.6279   9.9047  10.3666  11.7037  12.1384  12.6513  13.1894  13.9273
    14.6892  15.4594

          k =-0.5000-0.0000 0.0000 (  5884 PWs)   bands (ev):

   -45.4708 -23.8956 -23.6816 -23.4865 -20.6459 -12.2255  -3.0795  -2.8051
    -2.5983  -2.0014  -0.8500  -0.5745   3.9170   5.9731   6.6094   6.9059
     7.6434   9.9308  10.4286  11.7601  12.3295  12.7991  13.4768  13.9901
    14.4201  14.9734

     highest occupied, lowest unoccupied level (ev):     4.2188    5.4584

!    total energy              =    -571.23422870 Ry
     total all-electron energy =    -12610.611640 Ry
     estimated scf accuracy    <          6.4E-12 Ry

     The total energy is the sum of the following terms:
     one-electron contribution =    -277.48803440 Ry
     hartree contribution      =     147.15716701 Ry
     xc contribution           =     -36.33719267 Ry
     ewald contribution        =      -7.71185438 Ry
     one-center paw contrib.   =    -396.85431426 Ry

     convergence has been achieved in   6 iterations

     negative rho (up, down):  3.703E-05 0.000E+00

     Forces acting on atoms (cartesian axes, Ry/au):

     atom    1 type  1   force =     0.00000000    0.00007904    0.00008150
     atom    2 type  2   force =     0.00000000    0.00038134   -0.00014941
     atom    3 type  3   force =     0.00000000   -0.00046038    0.00006791
     The non-local contrib.  to forces
     atom    1 type  1   force =     0.00000000    0.00297050   -0.02501665
     atom    2 type  2   force =     0.00000000    0.02040885   -0.97864030
     atom    3 type  3   force =     0.00000000    0.00100289    0.21091441
     The ionic contribution  to forces
     atom    1 type  1   force =    -0.00000001    0.15693819   -0.47328854
     atom    2 type  2   force =     0.00000001   -0.11111134   24.24212635
     atom    3 type  3   force =     0.00000000   -0.04582686  -23.76883782
     The local contribution  to forces
     atom    1 type  1   force =    -0.00000000   -0.15970187    0.49421022
     atom    2 type  2   force =     0.00000027    0.09114622  -23.26682052
     atom    3 type  3   force =    -0.00000000    0.04423547   23.56074973
     The core correction contribution to forces
     atom    1 type  1   force =    -0.00000000   -0.00012779    0.00417885
     atom    2 type  2   force =     0.00000000   -0.00006257    0.00318340
     atom    3 type  3   force =    -0.00000000    0.00012790   -0.00276665
     The Hubbard contrib.    to forces
     atom    1 type  1   force =     0.00000000    0.00000000    0.00000000
     atom    2 type  2   force =     0.00000000    0.00000000    0.00000000
     atom    3 type  3   force =     0.00000000    0.00000000    0.00000000
     The SCF correction term to forces
     atom    1 type  1   force =     0.00000000   -0.00000010   -0.00000616
     atom    2 type  2   force =     0.00000000    0.00000006   -0.00000211
     atom    3 type  3   force =    -0.00000000    0.00000011    0.00000447

     Total force =     0.000630     Total SCF correction =     0.000008
     Energy error            =      4.8E-07 Ry
     Gradient error          =      4.6E-04 Ry/Bohr

     number of scf cycles    =   6
     number of bfgs steps    =   5

     energy             old  =    -571.2342282199 Ry
     energy             new  =    -571.2342286973 Ry

     CASE: energy            _new < energy            _old


     WARNING: bfgs curvature condition failed, Theta= 0.927
     new trust radius        =       0.0006725971 bohr
     new conv_thr            =            1.0E-10 Ry


ATOMIC_POSITIONS (angstrom)
Zr            0.0000000000       -0.0175256486       10.1030119582
F            -0.0000000020        1.9396318235       11.4001594203
Br           -0.0000000020        1.9397015882        8.2150073345



     Writing config-only to output data dir ./tmp/ZrFBr.save/
     NEW-OLD atomic charge density approx. for the potential

     Check: negative core charge=   -0.000002

     negative rho (up, down):  3.702E-05 0.000E+00

     total cpu time spent up to now is       72.5 secs

     Self-consistent Calculation

     iteration #  1     ecut=    65.00 Ry     beta= 0.70
     Davidson diagonalization with overlap
     ethr =  1.00E-06,  avg # of iterations =  2.0

     Threshold (ethr) on eigenvalues was too large:
     Diagonalizing with lowered threshold

     Davidson diagonalization with overlap
     ethr =  1.09E-10,  avg # of iterations =  4.0

     negative rho (up, down):  3.706E-05 0.000E+00

     total cpu time spent up to now is       75.6 secs

     total energy              =    -571.23422921 Ry
     estimated scf accuracy    <       0.00000003 Ry

     iteration #  2     ecut=    65.00 Ry     beta= 0.70
     Davidson diagonalization with overlap
     ethr =  1.13E-10,  avg # of iterations =  2.0

     negative rho (up, down):  3.705E-05 0.000E+00

     total cpu time spent up to now is       77.0 secs

     total energy              =    -571.23422921 Ry
     estimated scf accuracy    <          8.3E-09 Ry

     iteration #  3     ecut=    65.00 Ry     beta= 0.70
     Davidson diagonalization with overlap
     ethr =  3.21E-11,  avg # of iterations =  2.0

     negative rho (up, down):  3.705E-05 0.000E+00

     total cpu time spent up to now is       78.4 secs

     total energy              =    -571.23422921 Ry
     estimated scf accuracy    <       0.00000001 Ry

     iteration #  4     ecut=    65.00 Ry     beta= 0.70
     Davidson diagonalization with overlap
     ethr =  3.21E-11,  avg # of iterations =  1.0

     negative rho (up, down):  3.706E-05 0.000E+00

     total cpu time spent up to now is       79.6 secs

     total energy              =    -571.23422921 Ry
     estimated scf accuracy    <          4.9E-10 Ry

     iteration #  5     ecut=    65.00 Ry     beta= 0.70
     Davidson diagonalization with overlap
     ethr =  1.88E-12,  avg # of iterations =  2.0

     negative rho (up, down):  3.706E-05 0.000E+00

     total cpu time spent up to now is       80.9 secs

     total energy              =    -571.23422921 Ry
     estimated scf accuracy    <          1.2E-10 Ry

     iteration #  6     ecut=    65.00 Ry     beta= 0.70
     Davidson diagonalization with overlap
     ethr =  4.75E-13,  avg # of iterations =  2.0

     negative rho (up, down):  3.706E-05 0.000E+00

     total cpu time spent up to now is       82.3 secs

     End of self-consistent calculation

          k = 0.0000 0.0000 0.0000 (  5879 PWs)   bands (ev):

   -45.5265 -23.9791 -23.2615 -23.2380 -20.7595 -13.0612  -3.2240  -2.5728
    -2.5416  -1.1981   1.1485   1.2538   3.7315   5.6260   5.7477   5.8000
     6.5945   6.6701   7.8191   8.6160  11.0186  13.8492  14.3997  14.6592
    15.1986  17.0893

          k = 0.0000 0.0711 0.0000 (  5863 PWs)   bands (ev):

   -45.5245 -23.9712 -23.2901 -23.2423 -20.7515 -13.0349  -3.1914  -2.6066
    -2.5411  -1.1775   0.9344   1.2164   3.7419   5.5719   5.8410   5.8451
     6.5557   6.7194   7.9365   8.8330  11.1452  13.9000  14.0627  14.7877
    15.0624  17.2454

          k = 0.0000 0.1422 0.0000 (  5849 PWs)   bands (ev):

   -45.5188 -23.9491 -23.3689 -23.2543 -20.7311 -12.9586  -3.1038  -2.6930
    -2.5404  -1.1282   0.3945   1.1137   3.7443   5.5045   5.9451   5.9706
     6.6453   6.8497   8.2576   9.3111  11.5135  13.4374  13.8764  14.8978
    15.1696  17.3197

          k = 0.0000 0.2133 0.0000 (  5850 PWs)   bands (ev):

   -45.5103 -23.9175 -23.4800 -23.2722 -20.7060 -12.8401  -2.9985  -2.7901
    -2.5421  -1.0828  -0.2778   0.9692   3.6880   5.5148   5.9953   6.1974
     6.9676   7.0231   8.7091   9.8111  11.8909  13.0694  13.5038  15.2254
    15.7909  17.0014

          k = 0.0000 0.2844 0.0000 (  5874 PWs)   bands (ev):

   -45.5003 -23.8863 -23.5972 -23.2932 -20.6840 -12.6929  -2.9956  -2.7854
    -2.5481  -1.2064  -0.7913   0.8114   3.5723   5.6213   6.1520   6.5111
     7.2084   7.3927   9.1847  10.2261  11.7737  12.7697  13.8826  15.6545
    16.1839  16.5595

          k = 0.0000 0.3555 0.0000 (  5874 PWs)   bands (ev):

   -45.4903 -23.8787 -23.6836 -23.3142 -20.6691 -12.5366  -3.0872  -2.7029
    -2.5582  -1.7253  -0.8313   0.6652   3.4504   5.7878   6.4139   6.8630
     7.4014   7.8905   9.5450  10.5152  11.6406  12.4532  14.4378  14.9699
    16.1397  16.2412

          k = 0.0000 0.4266 0.0000 (  5870 PWs)   bands (ev):

   -45.4817 -23.9175 -23.7065 -23.3318 -20.6614 -12.3960  -3.1785  -2.6511
    -2.5698  -2.1852  -0.7868   0.5493   3.3650   5.9936   6.6396   7.1457
     7.6367   8.4799   9.6984  10.7212  11.7364  12.3609  13.4710  14.9034
    15.3676  15.7350

          k = 0.0000 0.4977 0.0000 (  5892 PWs)   bands (ev):

   -45.4760 -23.9644 -23.6986 -23.3436 -20.6585 -12.2973  -3.2510  -2.6570
    -2.5790  -2.4414  -0.7492   0.4755   3.3232   6.2091   6.7027   7.2871
     7.8845   9.1211   9.7708  10.8809  11.7235  12.2633  12.9266  14.3832
    14.6816  15.3222

          k = 0.0000-0.5688 0.0000 (  5874 PWs)   bands (ev):

   -45.4740 -23.9828 -23.6934 -23.3477 -20.6580 -12.2616  -3.2812  -2.6876
    -2.5825  -2.4981  -0.7352   0.4502   3.3120   6.3309   6.6682   7.3264
     7.9931   9.4732   9.8243  11.0498  11.3168  12.2021  13.0940  13.9321
    14.5061  15.1596

          k = 0.0625 0.0356 0.0000 (  5870 PWs)   bands (ev):

   -45.5243 -23.9709 -23.2784 -23.2554 -20.7515 -13.0337  -3.1906  -2.5910
    -2.5585  -1.1762   0.9968   1.1456   3.7459   5.6313   5.7727   5.8477
     6.5863   6.6783   7.9430   8.8417  11.1499  13.9002  14.1852  14.6124
    15.0849  17.3079

          k = 0.0625 0.1067 0.0000 (  5846 PWs)   bands (ev):

   -45.5205 -23.9559 -23.3383 -23.2573 -20.7372 -12.9824  -3.1302  -2.6603
    -2.5489  -1.1414   0.5942   1.1012   3.7541   5.5327   5.8896   5.9555
     6.5887   6.7957   8.1612   9.1812  11.4052  13.6188  13.9389  14.8211
    15.0699  17.3488

          k = 0.0625 0.1778 0.0000 (  5844 PWs)   bands (ev):

   -45.5134 -23.9288 -23.4337 -23.2718 -20.7146 -12.8848  -3.0285  -2.7572
    -2.5488  -1.0922  -0.0017   0.9655   3.7324   5.4750   6.0089   6.1150
     6.7719   6.9857   8.5478   9.6560  11.8657  13.0952  13.6286  14.9640
    15.6308  16.9474

          k = 0.0625 0.2489 0.0000 (  5858 PWs)   bands (ev):

   -45.5042 -23.8966 -23.5468 -23.2930 -20.6914 -12.7516  -2.9560  -2.8183
    -2.5554  -1.0888  -0.6182   0.7922   3.6551   5.5271   6.0852   6.4254
     7.0447   7.2707   9.0147  10.1133  12.0338  12.9244  13.4019  15.3868
    16.2651  16.5220

          k = 0.0625 0.3200 0.0000 (  5863 PWs)   bands (ev):

   -45.4942 -23.8741 -23.6490 -23.3164 -20.6733 -12.5992  -3.0261  -2.7438
    -2.5687  -1.4484  -0.8399   0.6173   3.5497   5.6882   6.2400   6.7781
     7.2773   7.7090   9.4454  10.4909  11.7939  12.5952  14.1366  15.1973
    15.8869  16.3438

          k = 0.0625 0.3911 0.0000 (  5869 PWs)   bands (ev):

   -45.4849 -23.8901 -23.7006 -23.3381 -20.6623 -12.4496  -3.1187  -2.6693
    -2.5895  -1.9504  -0.8095   0.4661   3.4630   5.9095   6.4518   7.0570
     7.5011   8.2914   9.7154  10.7584  11.7457  12.3978  14.0110  14.7813
    15.4099  16.2461

          k = 0.0625 0.4622 0.0000 (  5873 PWs)   bands (ev):

   -45.4777 -23.9377 -23.7013 -23.3547 -20.6573 -12.3287  -3.1970  -2.6614
    -2.6031  -2.2891  -0.7660   0.3561   3.4157   6.1435   6.6195   7.2063
     7.7110   8.9833   9.8329  10.9339  11.8386  12.3790  13.0638  14.5133
    14.8507  15.6324

          k = 0.0625 0.5333 0.0000 (  5872 PWs)   bands (ev):

   -45.4739 -23.9712 -23.6927 -23.3638 -20.6557 -12.2606  -3.2470  -2.7213
    -2.5954  -2.4165  -0.7398   0.2984   3.3994   6.3295   6.6613   7.2597
     7.8530   9.5688   9.9518  11.0677  11.5331  12.2315  13.0187  14.0152
    14.5472  15.1470

          k = 0.1250 0.0711 0.0000 (  5859 PWs)   bands (ev):

   -45.5183 -23.9478 -23.3556 -23.2729 -20.7308 -12.9540  -3.1011  -2.6763
    -2.5636  -1.1236   0.4555   1.0237   3.7607   5.5805   5.8579   5.9611
     6.6620   6.8064   8.2773   9.3285  11.5305  13.4951  13.9163  14.9227
    14.9947  17.3557

          k = 0.1250 0.1422 0.0000 (  5856 PWs)   bands (ev):

   -45.5131 -23.9278 -23.4274 -23.2820 -20.7145 -12.8814  -3.0265  -2.7500
    -2.5606  -1.0888   0.0311   0.9102   3.7468   5.4918   6.0008   6.0910
     6.7781   6.9654   8.5602   9.6641  11.8766  13.1215  13.6513  14.9717
    15.5585  16.9196

          k = 0.1250 0.2133 0.0000 (  5851 PWs)   bands (ev):

   -45.5052 -23.8995 -23.5213 -23.3037 -20.6940 -12.7688  -2.9313  -2.8321
    -2.5697  -1.0637  -0.4844   0.7007   3.7128   5.4592   6.1143   6.3953
     6.9278   7.2491   8.9648  10.0873  12.4199  12.7095  13.2483  15.2155
    16.1740  16.4802

          k = 0.1250 0.2844 0.0000 (  5852 PWs)   bands (ev):

   -45.4959 -23.8729 -23.6168 -23.3324 -20.6751 -12.6295  -2.9579  -2.7899
    -2.5900  -1.2363  -0.8244   0.4583   3.6639   5.5449   6.2277   6.7161
     7.1704   7.6482   9.3997  10.5231  12.2698  12.7436  13.3506  15.1459
    15.9280  16.4097

          k = 0.1250 0.3555 0.0000 (  5867 PWs)   bands (ev):

   -45.4867 -23.8688 -23.6833 -23.3625 -20.6615 -12.4820  -3.0438  -2.7003
    -2.6214  -1.6891  -0.8300   0.2316   3.6218   5.7545   6.3503   6.9333
     7.4348   8.2352   9.7619  10.9247  12.0259  12.5082  14.1163  14.4735
    15.2076  16.2605

          k = 0.1250 0.4266 0.0000 (  5872 PWs)   bands (ev):

   -45.4788 -23.9021 -23.6985 -23.3884 -20.6537 -12.3499  -3.1167  -2.6898
    -2.6262  -2.0617  -0.7882   0.0499   3.6041   6.0432   6.4588   7.0825
     7.5968   8.9853   9.9818  11.2252  11.9778  12.4490  13.4873  14.2615
    14.9413  16.0821

          k = 0.1250 0.4977 0.0000 (  5871 PWs)   bands (ev):

   -45.4735 -23.9404 -23.6906 -23.4060 -20.6503 -12.2575  -3.1671  -2.7681
    -2.5987  -2.2571  -0.7539  -0.0674   3.6065   6.3131   6.5404   7.1701
     7.6465   9.7318  10.1486  11.3591  11.9138  12.3608  12.9267  14.0342
    14.6098  15.4170

          k = 0.1250 0.5688 0.0000 (  5878 PWs)   bands (ev):

   -45.4716 -23.9556 -23.6857 -23.4122 -20.6494 -12.2242  -3.1860  -2.8105
    -2.5907  -2.3081  -0.7410  -0.1080   3.6107   6.4132   6.5969   7.1807
     7.6557   9.9440  10.5127  11.3870  11.5155  12.2519  13.0747  13.8649
    14.5824  14.9520

          k = 0.1250 0.0000 0.0000 (  5872 PWs)   bands (ev):

   -45.5201 -23.9549 -23.3253 -23.2741 -20.7371 -12.9790  -3.1282  -2.6430
    -2.5709  -1.1380   0.6408   1.0366   3.7632   5.6373   5.7757   5.9525
     6.5727   6.7870   8.1774   9.1949  11.4161  13.6804  13.9591  14.7471
    15.0096  17.3460

          k = 0.1875 0.1067 0.0000 (  5867 PWs)   bands (ev):

   -45.5092 -23.9146 -23.4696 -23.2932 -20.7059 -12.8300  -2.9933  -2.7777
    -2.5674  -1.0730  -0.2303   0.8664   3.7205   5.5530   6.0085   6.1046
     6.9597   7.0024   8.7419   9.8270  11.9082  13.1154  13.5549  15.2646
    15.6325  17.0210

          k = 0.1875 0.1778 0.0000 (  5870 PWs)   bands (ev):

   -45.5032 -23.8939 -23.5393 -23.3098 -20.6914 -12.7426  -2.9502  -2.8124
    -2.5739  -1.0764  -0.5828   0.7015   3.6871   5.5319   6.0845   6.3890
     7.0245   7.2705   9.0399  10.1204  12.0345  12.9632  13.4663  15.4247
    16.1863  16.4826

          k = 0.1875 0.2489 0.0000 (  5864 PWs)   bands (ev):

   -45.4953 -23.8712 -23.6135 -23.3414 -20.6752 -12.6239  -2.9537  -2.7898
    -2.5984  -1.2210  -0.8148   0.4091   3.6822   5.5411   6.2254   6.7084
     7.1540   7.6537   9.4128  10.5223  12.2579  12.7449  13.4216  15.1494
    15.9781  16.4254

          k = 0.1875 0.3200 0.0000 (  5877 PWs)   bands (ev):

   -45.4868 -23.8602 -23.6705 -23.3820 -20.6611 -12.4889  -3.0022  -2.7265
    -2.6348  -1.5489  -0.8390   0.0731   3.7120   5.6347   6.3980   6.8220
     7.4236   8.2256   9.7881  10.9844  12.3570  12.5997  13.6475  14.4149
    15.5560  16.0133

          k = 0.1875 0.3911 0.0000 (  5868 PWs)   bands (ev):

   -45.4789 -23.8755 -23.6914 -23.4230 -20.6510 -12.3576  -3.0551  -2.7210
    -2.6342  -1.8583  -0.8148  -0.2293   3.7668   5.8325   6.5219   6.8975
     7.5941   8.9967  10.0903  11.4369  12.2487  12.5874  13.7172  14.2269
    14.6266  15.7050

          k = 0.1875 0.4622 0.0000 (  5868 PWs)   bands (ev):

   -45.4729 -23.9045 -23.6867 -23.4561 -20.6451 -12.2523  -3.0975  -2.7864
    -2.5977  -2.0648  -0.7897  -0.4504   3.8278   6.1073   6.5293   7.0529
     7.5918   9.8388  10.2729  11.7388  12.1654  12.6724  13.1301  13.9373
    14.6467  15.5443

          k = 0.1875 0.5333 0.0000 (  5882 PWs)   bands (ev):

   -45.4696 -23.9240 -23.6792 -23.4745 -20.6426 -12.1934  -3.1211  -2.8415
    -2.5790  -2.1568  -0.7760  -0.5654   3.8688   6.3492   6.5026   7.1769
     7.4943  10.1631  10.8520  11.7298  11.9578  12.4154  13.0907  13.9743
    14.5024  15.1348

          k = 0.1875-0.0356 0.0000 (  5864 PWs)   bands (ev):

   -45.5125 -23.9264 -23.4242 -23.2904 -20.7146 -12.8761  -3.0244  -2.7442
    -2.5727  -1.0841   0.0313   0.8935   3.7530   5.5400   5.9979   6.0279
     6.7299   6.9962   8.5798   9.6722  11.8840  13.1201  13.6570  14.9493
    15.5354  16.9426

          k = 0.2500 0.1422 0.0000 (  5878 PWs)   bands (ev):

   -45.4985 -23.8817 -23.5904 -23.3165 -20.6844 -12.6759  -2.9879  -2.7788
    -2.5757  -1.1825  -0.7668   0.6963   3.6150   5.6261   6.1759   6.4330
     7.1636   7.4151   9.2269  10.2335  11.7779  12.8122  13.9711  15.7400
    16.2880  16.4215

          k = 0.2500 0.2133 0.0000 (  5886 PWs)   bands (ev):

   -45.4925 -23.8695 -23.6430 -23.3379 -20.6738 -12.5831  -3.0186  -2.7411
    -2.5916  -1.4186  -0.8224   0.5044   3.5924   5.6832   6.2428   6.7437
     7.2395   7.7278   9.4796  10.4874  11.7983  12.6320  14.2548  15.2951
    15.9013  16.3402

          k = 0.2500 0.2844 0.0000 (  5877 PWs)   bands (ev):

   -45.4854 -23.8652 -23.6792 -23.3782 -20.6621 -12.4693  -3.0382  -2.7051
    -2.6314  -1.6661  -0.8187   0.1499   3.6524   5.7486   6.3480   6.9192
     7.4143   8.2467   9.7843  10.9108  12.0249  12.5158  14.2000  14.5621
    15.2686  16.2676

          k = 0.2500 0.3555 0.0000 (  5875 PWs)   bands (ev):

   -45.4782 -23.8737 -23.6895 -23.4309 -20.6515 -12.3505  -3.0529  -2.7294
    -2.6324  -1.8479  -0.8104  -0.2676   3.7808   5.8322   6.5181   6.8931
     7.5884   9.0018  10.1018  11.4240  12.2537  12.5541  13.7315  14.3413
    14.6821  15.6340

          k = 0.2500 0.4266 0.0000 (  5876 PWs)   bands (ev):

   -45.4722 -23.8867 -23.6831 -23.4843 -20.6435 -12.2453  -3.0744  -2.7888
    -2.5966  -1.9493  -0.8541  -0.6067   3.9361   5.9729   6.5814   6.9593
     7.6020   9.8741  10.3375  11.7721  12.2836  12.9081  13.4855  14.0113
    14.4446  15.0090

          k = 0.2500 0.4977 0.0000 (  5873 PWs)   bands (ev):

   -45.4681 -23.8949 -23.6743 -23.5245 -20.6385 -12.1726  -3.1050  -2.8174
    -2.5684  -1.9893  -1.0361  -0.7023   4.0639   6.1665   6.5111   7.1195
     7.4948  10.3009  10.8571  11.7318  12.5363  13.0518  13.2094  13.8411
    14.4088  14.9761

          k = 0.2500 0.5688 0.0000 (  5864 PWs)   bands (ev):

   -45.4667 -23.8974 -23.6707 -23.5396 -20.6369 -12.1466  -3.1206  -2.8222
    -2.5578  -1.9974  -1.1307  -0.7112   4.1135   6.2886   6.4608   7.1681
     7.4362  10.2674  11.6220  11.8130  11.8706  13.0585  13.4171  13.8596
    14.4371  15.0337

          k = 0.2500-0.0711 0.0000 (  5875 PWs)   bands (ev):

   -45.5025 -23.8925 -23.5417 -23.3128 -20.6919 -12.7361  -2.9499  -2.8112
    -2.5807  -1.0748  -0.6007   0.7126   3.6839   5.5507   6.0866   6.3528
     6.9995   7.2939   9.0578  10.1246  12.0270  12.9519  13.4336  15.4028
    16.2541  16.5213

          k = 0.2500 0.0000 0.0000 (  5876 PWs)   bands (ev):

   -45.5039 -23.8967 -23.5209 -23.3148 -20.6946 -12.7569  -2.9279  -2.8283
    -2.5864  -1.0552  -0.4956   0.6804   3.7216   5.4914   6.1013   6.3431
     6.8876   7.2755   8.9992  10.0964  12.4223  12.6788  13.2477  15.2194
    16.2126  16.4890

          k = 0.3125 0.1778 0.0000 (  5884 PWs)   bands (ev):

   -45.4877 -23.8735 -23.6789 -23.3396 -20.6704 -12.5120  -3.0804  -2.6998
    -2.5886  -1.7061  -0.8105   0.5396   3.4959   5.7775   6.4344   6.8117
     7.3581   7.9221   9.5887  10.5084  11.6597  12.4992  14.5957  15.0627
    16.0748  16.2524

          k = 0.3125 0.2489 0.0000 (  5893 PWs)   bands (ev):

   -45.4825 -23.8853 -23.6953 -23.3627 -20.6636 -12.4258  -3.1112  -2.6722
    -2.6132  -1.9300  -0.7892   0.3407   3.5089   5.8989   6.4627   7.0223
     7.4693   8.3179   9.7489  10.7400  11.7720  12.4426  14.1567  14.8537
    15.4186  16.2860

          k = 0.3125 0.3200 0.0000 (  5897 PWs)   bands (ev):

   -45.4768 -23.8986 -23.6937 -23.4085 -20.6551 -12.3294  -3.1107  -2.7111
    -2.6243  -2.0481  -0.7716  -0.0480   3.6389   6.0377   6.4623   7.0614
     7.5843   9.0023  10.0073  11.1855  11.9947  12.4745  13.5986  14.2803
    15.0513  16.1274

          k = 0.3125 0.3911 0.0000 (  5878 PWs)   bands (ev):

   -45.4715 -23.9028 -23.6832 -23.4692 -20.6464 -12.2374  -3.0957  -2.7967
    -2.5973  -2.0587  -0.7852  -0.5044   3.8470   6.1144   6.5242   7.0432
     7.5865   9.8570  10.2929  11.6997  12.1410  12.6709  13.2386  13.9303
    14.7555  15.4695

          k = 0.3125 0.4622 0.0000 (  5864 PWs)   bands (ev):

   -45.4674 -23.8949 -23.6724 -23.5301 -20.6393 -12.1649  -3.1065  -2.8204
    -2.5688  -1.9878  -1.0588  -0.6993   4.0691   6.1762   6.5085   7.1148
     7.4915  10.3254  10.8601  11.7162  12.5615  13.0413  13.2263  13.7741
    14.4478  15.0003

          k = 0.3125 0.5333 0.0000 (  5865 PWs)   bands (ev):

   -45.4652 -23.8836 -23.6668 -23.5702 -20.6354 -12.1249  -3.1337  -2.7979
    -2.5473  -1.8542  -1.4133  -0.7125   4.2191   6.2465   6.4540   7.1067
     7.4721  10.2948  11.6291  11.7693  12.6432  12.8650  13.5852  13.7535
    14.5481  15.1606

          k = 0.3125-0.1067 0.0000 (  5884 PWs)   bands (ev):

   -45.4918 -23.8694 -23.6466 -23.3378 -20.6746 -12.5762  -3.0216  -2.7395
    -2.5964  -1.4400  -0.8235   0.5274   3.5809   5.6840   6.2412   6.7391
     7.2409   7.7364   9.4940  10.4901  11.7854  12.6245  14.1899  15.2926
    15.9146  16.3602

          k = 0.3125-0.0356 0.0000 (  5868 PWs)   bands (ev):

   -45.4939 -23.8695 -23.6187 -23.3455 -20.6766 -12.6103  -2.9573  -2.7867
    -2.6098  -1.2454  -0.8218   0.4293   3.6730   5.5558   6.2068   6.6928
     7.1486   7.6707   9.4438  10.5291  12.2265  12.7306  13.3563  15.1808
    16.0203  16.4517

          k = 0.3750 0.2133 0.0000 (  5903 PWs)   bands (ev):

   -45.4786 -23.9149 -23.7005 -23.3590 -20.6636 -12.3642  -3.1712  -2.6536
    -2.6027  -2.1774  -0.7613   0.4159   3.4107   5.9791   6.6489   7.1112
     7.6088   8.5228   9.7345  10.7130  11.7808  12.4247  13.5994  14.9976
    15.4766  15.5827

          k = 0.3750 0.2844 0.0000 (  5874 PWs)   bands (ev):

   -45.4747 -23.9353 -23.6947 -23.3812 -20.6595 -12.2977  -3.1884  -2.6820
    -2.6147  -2.2837  -0.7409   0.2259   3.4609   6.1281   6.6350   7.1679
     7.7023   9.0154   9.8595  10.9163  11.8933  12.4532  13.1642  14.5409
    14.9403  15.5904

          k = 0.3750 0.3555 0.0000 (  5870 PWs)   bands (ev):

   -45.4709 -23.9391 -23.6845 -23.4280 -20.6526 -12.2300  -3.1608  -2.7879
    -2.6011  -2.2597  -0.7326  -0.1682   3.6397   6.2988   6.5586   7.1405
     7.6487   9.7692  10.1644  11.3069  11.9746  12.4331  12.9753  14.0541
    14.7057  15.4311

          k = 0.3750 0.4266 0.0000 (  5865 PWs)   bands (ev):

   -45.4676 -23.9246 -23.6743 -23.4895 -20.6448 -12.1716  -3.1212  -2.8537
    -2.5808  -2.1633  -0.7805  -0.6075   3.8854   6.3545   6.5100   7.1536
     7.4987  10.2192  10.8600  11.7359  11.9617  12.3981  13.1339  14.0047
    14.5468  15.1830

          k = 0.3750 0.4977 0.0000 (  5860 PWs)   bands (ev):

   -45.4654 -23.9000 -23.6676 -23.5465 -20.6386 -12.1321  -3.1247  -2.8295
    -2.5595  -2.0098  -1.1552  -0.6996   4.1142   6.2983   6.4691   7.1583
     7.4338  10.3155  11.6026  11.8676  11.9407  12.9315  13.4004  13.8549
    14.4680  15.0696

          k = 0.3750 0.5688 0.0000 (  5866 PWs)   bands (ev):

   -45.4646 -23.8866 -23.6656 -23.5712 -20.6363 -12.1181  -3.1361  -2.8028
    -2.5485  -1.8782  -1.4025  -0.7059   4.2136   6.2461   6.4643   7.1062
     7.4705  10.3194  11.6137  11.8846  12.5951  12.8438  13.4834  13.8007
    14.5638  15.1784

          k = 0.3750-0.1422 0.0000 (  5886 PWs)   bands (ev):

   -45.4819 -23.8881 -23.6966 -23.3615 -20.6646 -12.4195  -3.1151  -2.6691
    -2.6186  -1.9526  -0.7872   0.3647   3.4949   5.8936   6.4506   7.0353
     7.4793   8.3317   9.7625  10.7412  11.7661  12.4422  14.1400  14.8124
    15.4572  16.2383

          k = 0.3750-0.0711 0.0000 (  5879 PWs)   bands (ev):

   -45.4840 -23.8680 -23.6832 -23.3777 -20.6640 -12.4560  -3.0449  -2.7008
    -2.6423  -1.7103  -0.8148   0.1880   3.6315   5.7496   6.3361   6.9149
     7.4364   8.2682   9.8131  10.9177  11.9982  12.5072  14.1303  14.5469
    15.2460  16.3113

          k = 0.3750 0.0000 0.0000 (  5874 PWs)   bands (ev):

   -45.4848 -23.8612 -23.6746 -23.3874 -20.6635 -12.4687  -3.0080  -2.7253
    -2.6489  -1.5939  -0.8313   0.0897   3.6998   5.6416   6.3751   6.8134
     7.4403   8.2527   9.8315  10.9930  12.3338  12.5377  13.6122  14.4466
    15.5819  16.0619

          k = 0.4375 0.2489 0.0000 (  5875 PWs)   bands (ev):

   -45.4725 -23.9640 -23.6909 -23.3719 -20.6615 -12.2602  -3.2419  -2.6683
    -2.6138  -2.4384  -0.7202   0.3374   3.3693   6.1967   6.6965   7.2520
     7.8860   9.1736   9.8000  10.8880  11.8097  12.3597  12.9890  14.4629
    14.7979  15.1348

          k = 0.4375 0.3200 0.0000 (  5870 PWs)   bands (ev):

   -45.4705 -23.9710 -23.6850 -23.3908 -20.6587 -12.2246  -3.2377  -2.7441
    -2.6084  -2.4237  -0.7117   0.1698   3.4418   6.3161   6.6611   7.2248
     7.8658   9.6215   9.9590  11.0712  11.6448  12.3062  13.0599  14.0812
    14.6534  15.0191

          k = 0.4375 0.3911 0.0000 (  5873 PWs)   bands (ev):

   -45.4686 -23.9569 -23.6788 -23.4341 -20.6525 -12.1919  -3.1810  -2.8325
    -2.5954  -2.3226  -0.7178  -0.2010   3.6384   6.4027   6.6009   7.1523
     7.6718  10.0148  10.5157  11.4306  11.5295  12.2952  13.1098  13.9259
    14.6529  14.9200

          k = 0.4375 0.4622 0.0000 (  5868 PWs)   bands (ev):

   -45.4672 -23.9279 -23.6738 -23.4883 -20.6455 -12.1670  -3.1231  -2.8593
    -2.5816  -2.1773  -0.7809  -0.5909   3.8773   6.3455   6.5165   7.1404
     7.5195  10.2347  10.9470  11.7279  11.8999  12.3931  13.1425  14.0026
    14.5261  15.1557

          k = 0.4375 0.5333 0.0000 (  5865 PWs)   bands (ev):

   -45.4664 -23.9016 -23.6711 -23.5292 -20.6410 -12.1536  -3.1099  -2.8320
    -2.5707  -2.0251  -1.0418  -0.6829   4.0545   6.1686   6.5299   7.0879
     7.5197  10.3568  10.9791  11.6927  12.5738  12.9760  13.1713  13.8124
    14.4270  14.9591

          k = 0.4375-0.1778 0.0000 (  5884 PWs)   bands (ev):

   -45.4743 -23.9384 -23.6945 -23.3799 -20.6603 -12.2933  -3.1920  -2.6814
    -2.6172  -2.2986  -0.7394   0.2436   3.4499   6.1293   6.6084   7.1843
     7.7094   9.0429   9.8758  10.9151  11.8884  12.4612  13.1508  14.5159
    14.9456  15.5781

          k = 0.4375-0.1067 0.0000 (  5883 PWs)   bands (ev):

   -45.4757 -23.9050 -23.6939 -23.4062 -20.6569 -12.3186  -3.1174  -2.7137
    -2.6285  -2.0847  -0.7684  -0.0108   3.6176   6.0306   6.4538   7.0549
     7.6151   9.0414  10.0425  11.1874  11.9830  12.4833  13.5665  14.2648
    14.9983  16.0905

          k = 0.4375-0.0356 0.0000 (  5881 PWs)   bands (ev):

   -45.4765 -23.8810 -23.6903 -23.4308 -20.6541 -12.3323  -3.0606  -2.7376
    -2.6368  -1.9032  -0.8038  -0.2269   3.7574   5.8330   6.5195   6.8672
     7.6261   9.0475  10.1528  11.4364  12.2525  12.5078  13.7342  14.2482
    14.6414  15.6693

          k =-0.5000-0.2844 0.0000 (  5882 PWs)   bands (ev):

   -45.4703 -23.9832 -23.6851 -23.3764 -20.6612 -12.2227  -3.2713  -2.7036
    -2.6183  -2.4955  -0.7050   0.3105   3.3584   6.3243   6.6507   7.2898
     8.0081   9.5395   9.8320  11.0704  11.4361  12.2823  13.1487  14.0037
    14.6231  14.9617

          k =-0.5000-0.2133 0.0000 (  5876 PWs)   bands (ev):

   -45.4703 -23.9723 -23.6849 -23.3903 -20.6590 -12.2230  -3.2394  -2.7447
    -2.6089  -2.4282  -0.7112   0.1763   3.4377   6.3230   6.6413   7.2333
     7.8664   9.6453   9.9648  11.0756  11.6236  12.3112  13.0704  14.0640
    14.6257  15.0406

          k =-0.5000-0.1422 0.0000 (  5872 PWs)   bands (ev):

   -45.4703 -23.9436 -23.6839 -23.4262 -20.6537 -12.2239  -3.1653  -2.7926
    -2.6025  -2.2777  -0.7315  -0.1456   3.6268   6.3049   6.5318   7.1420
     7.6691   9.8090  10.2087  11.3068  11.9390  12.4415  12.9744  14.0318
    14.6720  15.4239

          k =-0.5000-0.0711 0.0000 (  5881 PWs)   bands (ev):

   -45.4703 -23.9109 -23.6823 -23.4670 -20.6484 -12.2247  -3.1013  -2.8078
    -2.5995  -2.0991  -0.7834  -0.4645   3.8262   6.1046   6.5398   7.0099
     7.6281   9.9049  10.3675  11.7040  12.1387  12.6515  13.1894  13.9271
    14.6893  15.4594

          k =-0.5000-0.0000 0.0000 (  5884 PWs)   bands (ev):

   -45.4703 -23.8956 -23.6812 -23.4860 -20.6463 -12.2251  -3.0802  -2.8054
    -2.5989  -2.0013  -0.8496  -0.5741   3.9172   5.9734   6.6099   6.9061
     7.6437   9.9309  10.4296  11.7605  12.3293  12.7995  13.4767  13.9900
    14.4205  14.9732

     highest occupied, lowest unoccupied level (ev):     4.2191    5.4592

!    total energy              =    -571.23422921 Ry
     total all-electron energy =    -12610.611641 Ry
     estimated scf accuracy    <          8.6E-12 Ry

     The total energy is the sum of the following terms:
     one-electron contribution =    -277.50922980 Ry
     hartree contribution      =     147.16789576 Ry
     xc contribution           =     -36.33728572 Ry
     ewald contribution        =      -7.70129250 Ry
     one-center paw contrib.   =    -396.85431695 Ry

     convergence has been achieved in   6 iterations

     negative rho (up, down):  3.706E-05 0.000E+00

     Forces acting on atoms (cartesian axes, Ry/au):

     atom    1 type  1   force =     0.00000000    0.00006629    0.00001185
     atom    2 type  2   force =     0.00000000    0.00034250   -0.00007634
     atom    3 type  3   force =     0.00000000   -0.00040880    0.00006449
     The non-local contrib.  to forces
     atom    1 type  1   force =     0.00000000    0.00298542   -0.02499727
     atom    2 type  2   force =     0.00000000    0.02059922   -0.97838498
     atom    3 type  3   force =     0.00000000    0.00102425    0.21090553
     The ionic contribution  to forces
     atom    1 type  1   force =    -0.00000001    0.15800731   -0.47281265
     atom    2 type  2   force =     0.00000001   -0.11251164   24.24252968
     atom    3 type  3   force =     0.00000000   -0.04549567  -23.76971703
     The local contribution  to forces
     atom    1 type  1   force =    -0.00000000   -0.16079895    0.49364528
     atom    2 type  2   force =     0.00000027    0.09231770  -23.26740545
     atom    3 type  3   force =    -0.00000000    0.04393718   23.56163393
     The core correction contribution to forces
     atom    1 type  1   force =    -0.00000000   -0.00012759    0.00417769
     atom    2 type  2   force =     0.00000000   -0.00006304    0.00318223
     atom    3 type  3   force =    -0.00000000    0.00012515   -0.00276608
     The Hubbard contrib.    to forces
     atom    1 type  1   force =     0.00000000    0.00000000    0.00000000
     atom    2 type  2   force =     0.00000000    0.00000000    0.00000000
     atom    3 type  3   force =     0.00000000    0.00000000    0.00000000
     The SCF correction term to forces
     atom    1 type  1   force =     0.00000000   -0.00000006   -0.00000499
     atom    2 type  2   force =     0.00000000    0.00000012   -0.00000160
     atom    3 type  3   force =    -0.00000000    0.00000014    0.00000435

     Total force =     0.000547     Total SCF correction =     0.000007
     Energy error            =      5.1E-07 Ry
     Gradient error          =      4.1E-04 Ry/Bohr

     number of scf cycles    =   7
     number of bfgs steps    =   6

     energy             old  =    -571.2342286973 Ry
     energy             new  =    -571.2342292114 Ry

     CASE: energy            _new < energy            _old

     new trust radius        =       0.0010088957 bohr
     new conv_thr            =            1.0E-10 Ry


ATOMIC_POSITIONS (angstrom)
Zr            0.0000000000       -0.0175393657       10.1030721477
F            -0.0000000020        1.9401339242       11.3999779603
Br           -0.0000000020        1.9392132047        8.2151286049



     Writing config-only to output data dir ./tmp/ZrFBr.save/
     NEW-OLD atomic charge density approx. for the potential

     Check: negative core charge=   -0.000002

     negative rho (up, down):  3.707E-05 0.000E+00

     total cpu time spent up to now is       82.7 secs

     Self-consistent Calculation

     iteration #  1     ecut=    65.00 Ry     beta= 0.70
     Davidson diagonalization with overlap
     ethr =  1.00E-06,  avg # of iterations =  2.0

     Threshold (ethr) on eigenvalues was too large:
     Diagonalizing with lowered threshold

     Davidson diagonalization with overlap
     ethr =  2.35E-10,  avg # of iterations =  4.0

     negative rho (up, down):  3.711E-05 0.000E+00

     total cpu time spent up to now is       85.9 secs

     total energy              =    -571.23422985 Ry
     estimated scf accuracy    <       0.00000006 Ry

     iteration #  2     ecut=    65.00 Ry     beta= 0.70
     Davidson diagonalization with overlap
     ethr =  2.41E-10,  avg # of iterations =  2.0

     negative rho (up, down):  3.709E-05 0.000E+00

     total cpu time spent up to now is       87.2 secs

     total energy              =    -571.23422986 Ry
     estimated scf accuracy    <       0.00000002 Ry

     iteration #  3     ecut=    65.00 Ry     beta= 0.70
     Davidson diagonalization with overlap
     ethr =  7.72E-11,  avg # of iterations =  2.0

     negative rho (up, down):  3.709E-05 0.000E+00

     total cpu time spent up to now is       88.6 secs

     total energy              =    -571.23422986 Ry
     estimated scf accuracy    <       0.00000003 Ry

     iteration #  4     ecut=    65.00 Ry     beta= 0.70
     Davidson diagonalization with overlap
     ethr =  7.72E-11,  avg # of iterations =  1.0

     negative rho (up, down):  3.709E-05 0.000E+00

     total cpu time spent up to now is       89.8 secs

     total energy              =    -571.23422986 Ry
     estimated scf accuracy    <          8.1E-10 Ry

     iteration #  5     ecut=    65.00 Ry     beta= 0.70
     Davidson diagonalization with overlap
     ethr =  3.13E-12,  avg # of iterations =  2.0

     negative rho (up, down):  3.709E-05 0.000E+00

     total cpu time spent up to now is       91.2 secs

     total energy              =    -571.23422986 Ry
     estimated scf accuracy    <          2.2E-10 Ry

     iteration #  6     ecut=    65.00 Ry     beta= 0.70
     Davidson diagonalization with overlap
     ethr =  8.43E-13,  avg # of iterations =  2.0

     negative rho (up, down):  3.709E-05 0.000E+00

     total cpu time spent up to now is       92.5 secs

     End of self-consistent calculation

          k = 0.0000 0.0000 0.0000 (  5879 PWs)   bands (ev):

   -45.5259 -23.9788 -23.2610 -23.2376 -20.7601 -13.0608  -3.2245  -2.5734
    -2.5430  -1.1978   1.1485   1.2543   3.7324   5.6268   5.7477   5.8007
     6.5950   6.6707   7.8190   8.6160  11.0187  13.8489  14.3998  14.6600
    15.1993  17.0903

          k = 0.0000 0.0711 0.0000 (  5863 PWs)   bands (ev):

   -45.5239 -23.9709 -23.2895 -23.2418 -20.7521 -13.0345  -3.1919  -2.6073
    -2.5424  -1.1772   0.9344   1.2169   3.7429   5.5727   5.8417   5.8452
     6.5560   6.7201   7.9365   8.8330  11.1454  13.8998  14.0629  14.7885
    15.0629  17.2462

          k = 0.0000 0.1422 0.0000 (  5849 PWs)   bands (ev):

   -45.5183 -23.9488 -23.3684 -23.2538 -20.7316 -12.9582  -3.1044  -2.6936
    -2.5417  -1.1279   0.3946   1.1142   3.7452   5.5053   5.9451   5.9712
     6.6454   6.8505   8.2577   9.3112  11.5135  13.4377  13.8765  14.8978
    15.1703  17.3202

          k = 0.0000 0.2133 0.0000 (  5850 PWs)   bands (ev):

   -45.5098 -23.9172 -23.4794 -23.2717 -20.7065 -12.8397  -2.9991  -2.7906
    -2.5434  -1.0826  -0.2775   0.9698   3.6890   5.5159   5.9952   6.1979
     6.9676   7.0241   8.7093   9.8112  11.8909  13.0697  13.5040  15.2252
    15.7915  17.0017

          k = 0.0000 0.2844 0.0000 (  5874 PWs)   bands (ev):

   -45.4998 -23.8860 -23.5966 -23.2928 -20.6845 -12.6926  -2.9963  -2.7860
    -2.5495  -1.2063  -0.7908   0.8119   3.5734   5.6223   6.1518   6.5115
     7.2096   7.3928   9.1851  10.2263  11.7736  12.7695  13.8831  15.6543
    16.1839  16.5600

          k = 0.0000 0.3555 0.0000 (  5874 PWs)   bands (ev):

   -45.4897 -23.8784 -23.6831 -23.3137 -20.6696 -12.5363  -3.0879  -2.7036
    -2.5595  -1.7250  -0.8310   0.6658   3.4515   5.7887   6.4140   6.8632
     7.4027   7.8907   9.5456  10.5154  11.6403  12.4529  14.4383  14.9693
    16.1400  16.2416

          k = 0.0000 0.4266 0.0000 (  5870 PWs)   bands (ev):

   -45.4812 -23.9172 -23.7061 -23.3314 -20.6619 -12.3957  -3.1792  -2.6518
    -2.5711  -2.1849  -0.7865   0.5498   3.3660   5.9945   6.6399   7.1460
     7.6380   8.4804   9.6988  10.7213  11.7362  12.3607  13.4708  14.9031
    15.3681  15.7353

          k = 0.0000 0.4977 0.0000 (  5892 PWs)   bands (ev):

   -45.4755 -23.9640 -23.6982 -23.3431 -20.6590 -12.2970  -3.2516  -2.6575
    -2.5803  -2.4413  -0.7489   0.4760   3.3242   6.2100   6.7031   7.2876
     7.8856   9.1220   9.7709  10.8810  11.7233  12.2631  12.9263  14.3832
    14.6817  15.3225

          k = 0.0000-0.5688 0.0000 (  5874 PWs)   bands (ev):

   -45.4735 -23.9825 -23.6929 -23.3473 -20.6584 -12.2614  -3.2818  -2.6879
    -2.5838  -2.4982  -0.7349   0.4508   3.3130   6.3319   6.6686   7.3270
     7.9941   9.4742   9.8244  11.0501  11.3163  12.2016  13.0940  13.9322
    14.5060  15.1599

          k = 0.0625 0.0356 0.0000 (  5870 PWs)   bands (ev):

   -45.5238 -23.9706 -23.2778 -23.2549 -20.7520 -13.0334  -3.1911  -2.5919
    -2.5596  -1.1759   0.9970   1.1458   3.7468   5.6321   5.7735   5.8477
     6.5868   6.6789   7.9429   8.8416  11.1501  13.9000  14.1856  14.6127
    15.0856  17.3086

          k = 0.0625 0.1067 0.0000 (  5846 PWs)   bands (ev):

   -45.5200 -23.9556 -23.3378 -23.2568 -20.7377 -12.9821  -3.1307  -2.6610
    -2.5501  -1.1411   0.5944   1.1016   3.7550   5.5336   5.8900   5.9559
     6.5889   6.7964   8.1612   9.1812  11.4054  13.6192  13.9388  14.8213
    15.0706  17.3492

          k = 0.0625 0.1778 0.0000 (  5844 PWs)   bands (ev):

   -45.5129 -23.9285 -23.4332 -23.2714 -20.7151 -12.8845  -3.0291  -2.7578
    -2.5500  -1.0919  -0.0014   0.9660   3.7333   5.4760   6.0090   6.1155
     6.7722   6.9864   8.5480   9.6561  11.8658  13.0956  13.6288  14.9639
    15.6315  16.9479

          k = 0.0625 0.2489 0.0000 (  5858 PWs)   bands (ev):

   -45.5036 -23.8963 -23.5462 -23.2925 -20.6919 -12.7513  -2.9567  -2.8189
    -2.5566  -1.0886  -0.6178   0.7927   3.6561   5.5281   6.0852   6.4257
     7.0455   7.2710   9.0150  10.1134  12.0338  12.9244  13.4024  15.3867
    16.2656  16.5226

          k = 0.0625 0.3200 0.0000 (  5863 PWs)   bands (ev):

   -45.4936 -23.8738 -23.6485 -23.3159 -20.6738 -12.5989  -3.0268  -2.7444
    -2.5700  -1.4482  -0.8395   0.6178   3.5507   5.6892   6.2401   6.7783
     7.2785   7.7092   9.4459  10.4911  11.7938  12.5950  14.1370  15.1972
    15.8870  16.3439

          k = 0.0625 0.3911 0.0000 (  5869 PWs)   bands (ev):

   -45.4843 -23.8898 -23.7001 -23.3376 -20.6628 -12.4493  -3.1194  -2.6700
    -2.5908  -1.9502  -0.8092   0.4666   3.4640   5.9104   6.4519   7.0573
     7.5024   8.2917   9.7160  10.7586  11.7455  12.3975  14.0111  14.7812
    15.4102  16.2464

          k = 0.0625 0.4622 0.0000 (  5873 PWs)   bands (ev):

   -45.4772 -23.9374 -23.7008 -23.3543 -20.6577 -12.3284  -3.1977  -2.6622
    -2.6041  -2.2890  -0.7657   0.3566   3.4167   6.1444   6.6198   7.2068
     7.7122   8.9839   9.8332  10.9340  11.8384  12.3790  13.0633  14.5134
    14.8507  15.6327

          k = 0.0625 0.5333 0.0000 (  5872 PWs)   bands (ev):

   -45.4733 -23.9708 -23.6923 -23.3633 -20.6562 -12.2603  -3.2476  -2.7219
    -2.5963  -2.4167  -0.7395   0.2990   3.4004   6.3305   6.6617   7.2603
     7.8542   9.5696   9.9518  11.0678  11.5329  12.2312  13.0185  14.0154
    14.5472  15.1472

          k = 0.1250 0.0711 0.0000 (  5859 PWs)   bands (ev):

   -45.5177 -23.9475 -23.3551 -23.2724 -20.7313 -12.9536  -3.1016  -2.6773
    -2.5644  -1.1233   0.4559   1.0238   3.7614   5.5814   5.8585   5.9615
     6.6625   6.8069   8.2773   9.3283  11.5309  13.4955  13.9164  14.9230
    14.9950  17.3558

          k = 0.1250 0.1422 0.0000 (  5856 PWs)   bands (ev):

   -45.5125 -23.9275 -23.4269 -23.2815 -20.7150 -12.8810  -3.0271  -2.7509
    -2.5616  -1.0885   0.0314   0.9105   3.7475   5.4928   6.0008   6.0919
     6.7782   6.9661   8.5602   9.6640  11.8769  13.1219  13.6516  14.9715
    15.5592  16.9200

          k = 0.1250 0.2133 0.0000 (  5851 PWs)   bands (ev):

   -45.5046 -23.8992 -23.5208 -23.3032 -20.6944 -12.7685  -2.9320  -2.8328
    -2.5708  -1.0634  -0.4841   0.7011   3.7136   5.4602   6.1148   6.3956
     6.9283   7.2495   8.9650  10.0873  12.4201  12.7099  13.2485  15.2152
    16.1744  16.4810

          k = 0.1250 0.2844 0.0000 (  5852 PWs)   bands (ev):

   -45.4954 -23.8726 -23.6163 -23.3320 -20.6756 -12.6291  -2.9586  -2.7905
    -2.5911  -1.2362  -0.8240   0.4588   3.6647   5.5459   6.2281   6.7163
     7.1714   7.6483   9.4000  10.5231  12.2700  12.7435  13.3510  15.1461
    15.9282  16.4096

          k = 0.1250 0.3555 0.0000 (  5867 PWs)   bands (ev):

   -45.4861 -23.8685 -23.6827 -23.3620 -20.6620 -12.4817  -3.0445  -2.7010
    -2.6224  -1.6888  -0.8296   0.2320   3.6227   5.7554   6.3506   6.9338
     7.4358   8.2354   9.7624  10.9248  12.0259  12.5079  14.1165  14.4739
    15.2076  16.2604

          k = 0.1250 0.4266 0.0000 (  5872 PWs)   bands (ev):

   -45.4782 -23.9018 -23.6980 -23.3880 -20.6542 -12.3496  -3.1174  -2.6909
    -2.6270  -2.0614  -0.7879   0.0504   3.6050   6.0441   6.4591   7.0832
     7.5978   8.9855   9.9822  11.2252  11.9778  12.4488  13.4873  14.2618
    14.9412  16.0823

          k = 0.1250 0.4977 0.0000 (  5871 PWs)   bands (ev):

   -45.4729 -23.9401 -23.6901 -23.4055 -20.6507 -12.2572  -3.1677  -2.7689
    -2.5994  -2.2570  -0.7535  -0.0670   3.6075   6.3141   6.5406   7.1708
     7.6476   9.7322  10.1487  11.3591  11.9140  12.3609  12.9261  14.0346
    14.6097  15.4172

          k = 0.1250 0.5688 0.0000 (  5878 PWs)   bands (ev):

   -45.4711 -23.9552 -23.6853 -23.4117 -20.6499 -12.2239  -3.1866  -2.8113
    -2.5915  -2.3082  -0.7406  -0.1076   3.6117   6.4143   6.5971   7.1813
     7.6569   9.9444  10.5129  11.3869  11.5156  12.2520  13.0741  13.8654
    14.5826  14.9520

          k = 0.1250 0.0000 0.0000 (  5872 PWs)   bands (ev):

   -45.5196 -23.9546 -23.3248 -23.2736 -20.7376 -12.9787  -3.1287  -2.6442
    -2.5716  -1.1376   0.6413   1.0366   3.7639   5.6379   5.7768   5.9525
     6.5735   6.7873   8.1773   9.1947  11.4164  13.6810  13.9591  14.7476
    15.0096  17.3468

          k = 0.1875 0.1067 0.0000 (  5867 PWs)   bands (ev):

   -45.5087 -23.9143 -23.4692 -23.2927 -20.7063 -12.8297  -2.9939  -2.7786
    -2.5682  -1.0726  -0.2300   0.8664   3.7211   5.5537   6.0089   6.1057
     6.9603   7.0026   8.7419   9.8268  11.9087  13.1158  13.5552  15.2646
    15.6328  17.0210

          k = 0.1875 0.1778 0.0000 (  5870 PWs)   bands (ev):

   -45.5026 -23.8936 -23.5389 -23.3093 -20.6918 -12.7423  -2.9509  -2.8131
    -2.5748  -1.0760  -0.5825   0.7018   3.6877   5.5327   6.0853   6.3895
     7.0247   7.2709   9.0400  10.1202  12.0350  12.9637  13.4664  15.4245
    16.1866  16.4833

          k = 0.1875 0.2489 0.0000 (  5864 PWs)   bands (ev):

   -45.4948 -23.8709 -23.6130 -23.3410 -20.6757 -12.6236  -2.9545  -2.7904
    -2.5994  -1.2208  -0.8145   0.4095   3.6828   5.5420   6.2262   6.7087
     7.1547   7.6538   9.4129  10.5222  12.2581  12.7454  13.4217  15.1495
    15.9780  16.4252

          k = 0.1875 0.3200 0.0000 (  5877 PWs)   bands (ev):

   -45.4863 -23.8599 -23.6700 -23.3816 -20.6616 -12.4886  -3.0029  -2.7272
    -2.6357  -1.5487  -0.8386   0.0735   3.7127   5.6356   6.3986   6.8225
     7.4244   8.2256   9.7884  10.9844  12.3571  12.6000  13.6478  14.4154
    15.5558  16.0132

          k = 0.1875 0.3911 0.0000 (  5868 PWs)   bands (ev):

   -45.4784 -23.8752 -23.6909 -23.4226 -20.6515 -12.3573  -3.0558  -2.7220
    -2.6349  -1.8580  -0.8144  -0.2289   3.7676   5.8334   6.5223   6.8983
     7.5949   8.9968  10.0906  11.4369  12.2489  12.5874  13.7178  14.2273
    14.6263  15.7049

          k = 0.1875 0.4622 0.0000 (  5868 PWs)   bands (ev):

   -45.4723 -23.9042 -23.6862 -23.4557 -20.6456 -12.2520  -3.0981  -2.7874
    -2.5984  -2.0646  -0.7893  -0.4501   3.8286   6.1081   6.5298   7.0538
     7.5927   9.8389  10.2730  11.7388  12.1658  12.6725  13.1300  13.9376
    14.6466  15.5441

          k = 0.1875 0.5333 0.0000 (  5882 PWs)   bands (ev):

   -45.4691 -23.9237 -23.6787 -23.4741 -20.6430 -12.1931  -3.1217  -2.8424
    -2.5797  -2.1566  -0.7755  -0.5651   3.8697   6.3500   6.5030   7.1777
     7.4953  10.1632  10.8521  11.7296  11.9583  12.4159  13.0900  13.9749
    14.5024  15.1348

          k = 0.1875-0.0356 0.0000 (  5864 PWs)   bands (ev):

   -45.5119 -23.9261 -23.4239 -23.2898 -20.7150 -12.8758  -3.0249  -2.7453
    -2.5733  -1.0837   0.0316   0.8934   3.7535   5.5406   5.9982   6.0290
     6.7307   6.9963   8.5797   9.6720  11.8845  13.1207  13.6574  14.9497
    15.5352  16.9428

          k = 0.2500 0.1422 0.0000 (  5878 PWs)   bands (ev):

   -45.4979 -23.8814 -23.5900 -23.3160 -20.6848 -12.6755  -2.9887  -2.7795
    -2.5765  -1.1821  -0.7665   0.6964   3.6154   5.6265   6.1770   6.4338
     7.1642   7.4151   9.2270  10.2333  11.7784  12.8128  13.9713  15.7400
    16.2878  16.4217

          k = 0.2500 0.2133 0.0000 (  5886 PWs)   bands (ev):

   -45.4919 -23.8692 -23.6425 -23.3374 -20.6742 -12.5828  -3.0194  -2.7416
    -2.5924  -1.4182  -0.8221   0.5047   3.5928   5.6836   6.2441   6.7440
     7.2401   7.7279   9.4798  10.4873  11.7986  12.6326  14.2550  15.2952
    15.9010  16.3405

          k = 0.2500 0.2844 0.0000 (  5877 PWs)   bands (ev):

   -45.4848 -23.8649 -23.6787 -23.3778 -20.6625 -12.4690  -3.0391  -2.7056
    -2.6322  -1.6658  -0.8184   0.1502   3.6528   5.7492   6.3491   6.9195
     7.4152   8.2466   9.7844  10.9107  12.0251  12.5164  14.2004  14.5622
    15.2685  16.2678

          k = 0.2500 0.3555 0.0000 (  5875 PWs)   bands (ev):

   -45.4777 -23.8735 -23.6890 -23.4305 -20.6519 -12.3501  -3.0537  -2.7301
    -2.6330  -1.8476  -0.8100  -0.2673   3.7813   5.8329   6.5189   6.8937
     7.5892   9.0017  10.1020  11.4240  12.2537  12.5546  13.7321  14.3415
    14.6820  15.6339

          k = 0.2500 0.4266 0.0000 (  5876 PWs)   bands (ev):

   -45.4716 -23.8864 -23.6826 -23.4839 -20.6439 -12.2450  -3.0751  -2.7896
    -2.5972  -1.9490  -0.8538  -0.6064   3.9367   5.9736   6.5820   6.9602
     7.6027   9.8740  10.3377  11.7722  12.2837  12.9084  13.4861  14.0110
    14.4448  15.0089

          k = 0.2500 0.4977 0.0000 (  5873 PWs)   bands (ev):

   -45.4676 -23.8947 -23.6738 -23.5241 -20.6389 -12.1723  -3.1057  -2.8182
    -2.5691  -1.9891  -1.0357  -0.7020   4.0645   6.1672   6.5117   7.1205
     7.4955  10.3009  10.8571  11.7323  12.5362  13.0520  13.2094  13.8413
    14.4091  14.9759

          k = 0.2500 0.5688 0.0000 (  5864 PWs)   bands (ev):

   -45.4662 -23.8971 -23.6702 -23.5392 -20.6373 -12.1463  -3.1213  -2.8230
    -2.5585  -1.9971  -1.1303  -0.7109   4.1141   6.2892   6.4614   7.1692
     7.4368  10.2674  11.6227  11.8126  11.8707  13.0586  13.4169  13.8601
    14.4370  15.0347

          k = 0.2500-0.0711 0.0000 (  5875 PWs)   bands (ev):

   -45.5019 -23.8922 -23.5414 -23.3122 -20.6923 -12.7358  -2.9506  -2.8121
    -2.5814  -1.0743  -0.6005   0.7126   3.6843   5.5512   6.0868   6.3541
     7.0003   7.2938   9.0578  10.1243  12.0276  12.9525  13.4341  15.4031
    16.2542  16.5209

          k = 0.2500 0.0000 0.0000 (  5876 PWs)   bands (ev):

   -45.5034 -23.8964 -23.5206 -23.3143 -20.6950 -12.7566  -2.9285  -2.8293
    -2.5870  -1.0546  -0.4953   0.6803   3.7220   5.4920   6.1012   6.3447
     6.8885   7.2754   8.9993  10.0961  12.4229  12.6794  13.2483  15.2196
    16.2128  16.4884

          k = 0.3125 0.1778 0.0000 (  5884 PWs)   bands (ev):

   -45.4872 -23.8733 -23.6785 -23.3390 -20.6708 -12.5116  -3.0812  -2.7003
    -2.5892  -1.7057  -0.8101   0.5397   3.4963   5.7777   6.4356   6.8123
     7.3588   7.9221   9.5890  10.5083  11.6600  12.4998  14.5956  15.0629
    16.0752  16.2528

          k = 0.3125 0.2489 0.0000 (  5893 PWs)   bands (ev):

   -45.4819 -23.8852 -23.6949 -23.3622 -20.6640 -12.4255  -3.1120  -2.6727
    -2.6139  -1.9297  -0.7888   0.3409   3.5093   5.8990   6.4642   7.0225
     7.4702   8.3179   9.7491  10.7400  11.7723  12.4431  14.1566  14.8541
    15.4192  16.2863

          k = 0.3125 0.3200 0.0000 (  5897 PWs)   bands (ev):

   -45.4762 -23.8984 -23.6932 -23.4080 -20.6555 -12.3291  -3.1115  -2.7117
    -2.6249  -2.0479  -0.7713  -0.0477   3.6393   6.0380   6.4635   7.0617
     7.5852   9.0022  10.0075  11.1856  11.9948  12.4749  13.5986  14.2806
    15.0518  16.1276

          k = 0.3125 0.3911 0.0000 (  5878 PWs)   bands (ev):

   -45.4709 -23.9026 -23.6827 -23.4687 -20.6468 -12.2371  -3.0965  -2.7973
    -2.5978  -2.0585  -0.7848  -0.5040   3.8474   6.1148   6.5251   7.0438
     7.5873   9.8569  10.2933  11.6999  12.1412  12.6712  13.2386  13.9306
    14.7558  15.4695

          k = 0.3125 0.4622 0.0000 (  5864 PWs)   bands (ev):

   -45.4669 -23.8947 -23.6719 -23.5297 -20.6397 -12.1646  -3.1073  -2.8211
    -2.5694  -1.9876  -1.0585  -0.6989   4.0695   6.1766   6.5091   7.1157
     7.4921  10.3256  10.8600  11.7167  12.5616  13.0409  13.2269  13.7743
    14.4479  15.0005

          k = 0.3125 0.5333 0.0000 (  5865 PWs)   bands (ev):

   -45.4647 -23.8834 -23.6663 -23.5698 -20.6358 -12.1246  -3.1345  -2.7985
    -2.5479  -1.8539  -1.4130  -0.7121   4.2195   6.2468   6.4547   7.1079
     7.4727  10.2951  11.6296  11.7692  12.6429  12.8648  13.5856  13.7539
    14.5483  15.1608

          k = 0.3125-0.1067 0.0000 (  5884 PWs)   bands (ev):

   -45.4912 -23.8692 -23.6463 -23.3373 -20.6750 -12.5758  -3.0224  -2.7401
    -2.5970  -1.4397  -0.8230   0.5274   3.5812   5.6844   6.2417   6.7402
     7.2416   7.7363   9.4943  10.4899  11.7859  12.6252  14.1902  15.2927
    15.9151  16.3602

          k = 0.3125-0.0356 0.0000 (  5868 PWs)   bands (ev):

   -45.4934 -23.8692 -23.6184 -23.3449 -20.6770 -12.6099  -2.9582  -2.7873
    -2.6103  -1.2449  -0.8214   0.4292   3.6732   5.5563   6.2069   6.6939
     7.1496   7.6705   9.4441  10.5288  12.2270  12.7313  13.3568  15.1811
    16.0205  16.4519

          k = 0.3750 0.2133 0.0000 (  5903 PWs)   bands (ev):

   -45.4780 -23.9148 -23.7000 -23.3585 -20.6640 -12.3638  -3.1719  -2.6541
    -2.6033  -2.1772  -0.7608   0.4160   3.4111   5.9792   6.6497   7.1118
     7.6093   8.5230   9.7349  10.7130  11.7812  12.4250  13.5993  14.9978
    15.4770  15.5833

          k = 0.3750 0.2844 0.0000 (  5874 PWs)   bands (ev):

   -45.4742 -23.9351 -23.6942 -23.3807 -20.6599 -12.2974  -3.1891  -2.6825
    -2.6153  -2.2836  -0.7405   0.2261   3.4613   6.1282   6.6360   7.1681
     7.7032   9.0155   9.8597  10.9165  11.8936  12.4533  13.1642  14.5412
    14.9408  15.5905

          k = 0.3750 0.3555 0.0000 (  5870 PWs)   bands (ev):

   -45.4703 -23.9390 -23.6840 -23.4275 -20.6530 -12.2296  -3.1615  -2.7883
    -2.6017  -2.2597  -0.7322  -0.1679   3.6401   6.2988   6.5597   7.1408
     7.6496   9.7693  10.1648  11.3072  11.9749  12.4330  12.9755  14.0544
    14.7062  15.4309

          k = 0.3750 0.4266 0.0000 (  5865 PWs)   bands (ev):

   -45.4670 -23.9244 -23.6738 -23.4890 -20.6452 -12.1713  -3.1220  -2.8541
    -2.5813  -2.1633  -0.7802  -0.6070   3.8857   6.3545   6.5109   7.1541
     7.4996  10.2197  10.8601  11.7362  11.9619  12.3982  13.1343  14.0047
    14.5471  15.1829

          k = 0.3750 0.4977 0.0000 (  5860 PWs)   bands (ev):

   -45.4648 -23.8999 -23.6671 -23.5460 -20.6390 -12.1318  -3.1255  -2.8300
    -2.5600  -2.0097  -1.1550  -0.6991   4.1145   6.2983   6.4699   7.1591
     7.4345  10.3163  11.6029  11.8677  11.9405  12.9318  13.4007  13.8549
    14.4679  15.0694

          k = 0.3750 0.5688 0.0000 (  5866 PWs)   bands (ev):

   -45.4641 -23.8865 -23.6651 -23.5706 -20.6367 -12.1178  -3.1368  -2.8033
    -2.5491  -1.8780  -1.4022  -0.7054   4.2139   6.2461   6.4652   7.1071
     7.4711  10.3203  11.6142  11.8843  12.5954  12.8433  13.4838  13.8009
    14.5640  15.1777

          k = 0.3750-0.1422 0.0000 (  5886 PWs)   bands (ev):

   -45.4813 -23.8880 -23.6961 -23.3609 -20.6650 -12.4192  -3.1159  -2.6696
    -2.6192  -1.9523  -0.7867   0.3648   3.4952   5.8938   6.4512   7.0362
     7.4796   8.3319   9.7631  10.7410  11.7665  12.4427  14.1398  14.8127
    15.4574  16.2391

          k = 0.3750-0.0711 0.0000 (  5879 PWs)   bands (ev):

   -45.4835 -23.8678 -23.6828 -23.3771 -20.6643 -12.4556  -3.0457  -2.7014
    -2.6427  -1.7100  -0.8143   0.1881   3.6318   5.7501   6.3364   6.9156
     7.4370   8.2684   9.8138  10.9174  11.9986  12.5077  14.1305  14.5473
    15.2462  16.3117

          k = 0.3750 0.0000 0.0000 (  5874 PWs)   bands (ev):

   -45.4842 -23.8610 -23.6742 -23.3868 -20.6638 -12.4683  -3.0088  -2.7259
    -2.6493  -1.5936  -0.8308   0.0897   3.7000   5.6422   6.3753   6.8141
     7.4410   8.2529   9.8322  10.9926  12.3341  12.5383  13.6128  14.4470
    15.5821  16.0620

          k = 0.4375 0.2489 0.0000 (  5875 PWs)   bands (ev):

   -45.4719 -23.9639 -23.6904 -23.3714 -20.6619 -12.2599  -3.2425  -2.6686
    -2.6144  -2.4384  -0.7197   0.3375   3.3697   6.1969   6.6969   7.2526
     7.8863   9.1743   9.8002  10.8884  11.8100  12.3597  12.9891  14.4628
    14.7982  15.1357

          k = 0.4375 0.3200 0.0000 (  5870 PWs)   bands (ev):

   -45.4699 -23.9709 -23.6845 -23.3903 -20.6591 -12.2243  -3.2383  -2.7443
    -2.6089  -2.4239  -0.7112   0.1700   3.4422   6.3163   6.6616   7.2253
     7.8665   9.6221   9.9593  11.0715  11.6448  12.3065  13.0600  14.0812
    14.6541  15.0193

          k = 0.4375 0.3911 0.0000 (  5873 PWs)   bands (ev):

   -45.4680 -23.9568 -23.6783 -23.4335 -20.6529 -12.1916  -3.1817  -2.8328
    -2.5960  -2.3227  -0.7174  -0.2008   3.6388   6.4030   6.6013   7.1528
     7.6725  10.0154  10.5163  11.4307  11.5295  12.2957  13.1101  13.9256
    14.6531  14.9203

          k = 0.4375 0.4622 0.0000 (  5868 PWs)   bands (ev):

   -45.4666 -23.9278 -23.6733 -23.4878 -20.6459 -12.1667  -3.1239  -2.8596
    -2.5821  -2.1773  -0.7805  -0.5905   3.8776   6.3455   6.5172   7.1409
     7.5201  10.2355  10.9475  11.7282  11.9000  12.3933  13.1429  14.0022
    14.5260  15.1558

          k = 0.4375 0.5333 0.0000 (  5865 PWs)   bands (ev):

   -45.4659 -23.9016 -23.6706 -23.5287 -20.6414 -12.1533  -3.1106  -2.8324
    -2.5712  -2.0251  -1.0415  -0.6824   4.0547   6.1688   6.5307   7.0882
     7.5203  10.3577  10.9795  11.6932  12.5737  12.9761  13.1716  13.8121
    14.4272  14.9587

          k = 0.4375-0.1778 0.0000 (  5884 PWs)   bands (ev):

   -45.4738 -23.9383 -23.6940 -23.3794 -20.6607 -12.2930  -3.1927  -2.6817
    -2.6178  -2.2986  -0.7389   0.2437   3.4503   6.1295   6.6089   7.1852
     7.7094   9.0436   9.8764  10.9153  11.8889  12.4612  13.1508  14.5159
    14.9456  15.5790

          k = 0.4375-0.1067 0.0000 (  5883 PWs)   bands (ev):

   -45.4752 -23.9049 -23.6935 -23.4057 -20.6573 -12.3183  -3.1181  -2.7141
    -2.6291  -2.0846  -0.7678  -0.0107   3.6178   6.0309   6.4542   7.0556
     7.6153   9.0419  10.0434  11.1872  11.9836  12.4836  13.5665  14.2649
    14.9984  16.0917

          k = 0.4375-0.0356 0.0000 (  5881 PWs)   bands (ev):

   -45.4760 -23.8810 -23.6899 -23.4302 -20.6545 -12.3320  -3.0614  -2.7381
    -2.6374  -1.9030  -0.8033  -0.2267   3.7575   5.8335   6.5198   6.8676
     7.6265   9.0478  10.1540  11.4362  12.2528  12.5082  13.7344  14.2487
    14.6415  15.6691

          k =-0.5000-0.2844 0.0000 (  5882 PWs)   bands (ev):

   -45.4697 -23.9831 -23.6846 -23.3759 -20.6616 -12.2223  -3.2718  -2.7037
    -2.6189  -2.4957  -0.7045   0.3106   3.3588   6.3246   6.6509   7.2905
     8.0084   9.5403   9.8323  11.0707  11.4360  12.2829  13.1486  14.0038
    14.6231  14.9627

          k =-0.5000-0.2133 0.0000 (  5876 PWs)   bands (ev):

   -45.4697 -23.9722 -23.6843 -23.3897 -20.6594 -12.2227  -3.2400  -2.7449
    -2.6095  -2.4284  -0.7107   0.1764   3.4381   6.3233   6.6415   7.2341
     7.8667   9.6461   9.9652  11.0760  11.6236  12.3117  13.0704  14.0640
    14.6255  15.0417

          k =-0.5000-0.1422 0.0000 (  5872 PWs)   bands (ev):

   -45.4698 -23.9435 -23.6834 -23.4257 -20.6541 -12.2235  -3.1660  -2.7929
    -2.6030  -2.2778  -0.7310  -0.1454   3.6271   6.3051   6.5322   7.1428
     7.6693   9.8096  10.2095  11.3070  11.9396  12.4416  12.9746  14.0316
    14.6718  15.4248

          k =-0.5000-0.0711 0.0000 (  5881 PWs)   bands (ev):

   -45.4698 -23.9108 -23.6818 -23.4664 -20.6488 -12.2244  -3.1021  -2.8081
    -2.6001  -2.0990  -0.7830  -0.4642   3.8265   6.1049   6.5403   7.0103
     7.6285   9.9051  10.3688  11.7043  12.1391  12.6517  13.1894  13.9269
    14.6894  15.4593

          k =-0.5000-0.0000 0.0000 (  5884 PWs)   bands (ev):

   -45.4698 -23.8956 -23.6807 -23.4854 -20.6466 -12.2248  -3.0810  -2.8058
    -2.5994  -2.0012  -0.8493  -0.5737   3.9174   5.9739   6.6105   6.9062
     7.6442   9.9310  10.4311  11.7610  12.3290  12.8000  13.4766  13.9899
    14.4210  14.9729

     highest occupied, lowest unoccupied level (ev):     4.2195    5.4602

!    total energy              =    -571.23422986 Ry
     total all-electron energy =    -12610.611641 Ry
     estimated scf accuracy    <          1.6E-11 Ry

     The total energy is the sum of the following terms:
     one-electron contribution =    -277.53704834 Ry
     hartree contribution      =     147.18196115 Ry
     xc contribution           =     -36.33741322 Ry
     ewald contribution        =      -7.68740811 Ry
     one-center paw contrib.   =    -396.85432134 Ry

     convergence has been achieved in   6 iterations

     negative rho (up, down):  3.709E-05 0.000E+00

     Forces acting on atoms (cartesian axes, Ry/au):

     atom    1 type  1   force =     0.00000000    0.00003866   -0.00005061
     atom    2 type  2   force =     0.00000000    0.00028412    0.00000572
     atom    3 type  3   force =     0.00000000   -0.00032278    0.00004489
     The non-local contrib.  to forces
     atom    1 type  1   force =     0.00000000    0.00300383   -0.02498044
     atom    2 type  2   force =     0.00000000    0.02088216   -0.97810454
     atom    3 type  3   force =     0.00000000    0.00106002    0.21089038
     The ionic contribution  to forces
     atom    1 type  1   force =    -0.00000001    0.15952671   -0.47216841
     atom    2 type  2   force =     0.00000001   -0.11459305   24.24317676
     atom    3 type  3   force =     0.00000000   -0.04493365  -23.77100835
     The local contribution  to forces
     atom    1 type  1   force =    -0.00000000   -0.16236455    0.49292439
     atom    2 type  2   force =     0.00000027    0.09405826  -23.26824936
     atom    3 type  3   force =    -0.00000000    0.04343006   23.56291862
     The core correction contribution to forces
     atom    1 type  1   force =    -0.00000000   -0.00012734    0.00417695
     atom    2 type  2   force =     0.00000000   -0.00006369    0.00318092
     atom    3 type  3   force =    -0.00000000    0.00012049   -0.00276456
     The Hubbard contrib.    to forces
     atom    1 type  1   force =     0.00000000    0.00000000    0.00000000
     atom    2 type  2   force =     0.00000000    0.00000000    0.00000000
     atom    3 type  3   force =     0.00000000    0.00000000    0.00000000
     The SCF correction term to forces
     atom    1 type  1   force =     0.00000000   -0.00000013   -0.00000678
     atom    2 type  2   force =     0.00000000    0.00000030   -0.00000174
     atom    3 type  3   force =    -0.00000000    0.00000016    0.00000512

     Total force =     0.000437     Total SCF correction =     0.000009
     Energy error            =      6.5E-07 Ry
     Gradient error          =      3.2E-04 Ry/Bohr

     number of scf cycles    =   8
     number of bfgs steps    =   7

     energy             old  =    -571.2342292114 Ry
     energy             new  =    -571.2342298647 Ry

     CASE: energy            _new < energy            _old

     new trust radius        =       0.0015133436 bohr
     new conv_thr            =            1.0E-10 Ry


ATOMIC_POSITIONS (angstrom)
Zr            0.0000000000       -0.0175650797       10.1031140707
F            -0.0000000020        1.9409052448       11.3997625811
Br           -0.0000000020        1.9384675980        8.2153020612



     Writing config-only to output data dir ./tmp/ZrFBr.save/
     NEW-OLD atomic charge density approx. for the potential

     Check: negative core charge=   -0.000002

     negative rho (up, down):  3.713E-05 0.000E+00

     total cpu time spent up to now is       93.0 secs

     Self-consistent Calculation

     iteration #  1     ecut=    65.00 Ry     beta= 0.70
     Davidson diagonalization with overlap
     ethr =  1.00E-06,  avg # of iterations =  2.0

     Threshold (ethr) on eigenvalues was too large:
     Diagonalizing with lowered threshold

     Davidson diagonalization with overlap
     ethr =  4.48E-10,  avg # of iterations =  4.0

     negative rho (up, down):  3.717E-05 0.000E+00

     total cpu time spent up to now is       96.2 secs

     total energy              =    -571.23423053 Ry
     estimated scf accuracy    <       0.00000013 Ry

     iteration #  2     ecut=    65.00 Ry     beta= 0.70
     Davidson diagonalization with overlap
     ethr =  5.18E-10,  avg # of iterations =  2.0

     negative rho (up, down):  3.714E-05 0.000E+00

     total cpu time spent up to now is       97.5 secs

     total energy              =    -571.23423053 Ry
     estimated scf accuracy    <       0.00000005 Ry

     iteration #  3     ecut=    65.00 Ry     beta= 0.70
     Davidson diagonalization with overlap
     ethr =  1.74E-10,  avg # of iterations =  2.0

     negative rho (up, down):  3.715E-05 0.000E+00

     total cpu time spent up to now is       98.9 secs

     total energy              =    -571.23423054 Ry
     estimated scf accuracy    <       0.00000007 Ry

     iteration #  4     ecut=    65.00 Ry     beta= 0.70
     Davidson diagonalization with overlap
     ethr =  1.74E-10,  avg # of iterations =  1.0

     negative rho (up, down):  3.715E-05 0.000E+00

     total cpu time spent up to now is      100.1 secs

     total energy              =    -571.23423055 Ry
     estimated scf accuracy    <          1.3E-09 Ry

     iteration #  5     ecut=    65.00 Ry     beta= 0.70
     Davidson diagonalization with overlap
     ethr =  4.86E-12,  avg # of iterations =  2.0

     negative rho (up, down):  3.715E-05 0.000E+00

     total cpu time spent up to now is      101.5 secs

     total energy              =    -571.23423055 Ry
     estimated scf accuracy    <          4.1E-10 Ry

     iteration #  6     ecut=    65.00 Ry     beta= 0.70
     Davidson diagonalization with overlap
     ethr =  1.57E-12,  avg # of iterations =  2.0

     negative rho (up, down):  3.715E-05 0.000E+00

     total cpu time spent up to now is      102.9 secs

     End of self-consistent calculation

          k = 0.0000 0.0000 0.0000 (  5879 PWs)   bands (ev):

   -45.5252 -23.9784 -23.2603 -23.2370 -20.7606 -13.0606  -3.2250  -2.5739
    -2.5445  -1.1975   1.1481   1.2547   3.7335   5.6277   5.7478   5.8016
     6.5955   6.6714   7.8188   8.6159  11.0188  13.8484  14.3997  14.6610
    15.2005  17.0912

          k = 0.0000 0.0711 0.0000 (  5863 PWs)   bands (ev):

   -45.5232 -23.9706 -23.2889 -23.2412 -20.7526 -13.0343  -3.1925  -2.6078
    -2.5440  -1.1769   0.9341   1.2174   3.7440   5.5736   5.8425   5.8454
     6.5562   6.7209   7.9364   8.8329  11.1455  13.8994  14.0631  14.7895
    15.0637  17.2471

          k = 0.0000 0.1422 0.0000 (  5849 PWs)   bands (ev):

   -45.5176 -23.9485 -23.3677 -23.2532 -20.7321 -12.9580  -3.1050  -2.6941
    -2.5433  -1.1277   0.3945   1.1147   3.7465   5.5064   5.9451   5.9719
     6.6454   6.8516   8.2578   9.3112  11.5135  13.4381  13.8766  14.8979
    15.1712  17.3209

          k = 0.0000 0.2133 0.0000 (  5850 PWs)   bands (ev):

   -45.5091 -23.9168 -23.4788 -23.2712 -20.7070 -12.8395  -2.9999  -2.7911
    -2.5450  -1.0826  -0.2773   0.9703   3.6903   5.5172   5.9948   6.1983
     6.9677   7.0254   8.7096   9.8114  11.8906  13.0700  13.5043  15.2250
    15.7922  17.0022

          k = 0.0000 0.2844 0.0000 (  5874 PWs)   bands (ev):

   -45.4991 -23.8856 -23.5960 -23.2922 -20.6850 -12.6923  -2.9970  -2.7866
    -2.5510  -1.2065  -0.7903   0.8125   3.5748   5.6237   6.1513   6.5118
     7.2111   7.3930   9.1858  10.2266  11.7734  12.7691  13.8835  15.6541
    16.1839  16.5605

          k = 0.0000 0.3555 0.0000 (  5874 PWs)   bands (ev):

   -45.4890 -23.8780 -23.6824 -23.3132 -20.6701 -12.5361  -3.0886  -2.7043
    -2.5611  -1.7250  -0.8306   0.6663   3.4528   5.7901   6.4137   6.8635
     7.4045   7.8912   9.5464  10.5158  11.6399  12.4523  14.4390  14.9683
    16.1405  16.2420

          k = 0.0000 0.4266 0.0000 (  5870 PWs)   bands (ev):

   -45.4805 -23.9167 -23.7055 -23.3308 -20.6624 -12.3955  -3.1798  -2.6526
    -2.5727  -2.1847  -0.7862   0.5504   3.3673   5.9958   6.6400   7.1464
     7.6397   8.4812   9.6994  10.7215  11.7357  12.3604  13.4706  14.9027
    15.3687  15.7356

          k = 0.0000 0.4977 0.0000 (  5892 PWs)   bands (ev):

   -45.4748 -23.9635 -23.6976 -23.3426 -20.6595 -12.2969  -3.2523  -2.6581
    -2.5819  -2.4412  -0.7486   0.4766   3.3255   6.2113   6.7036   7.2883
     7.8871   9.1231   9.7710  10.8810  11.7231  12.2629  12.9258  14.3834
    14.6817  15.3226

          k = 0.0000-0.5688 0.0000 (  5874 PWs)   bands (ev):

   -45.4728 -23.9820 -23.6924 -23.3467 -20.6589 -12.2612  -3.2824  -2.6882
    -2.5854  -2.4984  -0.7347   0.4513   3.3143   6.3333   6.6692   7.3278
     7.9955   9.4754   9.8244  11.0506  11.3156  12.2009  13.0941  13.9324
    14.5060  15.1600

          k = 0.0625 0.0356 0.0000 (  5870 PWs)   bands (ev):

   -45.5231 -23.9702 -23.2772 -23.2543 -20.7525 -13.0331  -3.1917  -2.5927
    -2.5608  -1.1756   0.9970   1.1459   3.7479   5.6331   5.7743   5.8478
     6.5874   6.6796   7.9428   8.8415  11.1503  13.8997  14.1860  14.6131
    15.0867  17.3093

          k = 0.0625 0.1067 0.0000 (  5846 PWs)   bands (ev):

   -45.5193 -23.9552 -23.3371 -23.2562 -20.7382 -12.9818  -3.1313  -2.6617
    -2.5515  -1.1408   0.5942   1.1019   3.7561   5.5347   5.8902   5.9564
     6.5891   6.7973   8.1612   9.1811  11.4055  13.6195  13.9387  14.8216
    15.0716  17.3496

          k = 0.0625 0.1778 0.0000 (  5844 PWs)   bands (ev):

   -45.5122 -23.9282 -23.4325 -23.2708 -20.7156 -12.8843  -3.0298  -2.7584
    -2.5515  -1.0918  -0.0014   0.9664   3.7345   5.4772   6.0089   6.1161
     6.7724   6.9874   8.5482   9.6561  11.8658  13.0960  13.6290  14.9637
    15.6323  16.9485

          k = 0.0625 0.2489 0.0000 (  5858 PWs)   bands (ev):

   -45.5030 -23.8959 -23.5456 -23.2920 -20.6924 -12.7511  -2.9574  -2.8194
    -2.5581  -1.0887  -0.6175   0.7932   3.6574   5.5294   6.0852   6.4258
     7.0465   7.2715   9.0155  10.1136  12.0337  12.9243  13.4029  15.3864
    16.2662  16.5233

          k = 0.0625 0.3200 0.0000 (  5863 PWs)   bands (ev):

   -45.4929 -23.8734 -23.6478 -23.3154 -20.6743 -12.5987  -3.0274  -2.7451
    -2.5715  -1.4482  -0.8391   0.6183   3.5520   5.6906   6.2400   6.7784
     7.2801   7.7095   9.4466  10.4914  11.7936  12.5945  14.1374  15.1971
    15.8873  16.3440

          k = 0.0625 0.3911 0.0000 (  5869 PWs)   bands (ev):

   -45.4836 -23.8894 -23.6995 -23.3371 -20.6633 -12.4491  -3.1201  -2.6708
    -2.5923  -1.9500  -0.8089   0.4671   3.4654   5.9118   6.4519   7.0576
     7.5040   8.2922   9.7167  10.7589  11.7451  12.3971  14.0113  14.7809
    15.4105  16.2468

          k = 0.0625 0.4622 0.0000 (  5873 PWs)   bands (ev):

   -45.4765 -23.9369 -23.7003 -23.3537 -20.6582 -12.3282  -3.1983  -2.6631
    -2.6054  -2.2888  -0.7654   0.3571   3.4180   6.1458   6.6201   7.2074
     7.7138   8.9846   9.8335  10.9340  11.8381  12.3790  13.0628  14.5137
    14.8507  15.6331

          k = 0.0625 0.5333 0.0000 (  5872 PWs)   bands (ev):

   -45.4726 -23.9703 -23.6917 -23.3628 -20.6566 -12.2602  -3.2482  -2.7227
    -2.5975  -2.4169  -0.7392   0.2994   3.4016   6.3319   6.6622   7.2611
     7.8557   9.5706   9.9518  11.0679  11.5326  12.2307  13.0182  14.0158
    14.5472  15.1474

          k = 0.1250 0.0711 0.0000 (  5859 PWs)   bands (ev):

   -45.5170 -23.9471 -23.3546 -23.2717 -20.7318 -12.9534  -3.1022  -2.6784
    -2.5652  -1.1229   0.4560   1.0237   3.7623   5.5824   5.8590   5.9621
     6.6631   6.8074   8.2772   9.3281  11.5312  13.4960  13.9165  14.9235
    14.9953  17.3562

          k = 0.1250 0.1422 0.0000 (  5856 PWs)   bands (ev):

   -45.5118 -23.9271 -23.4263 -23.2809 -20.7154 -12.8808  -3.0277  -2.7517
    -2.5626  -1.0881   0.0314   0.9106   3.7484   5.4940   6.0006   6.0930
     6.7782   6.9670   8.5603   9.6638  11.8773  13.1222  13.6519  14.9713
    15.5601  16.9205

          k = 0.1250 0.2133 0.0000 (  5851 PWs)   bands (ev):

   -45.5040 -23.8989 -23.5202 -23.3026 -20.6949 -12.7683  -2.9327  -2.8334
    -2.5720  -1.0633  -0.4840   0.7014   3.7145   5.4614   6.1153   6.3958
     6.9288   7.2501   8.9653  10.0873  12.4203  12.7102  13.2488  15.2149
    16.1749  16.4821

          k = 0.1250 0.2844 0.0000 (  5852 PWs)   bands (ev):

   -45.4947 -23.8722 -23.6157 -23.3314 -20.6760 -12.6289  -2.9593  -2.7913
    -2.5924  -1.2362  -0.8235   0.4591   3.6658   5.5471   6.2285   6.7164
     7.1726   7.6486   9.4005  10.5232  12.2702  12.7432  13.3514  15.1464
    15.9285  16.4094

          k = 0.1250 0.3555 0.0000 (  5867 PWs)   bands (ev):

   -45.4854 -23.8681 -23.6821 -23.3615 -20.6624 -12.4815  -3.0451  -2.7019
    -2.6237  -1.6887  -0.8293   0.2324   3.6239   5.7566   6.3508   6.9344
     7.4371   8.2356   9.7630  10.9249  12.0259  12.5075  14.1168  14.4743
    15.2077  16.2602

          k = 0.1250 0.4266 0.0000 (  5872 PWs)   bands (ev):

   -45.4775 -23.9013 -23.6974 -23.3875 -20.6546 -12.3494  -3.1180  -2.6923
    -2.6278  -2.0613  -0.7876   0.0507   3.6063   6.0454   6.4592   7.0840
     7.5991   8.9859   9.9826  11.2253  11.9777  12.4484  13.4873  14.2622
    14.9410  16.0825

          k = 0.1250 0.4977 0.0000 (  5871 PWs)   bands (ev):

   -45.4722 -23.9396 -23.6895 -23.4050 -20.6512 -12.2570  -3.1683  -2.7701
    -2.6003  -2.2570  -0.7533  -0.0666   3.6088   6.3156   6.5407   7.1716
     7.6491   9.7328  10.1486  11.3590  11.9142  12.3610  12.9252  14.0353
    14.6096  15.4174

          k = 0.1250 0.5688 0.0000 (  5878 PWs)   bands (ev):

   -45.4704 -23.9548 -23.6847 -23.4112 -20.6503 -12.2237  -3.1872  -2.8123
    -2.5924  -2.3082  -0.7403  -0.1073   3.6129   6.4159   6.5973   7.1822
     7.6584   9.9448  10.5131  11.3869  11.5156  12.2520  13.0732  13.8662
    14.5828  14.9520

          k = 0.1250 0.0000 0.0000 (  5872 PWs)   bands (ev):

   -45.5189 -23.9542 -23.3244 -23.2729 -20.7380 -12.9784  -3.1293  -2.6457
    -2.5721  -1.1373   0.6416   1.0361   3.7648   5.6385   5.7782   5.9525
     6.5745   6.7877   8.1771   9.1945  11.4168  13.6817  13.9591  14.7482
    15.0096  17.3478

          k = 0.1875 0.1067 0.0000 (  5867 PWs)   bands (ev):

   -45.5080 -23.9139 -23.4687 -23.2920 -20.7068 -12.8294  -2.9945  -2.7797
    -2.5689  -1.0721  -0.2299   0.8663   3.7217   5.5545   6.0092   6.1070
     6.9611   7.0026   8.7418   9.8265  11.9093  13.1163  13.5557  15.2646
    15.6330  17.0211

          k = 0.1875 0.1778 0.0000 (  5870 PWs)   bands (ev):

   -45.5020 -23.8932 -23.5384 -23.3087 -20.6922 -12.7421  -2.9517  -2.8139
    -2.5757  -1.0757  -0.5823   0.7018   3.6883   5.5337   6.0864   6.3901
     7.0249   7.2715   9.0401  10.1201  12.0355  12.9644  13.4664  15.4241
    16.1869  16.4844

          k = 0.1875 0.2489 0.0000 (  5864 PWs)   bands (ev):

   -45.4941 -23.8705 -23.6124 -23.3404 -20.6761 -12.6234  -2.9554  -2.7910
    -2.6004  -1.2206  -0.8141   0.4097   3.6835   5.5431   6.2272   6.7089
     7.1555   7.6540   9.4132  10.5221  12.2583  12.7461  13.4217  15.1497
    15.9778  16.4251

          k = 0.1875 0.3200 0.0000 (  5877 PWs)   bands (ev):

   -45.4856 -23.8596 -23.6694 -23.3810 -20.6620 -12.4884  -3.0037  -2.7280
    -2.6367  -1.5485  -0.8383   0.0738   3.7135   5.6367   6.3994   6.8230
     7.4254   8.2257   9.7887  10.9843  12.3572  12.6002  13.6480  14.4160
    15.5556  16.0131

          k = 0.1875 0.3911 0.0000 (  5868 PWs)   bands (ev):

   -45.4777 -23.8748 -23.6903 -23.4221 -20.6519 -12.3571  -3.0565  -2.7232
    -2.6356  -1.8578  -0.8141  -0.2286   3.7686   5.8345   6.5228   6.8994
     7.5959   8.9968  10.0909  11.4368  12.2491  12.5872  13.7186  14.2277
    14.6259  15.7048

          k = 0.1875 0.4622 0.0000 (  5868 PWs)   bands (ev):

   -45.4716 -23.9037 -23.6857 -23.4552 -20.6460 -12.2518  -3.0988  -2.7885
    -2.5991  -2.0644  -0.7889  -0.4499   3.8297   6.1092   6.5303   7.0549
     7.5938   9.8390  10.2731  11.7386  12.1663  12.6726  13.1298  13.9381
    14.6464  15.5438

          k = 0.1875 0.5333 0.0000 (  5882 PWs)   bands (ev):

   -45.4684 -23.9232 -23.6782 -23.4736 -20.6434 -12.1929  -3.1224  -2.8435
    -2.5805  -2.1564  -0.7750  -0.5650   3.8708   6.3513   6.5033   7.1787
     7.4967  10.1632  10.8523  11.7293  11.9589  12.4165  13.0889  13.9758
    14.5024  15.1349

          k = 0.1875-0.0356 0.0000 (  5864 PWs)   bands (ev):

   -45.5112 -23.9257 -23.4235 -23.2892 -20.7154 -12.8755  -3.0254  -2.7466
    -2.5738  -1.0832   0.0319   0.8930   3.7541   5.5412   5.9983   6.0305
     6.7318   6.9963   8.5796   9.6716  11.8851  13.1213  13.6580  14.9502
    15.5346  16.9431

          k = 0.2500 0.1422 0.0000 (  5878 PWs)   bands (ev):

   -45.4972 -23.8810 -23.5895 -23.3153 -20.6852 -12.6753  -2.9895  -2.7802
    -2.5771  -1.1817  -0.7662   0.6962   3.6158   5.6269   6.1782   6.4348
     7.1649   7.4151   9.2271  10.2331  11.7790  12.8137  13.9714  15.7402
    16.2875  16.4219

          k = 0.2500 0.2133 0.0000 (  5886 PWs)   bands (ev):

   -45.4912 -23.8689 -23.6420 -23.3368 -20.6746 -12.5826  -3.0203  -2.7422
    -2.5931  -1.4180  -0.8217   0.5047   3.5932   5.6841   6.2459   6.7443
     7.2408   7.7280   9.4799  10.4872  11.7990  12.6335  14.2552  15.2953
    15.9005  16.3409

          k = 0.2500 0.2844 0.0000 (  5877 PWs)   bands (ev):

   -45.4841 -23.8646 -23.6781 -23.3772 -20.6629 -12.4688  -3.0399  -2.7062
    -2.6331  -1.6656  -0.8181   0.1503   3.6533   5.7500   6.3506   6.9198
     7.4161   8.2466   9.7846  10.9107  12.0252  12.5172  14.2009  14.5622
    15.2684  16.2680

          k = 0.2500 0.3555 0.0000 (  5875 PWs)   bands (ev):

   -45.4770 -23.8732 -23.6883 -23.4299 -20.6523 -12.3499  -3.0545  -2.7309
    -2.6337  -1.8475  -0.8098  -0.2670   3.7818   5.8339   6.5200   6.8944
     7.5901   9.0017  10.1022  11.4239  12.2537  12.5553  13.7329  14.3415
    14.6820  15.6339

          k = 0.2500 0.4266 0.0000 (  5876 PWs)   bands (ev):

   -45.4709 -23.8861 -23.6820 -23.4834 -20.6443 -12.2448  -3.0759  -2.7905
    -2.5978  -1.9488  -0.8535  -0.6061   3.9374   5.9746   6.5827   6.9613
     7.6037   9.8739  10.3379  11.7722  12.2838  12.9087  13.4870  14.0107
    14.4451  15.0087

          k = 0.2500 0.4977 0.0000 (  5873 PWs)   bands (ev):

   -45.4669 -23.8943 -23.6732 -23.5236 -20.6393 -12.1721  -3.1064  -2.8192
    -2.5698  -1.9888  -1.0354  -0.7018   4.0653   6.1680   6.5124   7.1218
     7.4965  10.3008  10.8571  11.7328  12.5361  13.0522  13.2094  13.8417
    14.4095  14.9756

          k = 0.2500 0.5688 0.0000 (  5864 PWs)   bands (ev):

   -45.4655 -23.8967 -23.6696 -23.5387 -20.6377 -12.1461  -3.1220  -2.8240
    -2.5592  -1.9968  -1.1301  -0.7107   4.1149   6.2900   6.4622   7.1706
     7.4378  10.2672  11.6236  11.8121  11.8709  13.0587  13.4165  13.8608
    14.4370  15.0363

          k = 0.2500-0.0711 0.0000 (  5875 PWs)   bands (ev):

   -45.5013 -23.8919 -23.5410 -23.3115 -20.6927 -12.7355  -2.9513  -2.8130
    -2.5819  -1.0737  -0.6003   0.7122   3.6847   5.5518   6.0869   6.3560
     7.0014   7.2935   9.0579  10.1239  12.0284  12.9533  13.4345  15.4035
    16.2543  16.5202

          k = 0.2500 0.0000 0.0000 (  5876 PWs)   bands (ev):

   -45.5027 -23.8960 -23.5203 -23.3135 -20.6953 -12.7563  -2.9291  -2.8304
    -2.5875  -1.0540  -0.4951   0.6798   3.7224   5.4926   6.1009   6.3468
     6.8897   7.2752   8.9993  10.0956  12.4236  12.6802  13.2490  15.2200
    16.2130  16.4874

          k = 0.3125 0.1778 0.0000 (  5884 PWs)   bands (ev):

   -45.4865 -23.8731 -23.6779 -23.3384 -20.6711 -12.5114  -3.0821  -2.7009
    -2.5898  -1.7055  -0.8096   0.5395   3.4966   5.7779   6.4370   6.8132
     7.3594   7.9222   9.5894  10.5081  11.6604  12.5007  14.5953  15.0632
    16.0757  16.2533

          k = 0.3125 0.2489 0.0000 (  5893 PWs)   bands (ev):

   -45.4812 -23.8849 -23.6943 -23.3616 -20.6644 -12.4253  -3.1128  -2.6731
    -2.6146  -1.9295  -0.7884   0.3408   3.5096   5.8992   6.4661   7.0227
     7.4712   8.3179   9.7493  10.7400  11.7726  12.4439  14.1564  14.8544
    15.4199  16.2866

          k = 0.3125 0.3200 0.0000 (  5897 PWs)   bands (ev):

   -45.4755 -23.8982 -23.6926 -23.4074 -20.6559 -12.3289  -3.1123  -2.7123
    -2.6255  -2.0478  -0.7710  -0.0476   3.6396   6.0382   6.4653   7.0620
     7.5864   9.0021  10.0077  11.1858  11.9949  12.4755  13.5986  14.2811
    15.0524  16.1278

          k = 0.3125 0.3911 0.0000 (  5878 PWs)   bands (ev):

   -45.4702 -23.9024 -23.6820 -23.4682 -20.6472 -12.2369  -3.0973  -2.7979
    -2.5984  -2.0584  -0.7847  -0.5037   3.8478   6.1154   6.5263   7.0445
     7.5883   9.8567  10.2936  11.7001  12.1414  12.6716  13.2388  13.9311
    14.7562  15.4696

          k = 0.3125 0.4622 0.0000 (  5864 PWs)   bands (ev):

   -45.4662 -23.8945 -23.6713 -23.5291 -20.6401 -12.1644  -3.1081  -2.8217
    -2.5700  -1.9875  -1.0584  -0.6985   4.0700   6.1772   6.5100   7.1168
     7.4931  10.3259  10.8599  11.7171  12.5617  13.0404  13.2278  13.7746
    14.4480  15.0009

          k = 0.3125 0.5333 0.0000 (  5865 PWs)   bands (ev):

   -45.4640 -23.8832 -23.6657 -23.5692 -20.6362 -12.1244  -3.1352  -2.7993
    -2.5486  -1.8537  -1.4128  -0.7117   4.2200   6.2472   6.4556   7.1093
     7.4736  10.2954  11.6301  11.7692  12.6426  12.8645  13.5860  13.7545
    14.5485  15.1611

          k = 0.3125-0.1067 0.0000 (  5884 PWs)   bands (ev):

   -45.4905 -23.8689 -23.6458 -23.3366 -20.6754 -12.5756  -3.0233  -2.7408
    -2.5975  -1.4394  -0.8226   0.5271   3.5815   5.6848   6.2421   6.7417
     7.2424   7.7363   9.4948  10.4895  11.7865  12.6261  14.1904  15.2928
    15.9159  16.3600

          k = 0.3125-0.0356 0.0000 (  5868 PWs)   bands (ev):

   -45.4927 -23.8689 -23.6180 -23.3442 -20.6773 -12.6097  -2.9591  -2.7880
    -2.6107  -1.2445  -0.8211   0.4289   3.6734   5.5570   6.2068   6.6954
     7.1507   7.6704   9.4446  10.5283  12.2276  12.7322  13.3573  15.1815
    16.0207  16.4522

          k = 0.3750 0.2133 0.0000 (  5903 PWs)   bands (ev):

   -45.4773 -23.9146 -23.6993 -23.3578 -20.6643 -12.3636  -3.1727  -2.6545
    -2.6039  -2.1771  -0.7603   0.4158   3.4115   5.9794   6.6508   7.1126
     7.6098   8.5234   9.7354  10.7131  11.7817  12.4255  13.5991  14.9979
    15.4776  15.5839

          k = 0.3750 0.2844 0.0000 (  5874 PWs)   bands (ev):

   -45.4735 -23.9350 -23.6936 -23.3801 -20.6603 -12.2972  -3.1898  -2.6830
    -2.6158  -2.2836  -0.7401   0.2260   3.4616   6.1284   6.6374   7.1683
     7.7044   9.0157   9.8600  10.9169  11.8941  12.4535  13.1643  14.5417
    14.9417  15.5904

          k = 0.3750 0.3555 0.0000 (  5870 PWs)   bands (ev):

   -45.4696 -23.9388 -23.6833 -23.4269 -20.6534 -12.2294  -3.1622  -2.7887
    -2.6021  -2.2598  -0.7319  -0.1678   3.6404   6.2987   6.5612   7.1410
     7.6509   9.7694  10.1652  11.3076  11.9752  12.4330  12.9760  14.0548
    14.7069  15.4305

          k = 0.3750 0.4266 0.0000 (  5865 PWs)   bands (ev):

   -45.4663 -23.9243 -23.6732 -23.4884 -20.6455 -12.1711  -3.1228  -2.8544
    -2.5818  -2.1634  -0.7801  -0.6066   3.8860   6.3546   6.5121   7.1546
     7.5008  10.2203  10.8603  11.7365  11.9622  12.3983  13.1350  14.0046
    14.5476  15.1827

          k = 0.3750 0.4977 0.0000 (  5860 PWs)   bands (ev):

   -45.4641 -23.8998 -23.6665 -23.5454 -20.6394 -12.1316  -3.1263  -2.8305
    -2.5606  -2.0098  -1.1548  -0.6986   4.1148   6.2983   6.4711   7.1600
     7.4355  10.3172  11.6032  11.8679  11.9404  12.9321  13.4012  13.8549
    14.4679  15.0691

          k = 0.3750 0.5688 0.0000 (  5866 PWs)   bands (ev):

   -45.4634 -23.8864 -23.6645 -23.5700 -20.6371 -12.1176  -3.1376  -2.8038
    -2.5497  -1.8781  -1.4020  -0.7049   4.2142   6.2461   6.4664   7.1079
     7.4721  10.3214  11.6146  11.8841  12.5959  12.8426  13.4843  13.8011
    14.5643  15.1766

          k = 0.3750-0.1422 0.0000 (  5886 PWs)   bands (ev):

   -45.4806 -23.8878 -23.6955 -23.3602 -20.6653 -12.4190  -3.1167  -2.6702
    -2.6197  -1.9522  -0.7861   0.3646   3.4955   5.8940   6.4518   7.0375
     7.4797   8.3324   9.7640  10.7408  11.7671  12.4434  14.1396  14.8131
    15.4575  16.2401

          k = 0.3750-0.0711 0.0000 (  5879 PWs)   bands (ev):

   -45.4828 -23.8676 -23.6823 -23.3764 -20.6647 -12.4554  -3.0465  -2.7020
    -2.6430  -1.7099  -0.8138   0.1879   3.6319   5.7507   6.3365   6.9166
     7.4376   8.2688   9.8149  10.9170  11.9992  12.5085  14.1307  14.5478
    15.2464  16.3123

          k = 0.3750 0.0000 0.0000 (  5874 PWs)   bands (ev):

   -45.4836 -23.8608 -23.6738 -23.3860 -20.6642 -12.4681  -3.0097  -2.7265
    -2.6496  -1.5934  -0.8303   0.0895   3.7000   5.6429   6.3753   6.8150
     7.4418   8.2533   9.8333  10.9922  12.3344  12.5389  13.6135  14.4475
    15.5825  16.0620

          k = 0.4375 0.2489 0.0000 (  5875 PWs)   bands (ev):

   -45.4712 -23.9638 -23.6898 -23.3707 -20.6622 -12.2597  -3.2431  -2.6689
    -2.6150  -2.4386  -0.7192   0.3373   3.3701   6.1972   6.6975   7.2535
     7.8867   9.1752   9.8005  10.8888  11.8105  12.3599  12.9894  14.4627
    14.7985  15.1367

          k = 0.4375 0.3200 0.0000 (  5870 PWs)   bands (ev):

   -45.4692 -23.9708 -23.6839 -23.3896 -20.6594 -12.2241  -3.2390  -2.7446
    -2.6094  -2.4241  -0.7108   0.1699   3.4426   6.3166   6.6622   7.2259
     7.8672   9.6227   9.9597  11.0719  11.6449  12.3070  13.0602  14.0811
    14.6551  15.0194

          k = 0.4375 0.3911 0.0000 (  5873 PWs)   bands (ev):

   -45.4673 -23.9567 -23.6777 -23.4329 -20.6532 -12.1914  -3.1824  -2.8330
    -2.5964  -2.3229  -0.7169  -0.2008   3.6391   6.4033   6.6018   7.1536
     7.6732  10.0160  10.5171  11.4308  11.5296  12.2964  13.1105  13.9252
    14.6534  14.9207

          k = 0.4375 0.4622 0.0000 (  5868 PWs)   bands (ev):

   -45.4659 -23.9277 -23.6727 -23.4871 -20.6463 -12.1665  -3.1247  -2.8598
    -2.5827  -2.1775  -0.7803  -0.5901   3.8778   6.3456   6.5181   7.1415
     7.5208  10.2365  10.9481  11.7287  11.9000  12.3936  13.1435  14.0017
    14.5259  15.1562

          k = 0.4375 0.5333 0.0000 (  5865 PWs)   bands (ev):

   -45.4652 -23.9015 -23.6700 -23.5279 -20.6418 -12.1531  -3.1114  -2.8326
    -2.5718  -2.0252  -1.0414  -0.6818   4.0549   6.1690   6.5317   7.0884
     7.5212  10.3590  10.9800  11.6937  12.5738  12.9761  13.1722  13.8116
    14.4273  14.9582

          k = 0.4375-0.1778 0.0000 (  5884 PWs)   bands (ev):

   -45.4731 -23.9382 -23.6934 -23.3787 -20.6610 -12.2927  -3.1934  -2.6820
    -2.6183  -2.2987  -0.7384   0.2435   3.4506   6.1297   6.6093   7.1864
     7.7092   9.0444   9.8772  10.9155  11.8897  12.4614  13.1509  14.5159
    14.9455  15.5803

          k = 0.4375-0.1067 0.0000 (  5883 PWs)   bands (ev):

   -45.4745 -23.9048 -23.6929 -23.4050 -20.6576 -12.3181  -3.1189  -2.7144
    -2.6296  -2.0846  -0.7673  -0.0108   3.6180   6.0313   6.4546   7.0565
     7.6154   9.0425  10.0448  11.1870  11.9844  12.4840  13.5666  14.2649
    14.9984  16.0932

          k = 0.4375-0.0356 0.0000 (  5881 PWs)   bands (ev):

   -45.4753 -23.8809 -23.6893 -23.4294 -20.6548 -12.3318  -3.0622  -2.7384
    -2.6379  -1.9030  -0.8028  -0.2268   3.7576   5.8341   6.5202   6.8681
     7.6270   9.0483  10.1556  11.4359  12.2532  12.5086  13.7346  14.2493
    14.6417  15.6690

          k =-0.5000-0.2844 0.0000 (  5882 PWs)   bands (ev):

   -45.4691 -23.9830 -23.6840 -23.3752 -20.6619 -12.2221  -3.2724  -2.7039
    -2.6194  -2.4961  -0.7040   0.3105   3.3592   6.3250   6.6511   7.2914
     8.0086   9.5414   9.8327  11.0711  11.4360  12.2837  13.1485  14.0039
    14.6231  14.9639

          k =-0.5000-0.2133 0.0000 (  5876 PWs)   bands (ev):

   -45.4691 -23.9721 -23.6837 -23.3891 -20.6597 -12.2225  -3.2406  -2.7451
    -2.6100  -2.4287  -0.7102   0.1763   3.4385   6.3237   6.6416   7.2352
     7.8668   9.6471   9.9657  11.0764  11.6238  12.3124  13.0705  14.0640
    14.6251  15.0431

          k =-0.5000-0.1422 0.0000 (  5872 PWs)   bands (ev):

   -45.4691 -23.9435 -23.6828 -23.4250 -20.6544 -12.2233  -3.1667  -2.7931
    -2.6036  -2.2779  -0.7305  -0.1455   3.6273   6.3054   6.5325   7.1438
     7.6694   9.8103  10.2106  11.3073  11.9404  12.4418  12.9749  14.0313
    14.6715  15.4261

          k =-0.5000-0.0711 0.0000 (  5881 PWs)   bands (ev):

   -45.4691 -23.9107 -23.6812 -23.4657 -20.6492 -12.2242  -3.1028  -2.8083
    -2.6007  -2.0991  -0.7826  -0.4641   3.8266   6.1053   6.5409   7.0107
     7.6289   9.9055  10.3705  11.7046  12.1396  12.6521  13.1895  13.9265
    14.6895  15.4592

          k =-0.5000-0.0000 0.0000 (  5884 PWs)   bands (ev):

   -45.4691 -23.8955 -23.6801 -23.4846 -20.6470 -12.2245  -3.0818  -2.8060
    -2.6000  -2.0013  -0.8490  -0.5733   3.9174   5.9744   6.6114   6.9062
     7.6448   9.9312  10.4331  11.7616  12.3288  12.8005  13.4764  13.9898
    14.4217  14.9726

     highest occupied, lowest unoccupied level (ev):     4.2200    5.4614

!    total energy              =    -571.23423055 Ry
     total all-electron energy =    -12610.611642 Ry
     estimated scf accuracy    <          3.2E-11 Ry

     The total energy is the sum of the following terms:
     one-electron contribution =    -277.57268153 Ry
     hartree contribution      =     147.19995957 Ry
     xc contribution           =     -36.33758361 Ry
     ewald contribution        =      -7.66959685 Ry
     one-center paw contrib.   =    -396.85432813 Ry

     convergence has been achieved in   6 iterations

     negative rho (up, down):  3.715E-05 0.000E+00

     Forces acting on atoms (cartesian axes, Ry/au):

     atom    1 type  1   force =     0.00000000   -0.00000234   -0.00009662
     atom    2 type  2   force =     0.00000000    0.00019459    0.00009481
     atom    3 type  3   force =     0.00000000   -0.00019225    0.00000181
     The non-local contrib.  to forces
     atom    1 type  1   force =     0.00000000    0.00303273   -0.02496889
     atom    2 type  2   force =     0.00000000    0.02131765   -0.97781179
     atom    3 type  3   force =     0.00000000    0.00111421    0.21086668
     The ionic contribution  to forces
     atom    1 type  1   force =    -0.00000001    0.16187440   -0.47133069
     atom    2 type  2   force =     0.00000001   -0.11778986   24.24415674
     atom    3 type  3   force =     0.00000000   -0.04408453  -23.77282605
     The local contribution  to forces
     atom    1 type  1   force =    -0.00000000   -0.16478247    0.49203143
     atom    2 type  2   force =     0.00000027    0.09673089  -23.26943111
     atom    3 type  3   force =    -0.00000000    0.04266436   23.56471303
     The core correction contribution to forces
     atom    1 type  1   force =    -0.00000000   -0.00012682    0.00417672
     atom    2 type  2   force =     0.00000000   -0.00006464    0.00317958
     atom    3 type  3   force =    -0.00000000    0.00011346   -0.00276161
     The Hubbard contrib.    to forces
     atom    1 type  1   force =     0.00000000    0.00000000    0.00000000
     atom    2 type  2   force =     0.00000000    0.00000000    0.00000000
     atom    3 type  3   force =     0.00000000    0.00000000    0.00000000
     The SCF correction term to forces
     atom    1 type  1   force =     0.00000000   -0.00000031   -0.00000875
     atom    2 type  2   force =     0.00000000    0.00000041   -0.00000218
     atom    3 type  3   force =    -0.00000000    0.00000011    0.00000619

     Total force =     0.000305     Total SCF correction =     0.000011
     Energy error            =      6.9E-07 Ry
     Gradient error          =      1.9E-04 Ry/Bohr

     number of scf cycles    =   9
     number of bfgs steps    =   8

     energy             old  =    -571.2342298647 Ry
     energy             new  =    -571.2342305546 Ry

     CASE: energy            _new < energy            _old

     new trust radius        =       0.0021998055 bohr
     new conv_thr            =            1.0E-10 Ry


ATOMIC_POSITIONS (angstrom)
Zr            0.0000000000       -0.0176254455       10.1031087111
F            -0.0000000020        1.9420502840       11.3995528580
Br           -0.0000000020        1.9373829247        8.2155171439



     Writing config-only to output data dir ./tmp/ZrFBr.save/
     NEW-OLD atomic charge density approx. for the potential

     Check: negative core charge=   -0.000002

     negative rho (up, down):  3.722E-05 0.000E+00

     total cpu time spent up to now is      103.3 secs

     Self-consistent Calculation

     iteration #  1     ecut=    65.00 Ry     beta= 0.70
     Davidson diagonalization with overlap
     ethr =  1.00E-06,  avg # of iterations =  2.1

     Threshold (ethr) on eigenvalues was too large:
     Diagonalizing with lowered threshold

     Davidson diagonalization with overlap
     ethr =  8.73E-10,  avg # of iterations =  3.9

     negative rho (up, down):  3.725E-05 0.000E+00

     total cpu time spent up to now is      106.6 secs

     total energy              =    -571.23423093 Ry
     estimated scf accuracy    <       0.00000027 Ry

     iteration #  2     ecut=    65.00 Ry     beta= 0.70
     Davidson diagonalization with overlap
     ethr =  1.04E-09,  avg # of iterations =  2.0

     negative rho (up, down):  3.721E-05 0.000E+00

     total cpu time spent up to now is      107.9 secs

     total energy              =    -571.23423093 Ry
     estimated scf accuracy    <       0.00000008 Ry

     iteration #  3     ecut=    65.00 Ry     beta= 0.70
     Davidson diagonalization with overlap
     ethr =  3.11E-10,  avg # of iterations =  2.0

     negative rho (up, down):  3.722E-05 0.000E+00

     total cpu time spent up to now is      109.3 secs

     total energy              =    -571.23423094 Ry
     estimated scf accuracy    <       0.00000014 Ry

     iteration #  4     ecut=    65.00 Ry     beta= 0.70
     Davidson diagonalization with overlap
     ethr =  3.11E-10,  avg # of iterations =  1.0

     negative rho (up, down):  3.722E-05 0.000E+00

     total cpu time spent up to now is      110.5 secs

     total energy              =    -571.23423097 Ry
     estimated scf accuracy    <          1.4E-09 Ry

     iteration #  5     ecut=    65.00 Ry     beta= 0.70
     Davidson diagonalization with overlap
     ethr =  5.23E-12,  avg # of iterations =  2.0

     negative rho (up, down):  3.722E-05 0.000E+00

     total cpu time spent up to now is      111.9 secs

     total energy              =    -571.23423097 Ry
     estimated scf accuracy    <          7.0E-10 Ry

     iteration #  6     ecut=    65.00 Ry     beta= 0.70
     Davidson diagonalization with overlap
     ethr =  2.67E-12,  avg # of iterations =  2.0

     negative rho (up, down):  3.722E-05 0.000E+00

     total cpu time spent up to now is      113.2 secs

     End of self-consistent calculation

          k = 0.0000 0.0000 0.0000 (  5879 PWs)   bands (ev):

   -45.5245 -23.9780 -23.2596 -23.2365 -20.7609 -13.0606  -3.2255  -2.5739
    -2.5461  -1.1972   1.1471   1.2549   3.7347   5.6286   5.7480   5.8024
     6.5957   6.6723   7.8187   8.6158  11.0189  13.8479  14.3992  14.6622
    15.2021  17.0920

          k = 0.0000 0.0711 0.0000 (  5863 PWs)   bands (ev):

   -45.5225 -23.9701 -23.2881 -23.2407 -20.7529 -13.0343  -3.1930  -2.6077
    -2.5456  -1.1767   0.9333   1.2176   3.7452   5.5745   5.8431   5.8456
     6.5562   6.7219   7.9364   8.8329  11.1454  13.8989  14.0630  14.7906
    15.0649  17.2479

          k = 0.0000 0.1422 0.0000 (  5849 PWs)   bands (ev):

   -45.5169 -23.9480 -23.3670 -23.2527 -20.7324 -12.9580  -3.1056  -2.6941
    -2.5449  -1.1277   0.3939   1.1149   3.7478   5.5075   5.9450   5.9723
     6.6451   6.8528   8.2580   9.3114  11.5133  13.4383  13.8766  14.8982
    15.1721  17.3216

          k = 0.0000 0.2133 0.0000 (  5850 PWs)   bands (ev):

   -45.5084 -23.9164 -23.4780 -23.2706 -20.7074 -12.8395  -3.0006  -2.7911
    -2.5467  -1.0828  -0.2775   0.9706   3.6918   5.5187   5.9940   6.1986
     6.9676   7.0270   8.7101   9.8117  11.8901  13.0703  13.5045  15.2249
    15.7929  17.0028

          k = 0.0000 0.2844 0.0000 (  5874 PWs)   bands (ev):

   -45.4984 -23.8852 -23.5952 -23.2917 -20.6854 -12.6924  -2.9975  -2.7870
    -2.5527  -1.2071  -0.7899   0.8128   3.5764   5.6256   6.1500   6.5119
     7.2130   7.3933   9.1866  10.2271  11.7729  12.7685  13.8839  15.6538
    16.1840  16.5610

          k = 0.0000 0.3555 0.0000 (  5874 PWs)   bands (ev):

   -45.4883 -23.8775 -23.6817 -23.3126 -20.6705 -12.5362  -3.0890  -2.7049
    -2.5628  -1.7252  -0.8305   0.6666   3.4545   5.7919   6.4126   6.8636
     7.4066   7.8919   9.5475  10.5163  11.6392  12.4515  14.4399  14.9669
    16.1409  16.2423

          k = 0.0000 0.4266 0.0000 (  5870 PWs)   bands (ev):

   -45.4798 -23.9161 -23.7049 -23.3303 -20.6627 -12.3957  -3.1803  -2.6534
    -2.5744  -2.1847  -0.7862   0.5507   3.3689   5.9976   6.6397   7.1467
     7.6417   8.4822   9.7000  10.7217  11.7349  12.3600  13.4704  14.9021
    15.3696  15.7356

          k = 0.0000 0.4977 0.0000 (  5892 PWs)   bands (ev):

   -45.4741 -23.9629 -23.6971 -23.3421 -20.6599 -12.2970  -3.2529  -2.6588
    -2.5836  -2.4412  -0.7487   0.4769   3.3270   6.2131   6.7041   7.2890
     7.8888   9.1242   9.7710  10.8809  11.7227  12.2626  12.9252  14.3838
    14.6817  15.3224

          k = 0.0000-0.5688 0.0000 (  5874 PWs)   bands (ev):

   -45.4721 -23.9813 -23.6919 -23.3462 -20.6593 -12.2614  -3.2830  -2.6887
    -2.5871  -2.4986  -0.7347   0.4517   3.3158   6.3351   6.6700   7.3287
     7.9971   9.4765   9.8243  11.0511  11.3147  12.1998  13.0942  13.9328
    14.5058  15.1597

          k = 0.0625 0.0356 0.0000 (  5870 PWs)   bands (ev):

   -45.5224 -23.9698 -23.2766 -23.2537 -20.7528 -13.0331  -3.1922  -2.5933
    -2.5617  -1.1754   0.9966   1.1455   3.7489   5.6341   5.7750   5.8479
     6.5879   6.6803   7.9426   8.8414  11.1504  13.8993  14.1862  14.6132
    15.0883  17.3099

          k = 0.0625 0.1067 0.0000 (  5846 PWs)   bands (ev):

   -45.5186 -23.9548 -23.3364 -23.2557 -20.7385 -12.9818  -3.1318  -2.6619
    -2.5528  -1.1407   0.5937   1.1019   3.7572   5.5359   5.8902   5.9571
     6.5891   6.7983   8.1613   9.1811  11.4055  13.6198  13.9385  14.8219
    15.0728  17.3501

          k = 0.0625 0.1778 0.0000 (  5844 PWs)   bands (ev):

   -45.5115 -23.9277 -23.4318 -23.2703 -20.7159 -12.8843  -3.0304  -2.7585
    -2.5529  -1.0918  -0.0018   0.9666   3.7358   5.4785   6.0086   6.1164
     6.7724   6.9886   8.5485   9.6563  11.8655  13.0964  13.6291  14.9635
    15.6333  16.9492

          k = 0.0625 0.2489 0.0000 (  5858 PWs)   bands (ev):

   -45.5022 -23.8955 -23.5449 -23.2915 -20.6927 -12.7511  -2.9580  -2.8196
    -2.5597  -1.0891  -0.6173   0.7934   3.6588   5.5310   6.0847   6.4257
     7.0477   7.2722   9.0161  10.1140  12.0333  12.9241  13.4033  15.3861
    16.2669  16.5243

          k = 0.0625 0.3200 0.0000 (  5863 PWs)   bands (ev):

   -45.4922 -23.8730 -23.6471 -23.3149 -20.6746 -12.5987  -3.0278  -2.7457
    -2.5731  -1.4487  -0.8388   0.6186   3.5536   5.6923   6.2393   6.7783
     7.2820   7.7101   9.4475  10.4919  11.7931  12.5937  14.1377  15.1969
    15.8876  16.3441

          k = 0.0625 0.3911 0.0000 (  5869 PWs)   bands (ev):

   -45.4829 -23.8888 -23.6989 -23.3366 -20.6636 -12.4492  -3.1205  -2.6715
    -2.5939  -1.9501  -0.8088   0.4674   3.4670   5.9136   6.4513   7.0579
     7.5060   8.2930   9.7175  10.7592  11.7444  12.3963  14.0116  14.7803
    15.4108  16.2470

          k = 0.0625 0.4622 0.0000 (  5873 PWs)   bands (ev):

   -45.4758 -23.9362 -23.6997 -23.3532 -20.6586 -12.3284  -3.1988  -2.6642
    -2.6066  -2.2889  -0.7654   0.3574   3.4196   6.1476   6.6200   7.2081
     7.7157   8.9855   9.8337  10.9341  11.8375  12.3790  13.0622  14.5141
    14.8505  15.6333

          k = 0.0625 0.5333 0.0000 (  5872 PWs)   bands (ev):

   -45.4719 -23.9697 -23.6912 -23.3623 -20.6570 -12.2603  -3.2488  -2.7236
    -2.5986  -2.4171  -0.7392   0.2997   3.4032   6.3337   6.6626   7.2619
     7.8575   9.5716   9.9516  11.0680  11.5324  12.2300  13.0177  14.0164
    14.5471  15.1472

          k = 0.1250 0.0711 0.0000 (  5859 PWs)   bands (ev):

   -45.5163 -23.9467 -23.3541 -23.2711 -20.7320 -12.9534  -3.1026  -2.6794
    -2.5656  -1.1226   0.4558   1.0230   3.7630   5.5834   5.8593   5.9629
     6.6638   6.8079   8.2771   9.3279  11.5315  13.4966  13.9166  14.9242
    14.9953  17.3568

          k = 0.1250 0.1422 0.0000 (  5856 PWs)   bands (ev):

   -45.5111 -23.9267 -23.4257 -23.2804 -20.7157 -12.8808  -3.0283  -2.7523
    -2.5635  -1.0880   0.0311   0.9104   3.7492   5.4952   6.0002   6.0943
     6.7779   6.9682   8.5605   9.6638  11.8775  13.1225  13.6522  14.9709
    15.5611  16.9210

          k = 0.1250 0.2133 0.0000 (  5851 PWs)   bands (ev):

   -45.5033 -23.8984 -23.5196 -23.3021 -20.6952 -12.7683  -2.9333  -2.8338
    -2.5732  -1.0634  -0.4841   0.7014   3.7155   5.4627   6.1158   6.3957
     6.9292   7.2510   8.9656  10.0873  12.4203  12.7104  13.2490  15.2144
    16.1753  16.4836

          k = 0.1250 0.2844 0.0000 (  5852 PWs)   bands (ev):

   -45.4940 -23.8718 -23.6150 -23.3309 -20.6763 -12.6290  -2.9598  -2.7919
    -2.5937  -1.2367  -0.8232   0.4593   3.6670   5.5484   6.2289   6.7162
     7.1738   7.6491   9.4011  10.5234  12.2702  12.7427  13.3517  15.1467
    15.9289  16.4092

          k = 0.1250 0.3555 0.0000 (  5867 PWs)   bands (ev):

   -45.4847 -23.8676 -23.6814 -23.3610 -20.6628 -12.4816  -3.0455  -2.7027
    -2.6250  -1.6889  -0.8291   0.2325   3.6253   5.7580   6.3508   6.9349
     7.4385   8.2360   9.7636  10.9252  12.0257  12.5067  14.1169  14.4749
    15.2078  16.2597

          k = 0.1250 0.4266 0.0000 (  5872 PWs)   bands (ev):

   -45.4768 -23.9008 -23.6968 -23.3870 -20.6550 -12.3496  -3.1184  -2.6937
    -2.6286  -2.0613  -0.7875   0.0509   3.6078   6.0471   6.4590   7.0850
     7.6007   8.9863   9.9830  11.2254  11.9774  12.4479  13.4874  14.2626
    14.9406  16.0824

          k = 0.1250 0.4977 0.0000 (  5871 PWs)   bands (ev):

   -45.4715 -23.9390 -23.6890 -23.4045 -20.6515 -12.2572  -3.1688  -2.7714
    -2.6012  -2.2570  -0.7532  -0.0665   3.6103   6.3177   6.5405   7.1726
     7.6509   9.7334  10.1484  11.3588  11.9144  12.3612  12.9240  14.0362
    14.6094  15.4176

          k = 0.1250 0.5688 0.0000 (  5878 PWs)   bands (ev):

   -45.4697 -23.9541 -23.6842 -23.4107 -20.6507 -12.2239  -3.1876  -2.8136
    -2.5933  -2.3083  -0.7403  -0.1072   3.6145   6.4180   6.5973   7.1832
     7.6602   9.9450  10.5132  11.3870  11.5156  12.2518  13.0718  13.8675
    14.5830  14.9520

          k = 0.1250 0.0000 0.0000 (  5872 PWs)   bands (ev):

   -45.5182 -23.9538 -23.3239 -23.2721 -20.7383 -12.9784  -3.1297  -2.6471
    -2.5720  -1.1369   0.6417   1.0351   3.7655   5.6388   5.7798   5.9525
     6.5758   6.7878   8.1768   9.1942  11.4171  13.6825  13.9591  14.7489
    15.0096  17.3491

          k = 0.1875 0.1067 0.0000 (  5867 PWs)   bands (ev):

   -45.5073 -23.9134 -23.4683 -23.2914 -20.7070 -12.8295  -2.9950  -2.7806
    -2.5692  -1.0717  -0.2301   0.8656   3.7221   5.5552   6.0095   6.1087
     6.9620   7.0026   8.7418   9.8262  11.9100  13.1168  13.5560  15.2648
    15.6329  17.0213

          k = 0.1875 0.1778 0.0000 (  5870 PWs)   bands (ev):

   -45.5012 -23.8928 -23.5378 -23.3082 -20.6925 -12.7421  -2.9523  -2.8144
    -2.5763  -1.0755  -0.5825   0.7015   3.6887   5.5347   6.0877   6.3905
     7.0247   7.2724   9.0403  10.1199  12.0360  12.9653  13.4662  15.4235
    16.1870  16.4858

          k = 0.1875 0.2489 0.0000 (  5864 PWs)   bands (ev):

   -45.4934 -23.8701 -23.6118 -23.3399 -20.6763 -12.6234  -2.9560  -2.7915
    -2.6013  -1.2208  -0.8140   0.4096   3.6841   5.5442   6.2286   6.7089
     7.1561   7.6545   9.4134  10.5221  12.2584  12.7471  13.4214  15.1499
    15.9774  16.4250

          k = 0.1875 0.3200 0.0000 (  5877 PWs)   bands (ev):

   -45.4849 -23.8591 -23.6688 -23.3806 -20.6622 -12.4885  -3.0042  -2.7286
    -2.6377  -1.5487  -0.8381   0.0738   3.7143   5.6379   6.4003   6.8236
     7.4264   8.2258   9.7890  10.9844  12.3574  12.6003  13.6480  14.4166
    15.5554  16.0128

          k = 0.1875 0.3911 0.0000 (  5868 PWs)   bands (ev):

   -45.4770 -23.8743 -23.6897 -23.4216 -20.6522 -12.3572  -3.0569  -2.7244
    -2.6363  -1.8578  -0.8139  -0.2286   3.7697   5.8357   6.5232   6.9006
     7.5971   8.9969  10.0912  11.4367  12.2493  12.5867  13.7194  14.2280
    14.6254  15.7046

          k = 0.1875 0.4622 0.0000 (  5868 PWs)   bands (ev):

   -45.4709 -23.9032 -23.6851 -23.4547 -20.6463 -12.2519  -3.0992  -2.7899
    -2.5998  -2.0643  -0.7887  -0.4500   3.8309   6.1105   6.5307   7.0562
     7.5952   9.8392  10.2729  11.7381  12.1670  12.6725  13.1297  13.9388
    14.6460  15.5435

          k = 0.1875 0.5333 0.0000 (  5882 PWs)   bands (ev):

   -45.4677 -23.9226 -23.6776 -23.4732 -20.6437 -12.1930  -3.1227  -2.8449
    -2.5813  -2.1563  -0.7747  -0.5653   3.8721   6.3530   6.5035   7.1799
     7.4982  10.1628  10.8524  11.7289  11.9596  12.4173  13.0872  13.9772
    14.5024  15.1351

          k = 0.1875-0.0356 0.0000 (  5864 PWs)   bands (ev):

   -45.5105 -23.9253 -23.4231 -23.2884 -20.7156 -12.8755  -3.0258  -2.7478
    -2.5739  -1.0827   0.0318   0.8920   3.7545   5.5415   5.9982   6.0327
     6.7331   6.9961   8.5793   9.6712  11.8857  13.1220  13.6587  14.9510
    15.5335  16.9433

          k = 0.2500 0.1422 0.0000 (  5878 PWs)   bands (ev):

   -45.4965 -23.8806 -23.5891 -23.3147 -20.6854 -12.6753  -2.9903  -2.7808
    -2.5773  -1.1815  -0.7662   0.6955   3.6160   5.6272   6.1795   6.4360
     7.1653   7.4153   9.2273  10.2328  11.7796  12.8149  13.9713  15.7404
    16.2873  16.4218

          k = 0.2500 0.2133 0.0000 (  5886 PWs)   bands (ev):

   -45.4905 -23.8685 -23.6415 -23.3362 -20.6748 -12.5826  -3.0211  -2.7426
    -2.5936  -1.4181  -0.8216   0.5042   3.5934   5.6845   6.2481   6.7445
     7.2412   7.7283   9.4801  10.4870  11.7993  12.6347  14.2551  15.2956
    15.8997  16.3414

          k = 0.2500 0.2844 0.0000 (  5877 PWs)   bands (ev):

   -45.4834 -23.8643 -23.6775 -23.3766 -20.6631 -12.4689  -3.0407  -2.7064
    -2.6338  -1.6657  -0.8180   0.1502   3.6536   5.7508   6.3525   6.9200
     7.4171   8.2465   9.7846  10.9107  12.0252  12.5182  14.2015  14.5621
    15.2682  16.2682

          k = 0.2500 0.3555 0.0000 (  5875 PWs)   bands (ev):

   -45.4763 -23.8728 -23.6877 -23.4294 -20.6525 -12.3500  -3.0551  -2.7316
    -2.6343  -1.8475  -0.8097  -0.2671   3.7823   5.8349   6.5213   6.8951
     7.5912   9.0015  10.1022  11.4239  12.2535  12.5560  13.7338  14.3413
    14.6821  15.6339

          k = 0.2500 0.4266 0.0000 (  5876 PWs)   bands (ev):

   -45.4702 -23.8856 -23.6814 -23.4829 -20.6445 -12.2449  -3.0764  -2.7914
    -2.5984  -1.9488  -0.8534  -0.6062   3.9381   5.9756   6.5835   6.9626
     7.6048   9.8738  10.3378  11.7720  12.2841  12.9090  13.4881  14.0105
    14.4452  15.0087

          k = 0.2500 0.4977 0.0000 (  5873 PWs)   bands (ev):

   -45.4662 -23.8938 -23.6726 -23.5232 -20.6396 -12.1722  -3.1069  -2.8202
    -2.5704  -1.9887  -1.0354  -0.7019   4.0661   6.1690   6.5132   7.1232
     7.4977  10.3004  10.8571  11.7332  12.5361  13.0527  13.2091  13.8422
    14.4099  14.9754

          k = 0.2500 0.5688 0.0000 (  5864 PWs)   bands (ev):

   -45.4647 -23.8962 -23.6690 -23.5382 -20.6380 -12.1462  -3.1226  -2.8250
    -2.5599  -1.9966  -1.1300  -0.7108   4.1159   6.2910   6.4629   7.1721
     7.4390  10.2666  11.6247  11.8115  11.8711  13.0586  13.4159  13.8619
    14.4369  15.0385

          k = 0.2500-0.0711 0.0000 (  5875 PWs)   bands (ev):

   -45.5005 -23.8914 -23.5407 -23.3108 -20.6928 -12.7355  -2.9519  -2.8138
    -2.5819  -1.0732  -0.6005   0.7113   3.6848   5.5522   6.0867   6.3584
     7.0026   7.2931   9.0579  10.1234  12.0293  12.9543  13.4348  15.4040
    16.2541  16.5189

          k = 0.2500 0.0000 0.0000 (  5876 PWs)   bands (ev):

   -45.5020 -23.8956 -23.5200 -23.3128 -20.6955 -12.7564  -2.9296  -2.8314
    -2.5874  -1.0535  -0.4953   0.6788   3.7224   5.4930   6.1003   6.3495
     6.8911   7.2748   8.9993  10.0951  12.4244  12.6811  13.2498  15.2205
    16.2130  16.4857

          k = 0.3125 0.1778 0.0000 (  5884 PWs)   bands (ev):

   -45.4858 -23.8728 -23.6774 -23.3377 -20.6713 -12.5115  -3.0828  -2.7013
    -2.5900  -1.7056  -0.8093   0.5389   3.4966   5.7780   6.4385   6.8142
     7.3597   7.9224   9.5898  10.5079  11.6610  12.5019  14.5949  15.0636
    16.0762  16.2539

          k = 0.3125 0.2489 0.0000 (  5893 PWs)   bands (ev):

   -45.4805 -23.8847 -23.6937 -23.3610 -20.6646 -12.4253  -3.1135  -2.6734
    -2.6150  -1.9296  -0.7882   0.3404   3.5097   5.8992   6.4684   7.0227
     7.4723   8.3178   9.7494  10.7400  11.7729  12.4449  14.1562  14.8548
    15.4207  16.2869

          k = 0.3125 0.3200 0.0000 (  5897 PWs)   bands (ev):

   -45.4748 -23.8979 -23.6920 -23.4068 -20.6561 -12.3290  -3.1130  -2.7126
    -2.6259  -2.0479  -0.7709  -0.0478   3.6398   6.0384   6.4674   7.0621
     7.5877   9.0018  10.0077  11.1860  11.9950  12.4763  13.5987  14.2817
    15.0533  16.1278

          k = 0.3125 0.3911 0.0000 (  5878 PWs)   bands (ev):

   -45.4695 -23.9021 -23.6814 -23.4676 -20.6474 -12.2370  -3.0980  -2.7984
    -2.5988  -2.0586  -0.7847  -0.5037   3.8481   6.1159   6.5277   7.0451
     7.5896   9.8565  10.2937  11.7002  12.1414  12.6721  13.2391  13.9318
    14.7567  15.4698

          k = 0.3125 0.4622 0.0000 (  5864 PWs)   bands (ev):

   -45.4655 -23.8942 -23.6707 -23.5285 -20.6403 -12.1645  -3.1087  -2.8223
    -2.5704  -1.9876  -1.0586  -0.6983   4.0704   6.1779   6.5109   7.1180
     7.4942  10.3260  10.8598  11.7174  12.5619  13.0397  13.2289  13.7752
    14.4481  15.0015

          k = 0.3125 0.5333 0.0000 (  5865 PWs)   bands (ev):

   -45.4633 -23.8829 -23.6650 -23.5686 -20.6364 -12.1245  -3.1358  -2.7999
    -2.5491  -1.8537  -1.4129  -0.7116   4.2205   6.2476   6.4565   7.1106
     7.4747  10.2956  11.6305  11.7694  12.6422  12.8642  13.5864  13.7551
    14.5487  15.1618

          k = 0.3125-0.1067 0.0000 (  5884 PWs)   bands (ev):

   -45.4898 -23.8685 -23.6454 -23.3359 -20.6755 -12.5756  -3.0240  -2.7413
    -2.5975  -1.4394  -0.8222   0.5263   3.5815   5.6851   6.2422   6.7437
     7.2429   7.7363   9.4953  10.4891  11.7872  12.6273  14.1903  15.2931
    15.9169  16.3597

          k = 0.3125-0.0356 0.0000 (  5868 PWs)   bands (ev):

   -45.4920 -23.8685 -23.6178 -23.3434 -20.6775 -12.6097  -2.9599  -2.7884
    -2.6106  -1.2444  -0.8209   0.4280   3.6733   5.5576   6.2064   6.6974
     7.1518   7.6703   9.4451  10.5277  12.2283  12.7334  13.3579  15.1818
    16.0209  16.4528

          k = 0.3750 0.2133 0.0000 (  5903 PWs)   bands (ev):

   -45.4766 -23.9145 -23.6987 -23.3572 -20.6645 -12.3637  -3.1733  -2.6548
    -2.6041  -2.1773  -0.7600   0.4152   3.4115   5.9795   6.6519   7.1136
     7.6100   8.5239   9.7359  10.7132  11.7824  12.4262  13.5991  14.9981
    15.4781  15.5846

          k = 0.3750 0.2844 0.0000 (  5874 PWs)   bands (ev):

   -45.4727 -23.9348 -23.6929 -23.3794 -20.6604 -12.2972  -3.1904  -2.6832
    -2.6160  -2.2837  -0.7398   0.2256   3.4617   6.1284   6.6391   7.1683
     7.7057   9.0157   9.8601  10.9173  11.8946  12.4537  13.1646  14.5422
    14.9427  15.5901

          k = 0.3750 0.3555 0.0000 (  5870 PWs)   bands (ev):

   -45.4689 -23.9387 -23.6827 -23.4262 -20.6535 -12.2295  -3.1628  -2.7890
    -2.6024  -2.2601  -0.7317  -0.1681   3.6405   6.2986   6.5630   7.1410
     7.6524   9.7692  10.1656  11.3080  11.9754  12.4328  12.9768  14.0553
    14.7080  15.4298

          k = 0.3750 0.4266 0.0000 (  5865 PWs)   bands (ev):

   -45.4656 -23.9241 -23.6725 -23.4877 -20.6457 -12.1712  -3.1235  -2.8546
    -2.5821  -2.1637  -0.7803  -0.6064   3.8861   6.3545   6.5135   7.1551
     7.5020  10.2208  10.8604  11.7367  11.9624  12.3983  13.1359  14.0046
    14.5482  15.1824

          k = 0.3750 0.4977 0.0000 (  5860 PWs)   bands (ev):

   -45.4634 -23.8996 -23.6658 -23.5447 -20.6396 -12.1317  -3.1269  -2.8307
    -2.5610  -2.0101  -1.1550  -0.6983   4.1149   6.2982   6.4723   7.1606
     7.4367  10.3183  11.6033  11.8682  11.9402  12.9324  13.4019  13.8548
    14.4679  15.0685

          k = 0.3750 0.5688 0.0000 (  5866 PWs)   bands (ev):

   -45.4627 -23.8863 -23.6639 -23.5693 -20.6373 -12.1177  -3.1382  -2.8041
    -2.5501  -1.8784  -1.4021  -0.7046   4.2143   6.2459   6.4677   7.1085
     7.4733  10.3226  11.6148  11.8839  12.5968  12.8419  13.4847  13.8013
    14.5646  15.1751

          k = 0.3750-0.1422 0.0000 (  5886 PWs)   bands (ev):

   -45.4799 -23.8876 -23.6950 -23.3595 -20.6655 -12.4190  -3.1173  -2.6706
    -2.6197  -1.9524  -0.7857   0.3639   3.4954   5.8943   6.4521   7.0392
     7.4794   8.3331   9.7650  10.7405  11.7678  12.4443  14.1394  14.8134
    15.4575  16.2414

          k = 0.3750-0.0711 0.0000 (  5879 PWs)   bands (ev):

   -45.4821 -23.8674 -23.6818 -23.3756 -20.6648 -12.4555  -3.0472  -2.7025
    -2.6429  -1.7100  -0.8133   0.1871   3.6317   5.7512   6.3365   6.9177
     7.4379   8.2694   9.8162  10.9164  11.9999  12.5094  14.1307  14.5485
    15.2467  16.3129

          k = 0.3750 0.0000 0.0000 (  5874 PWs)   bands (ev):

   -45.4828 -23.8606 -23.6734 -23.3852 -20.6643 -12.4682  -3.0104  -2.7269
    -2.6495  -1.5935  -0.8298   0.0888   3.6997   5.6435   6.3751   6.8159
     7.4425   8.2539   9.8347  10.9916  12.3349  12.5397  13.6143  14.4480
    15.5832  16.0620

          k = 0.4375 0.2489 0.0000 (  5875 PWs)   bands (ev):

   -45.4705 -23.9637 -23.6891 -23.3700 -20.6624 -12.2598  -3.2437  -2.6691
    -2.6151  -2.4389  -0.7188   0.3367   3.3702   6.1975   6.6980   7.2545
     7.8867   9.1760   9.8008  10.8894  11.8111  12.3601  12.9898  14.4626
    14.7989  15.1377

          k = 0.4375 0.3200 0.0000 (  5870 PWs)   bands (ev):

   -45.4685 -23.9707 -23.6832 -23.3890 -20.6596 -12.2242  -3.2395  -2.7448
    -2.6095  -2.4244  -0.7105   0.1694   3.4427   6.3169   6.6628   7.2265
     7.8679   9.6231   9.9601  11.0725  11.6452  12.3076  13.0605  14.0811
    14.6564  15.0192

          k = 0.4375 0.3911 0.0000 (  5873 PWs)   bands (ev):

   -45.4666 -23.9566 -23.6770 -23.4322 -20.6534 -12.1914  -3.1829  -2.8331
    -2.5967  -2.3233  -0.7167  -0.2011   3.6391   6.4035   6.6024   7.1544
     7.6738  10.0166  10.5179  11.4309  11.5299  12.2972  13.1112  13.9248
    14.6537  14.9212

          k = 0.4375 0.4622 0.0000 (  5868 PWs)   bands (ev):

   -45.4652 -23.9276 -23.6721 -23.4864 -20.6464 -12.1666  -3.1253  -2.8598
    -2.5830  -2.1778  -0.7804  -0.5899   3.8778   6.3455   6.5191   7.1421
     7.5215  10.2376  10.9490  11.7293  11.8997  12.3939  13.1444  14.0010
    14.5256  15.1567

          k = 0.4375 0.5333 0.0000 (  5865 PWs)   bands (ev):

   -45.4644 -23.9015 -23.6693 -23.5271 -20.6419 -12.1532  -3.1120  -2.8326
    -2.5723  -2.0256  -1.0417  -0.6813   4.0548   6.1691   6.5328   7.0883
     7.5223  10.3606  10.9809  11.6941  12.5738  12.9760  13.1730  13.8110
    14.4274  14.9574

          k = 0.4375-0.1778 0.0000 (  5884 PWs)   bands (ev):

   -45.4723 -23.9381 -23.6927 -23.3780 -20.6612 -12.2928  -3.1939  -2.6820
    -2.6187  -2.2989  -0.7380   0.2429   3.4506   6.1300   6.6096   7.1880
     7.7084   9.0455   9.8781  10.9157  11.8908  12.4616  13.1512  14.5157
    14.9453  15.5819

          k = 0.4375-0.1067 0.0000 (  5883 PWs)   bands (ev):

   -45.4738 -23.9048 -23.6922 -23.4042 -20.6577 -12.3181  -3.1195  -2.7143
    -2.6300  -2.0849  -0.7668  -0.0114   3.6179   6.0318   6.4548   7.0575
     7.6151   9.0434  10.0464  11.1867  11.9855  12.4845  13.5667  14.2648
    14.9984  16.0953

          k = 0.4375-0.0356 0.0000 (  5881 PWs)   bands (ev):

   -45.4745 -23.8808 -23.6887 -23.4286 -20.6550 -12.3318  -3.0629  -2.7383
    -2.6382  -1.9033  -0.8024  -0.2272   3.7573   5.8346   6.5205   6.8683
     7.6273   9.0491  10.1577  11.4356  12.2537  12.5091  13.7347  14.2499
    14.6421  15.6689

          k =-0.5000-0.2844 0.0000 (  5882 PWs)   bands (ev):

   -45.4683 -23.9829 -23.6833 -23.3746 -20.6621 -12.2222  -3.2729  -2.7040
    -2.6195  -2.4964  -0.7036   0.3099   3.3594   6.3255   6.6513   7.2925
     8.0086   9.5424   9.8331  11.0717  11.4362  12.2848  13.1484  14.0042
    14.6230  14.9651

          k =-0.5000-0.2133 0.0000 (  5876 PWs)   bands (ev):

   -45.4683 -23.9720 -23.6830 -23.3884 -20.6599 -12.2225  -3.2411  -2.7451
    -2.6102  -2.4290  -0.7098   0.1757   3.4386   6.3242   6.6417   7.2364
     7.8665   9.6481   9.9663  11.0770  11.6240  12.3134  13.0707  14.0640
    14.6243  15.0449

          k =-0.5000-0.1422 0.0000 (  5872 PWs)   bands (ev):

   -45.4683 -23.9434 -23.6822 -23.4243 -20.6546 -12.2234  -3.1672  -2.7930
    -2.6039  -2.2783  -0.7301  -0.1459   3.6273   6.3058   6.5328   7.1450
     7.6691   9.8112  10.2118  11.3075  11.9414  12.4420  12.9754  14.0307
    14.6710  15.4279

          k =-0.5000-0.0711 0.0000 (  5881 PWs)   bands (ev):

   -45.4683 -23.9107 -23.6806 -23.4649 -20.6493 -12.2242  -3.1035  -2.8082
    -2.6011  -2.0995  -0.7823  -0.4642   3.8264   6.1056   6.5416   7.0110
     7.6293   9.9060  10.3727  11.7049  12.1401  12.6524  13.1897  13.9260
    14.6895  15.4593

          k =-0.5000-0.0000 0.0000 (  5884 PWs)   bands (ev):

   -45.4684 -23.8955 -23.6795 -23.4838 -20.6471 -12.2246  -3.0824  -2.8058
    -2.6004  -2.0016  -0.8491  -0.5732   3.9172   5.9747   6.6125   6.9057
     7.6454   9.9316  10.4358  11.7623  12.3284  12.8011  13.4759  13.9898
    14.4225  14.9722

     highest occupied, lowest unoccupied level (ev):     4.2205    5.4627

!    total energy              =    -571.23423097 Ry
     total all-electron energy =    -12610.611642 Ry
     estimated scf accuracy    <          5.1E-11 Ry

     The total energy is the sum of the following terms:
     one-electron contribution =    -277.61153092 Ry
     hartree contribution      =     147.21955874 Ry
     xc contribution           =     -36.33778096 Ry
     ewald contribution        =      -7.65014047 Ry
     one-center paw contrib.   =    -396.85433735 Ry

     convergence has been achieved in   6 iterations

     negative rho (up, down):  3.722E-05 0.000E+00

     Forces acting on atoms (cartesian axes, Ry/au):

     atom    1 type  1   force =     0.00000000   -0.00005500   -0.00009903
     atom    2 type  2   force =     0.00000000    0.00006077    0.00016989
     atom    3 type  3   force =     0.00000000   -0.00000577   -0.00007086
     The non-local contrib.  to forces
     atom    1 type  1   force =     0.00000000    0.00308062   -0.02497117
     atom    2 type  2   force =     0.00000000    0.02197480   -0.97759051
     atom    3 type  3   force =     0.00000000    0.00119155    0.21083529
     The ionic contribution  to forces
     atom    1 type  1   force =    -0.00000001    0.16547826   -0.47043331
     atom    2 type  2   force =     0.00000001   -0.12259407   24.24546975
     atom    3 type  3   force =     0.00000000   -0.04288419  -23.77503645
     The local contribution  to forces
     atom    1 type  1   force =    -0.00000000   -0.16848722    0.49113266
     atom    2 type  2   force =     0.00000027    0.10074585  -23.27088955
     atom    3 type  3   force =    -0.00000000    0.04158352   23.56687759
     The core correction contribution to forces
     atom    1 type  1   force =    -0.00000000   -0.00012601    0.00417751
     atom    2 type  2   force =     0.00000000   -0.00006612    0.00317864
     atom    3 type  3   force =    -0.00000000    0.00010350   -0.00275700
     The Hubbard contrib.    to forces
     atom    1 type  1   force =     0.00000000    0.00000000    0.00000000
     atom    2 type  2   force =     0.00000000    0.00000000    0.00000000
     atom    3 type  3   force =     0.00000000    0.00000000    0.00000000
     The SCF correction term to forces
     atom    1 type  1   force =     0.00000000   -0.00000065   -0.00000831
     atom    2 type  2   force =     0.00000000    0.00000029   -0.00000202
     atom    3 type  3   force =    -0.00000000   -0.00000015    0.00000611

     Total force =     0.000225     Total SCF correction =     0.000011
     Energy error            =      4.1E-07 Ry
     Gradient error          =      1.7E-04 Ry/Bohr

     number of scf cycles    =  10
     number of bfgs steps    =   9

     energy             old  =    -571.2342305546 Ry
     energy             new  =    -571.2342309689 Ry

     CASE: energy            _new < energy            _old

     new trust radius        =       0.0002790419 bohr
     new conv_thr            =            1.0E-10 Ry


ATOMIC_POSITIONS (angstrom)
Zr            0.0000000000       -0.0176567219       10.1030682453
F            -0.0000000020        1.9421838014       11.3996159242
Br           -0.0000000020        1.9372806837        8.2154945435



     Writing config-only to output data dir ./tmp/ZrFBr.save/
     NEW-OLD atomic charge density approx. for the potential

     Check: negative core charge=   -0.000002

     negative rho (up, down):  3.724E-05 0.000E+00

     total cpu time spent up to now is      113.7 secs

     Self-consistent Calculation

     iteration #  1     ecut=    65.00 Ry     beta= 0.70
     Davidson diagonalization with overlap
     ethr =  1.00E-06,  avg # of iterations =  2.0

     Threshold (ethr) on eigenvalues was too large:
     Diagonalizing with lowered threshold

     Davidson diagonalization with overlap
     ethr =  2.08E-11,  avg # of iterations =  4.0

     negative rho (up, down):  3.722E-05 0.000E+00

     total cpu time spent up to now is      116.9 secs

     total energy              =    -571.23423101 Ry
     estimated scf accuracy    <          5.4E-09 Ry

     iteration #  2     ecut=    65.00 Ry     beta= 0.70
     Davidson diagonalization with overlap
     ethr =  2.06E-11,  avg # of iterations =  2.0

     negative rho (up, down):  3.722E-05 0.000E+00

     total cpu time spent up to now is      118.2 secs

     total energy              =    -571.23423101 Ry
     estimated scf accuracy    <          2.3E-09 Ry

     iteration #  3     ecut=    65.00 Ry     beta= 0.70
     Davidson diagonalization with overlap
     ethr =  8.82E-12,  avg # of iterations =  2.0

     negative rho (up, down):  3.722E-05 0.000E+00

     total cpu time spent up to now is      119.6 secs

     total energy              =    -571.23423101 Ry
     estimated scf accuracy    <          1.1E-09 Ry

     iteration #  4     ecut=    65.00 Ry     beta= 0.70
     Davidson diagonalization with overlap
     ethr =  4.13E-12,  avg # of iterations =  2.0

     negative rho (up, down):  3.722E-05 0.000E+00

     total cpu time spent up to now is      121.0 secs

     End of self-consistent calculation

          k = 0.0000 0.0000 0.0000 (  5879 PWs)   bands (ev):

   -45.5247 -23.9781 -23.2597 -23.2366 -20.7606 -13.0608  -3.2253  -2.5734
    -2.5458  -1.1974   1.1468   1.2547   3.7343   5.6284   5.7480   5.8020
     6.5954   6.6722   7.8187   8.6159  11.0188  13.8480  14.3989  14.6621
    15.2021  17.0916

          k = 0.0000 0.0711 0.0000 (  5863 PWs)   bands (ev):

   -45.5227 -23.9702 -23.2883 -23.2409 -20.7527 -13.0345  -3.1928  -2.6072
    -2.5452  -1.1769   0.9330   1.2174   3.7449   5.5742   5.8428   5.8456
     6.5559   6.7218   7.9364   8.8329  11.1453  13.8990  14.0627  14.7905
    15.0648  17.2476

          k = 0.0000 0.1422 0.0000 (  5849 PWs)   bands (ev):

   -45.5170 -23.9481 -23.3671 -23.2529 -20.7322 -12.9583  -3.1054  -2.6936
    -2.5446  -1.1278   0.3937   1.1147   3.7476   5.5072   5.9450   5.9720
     6.6449   6.8528   8.2580   9.3114  11.5132  13.4381  13.8766  14.8982
    15.1719  17.3215

          k = 0.0000 0.2133 0.0000 (  5850 PWs)   bands (ev):

   -45.5086 -23.9165 -23.4781 -23.2708 -20.7072 -12.8398  -3.0004  -2.7906
    -2.5464  -1.0830  -0.2777   0.9704   3.6917   5.5185   5.9937   6.1983
     6.9676   7.0270   8.7101   9.8118  11.8899  13.0702  13.5044  15.2249
    15.7927  17.0028

          k = 0.0000 0.2844 0.0000 (  5874 PWs)   bands (ev):

   -45.4985 -23.8853 -23.5953 -23.2919 -20.6852 -12.6926  -2.9971  -2.7867
    -2.5524  -1.2074  -0.7901   0.8126   3.5763   5.6255   6.1495   6.5116
     7.2129   7.3934   9.1866  10.2272  11.7727  12.7683  13.8837  15.6538
    16.1841  16.5608

          k = 0.0000 0.3555 0.0000 (  5874 PWs)   bands (ev):

   -45.4885 -23.8776 -23.6819 -23.3128 -20.6703 -12.5365  -3.0887  -2.7047
    -2.5626  -1.7254  -0.8307   0.6664   3.4544   5.7919   6.4121   6.8634
     7.4064   7.8920   9.5474  10.5163  11.6391  12.4513  14.4399  14.9668
    16.1408  16.2422

          k = 0.0000 0.4266 0.0000 (  5870 PWs)   bands (ev):

   -45.4800 -23.9161 -23.7051 -23.3305 -20.6626 -12.3959  -3.1800  -2.6532
    -2.5741  -2.1849  -0.7864   0.5505   3.3689   5.9976   6.6393   7.1466
     7.6415   8.4822   9.6999  10.7217  11.7348  12.3599  13.4705  14.9020
    15.3695  15.7354

          k = 0.0000 0.4977 0.0000 (  5892 PWs)   bands (ev):

   -45.4743 -23.9629 -23.6973 -23.3422 -20.6597 -12.2972  -3.2526  -2.6587
    -2.5834  -2.4412  -0.7489   0.4767   3.3269   6.2131   6.7039   7.2889
     7.8887   9.1240   9.7709  10.8808  11.7226  12.2627  12.9252  14.3839
    14.6816  15.3221

          k = 0.0000-0.5688 0.0000 (  5874 PWs)   bands (ev):

   -45.4722 -23.9813 -23.6921 -23.3464 -20.6592 -12.2616  -3.2828  -2.6887
    -2.5869  -2.4985  -0.7349   0.4515   3.3157   6.3350   6.6699   7.3286
     7.9971   9.4762   9.8242  11.0511  11.3147  12.1997  13.0942  13.9329
    14.5058  15.1593

          k = 0.0625 0.0356 0.0000 (  5870 PWs)   bands (ev):

   -45.5226 -23.9699 -23.2767 -23.2539 -20.7525 -13.0334  -3.1920  -2.5929
    -2.5613  -1.1755   0.9963   1.1452   3.7486   5.6339   5.7746   5.8479
     6.5877   6.6801   7.9426   8.8414  11.1503  13.8994  14.1860  14.6130
    15.0883  17.3095

          k = 0.0625 0.1067 0.0000 (  5846 PWs)   bands (ev):

   -45.5187 -23.9549 -23.3366 -23.2559 -20.7383 -12.9821  -3.1316  -2.6614
    -2.5524  -1.1408   0.5934   1.1017   3.7569   5.5356   5.8898   5.9571
     6.5888   6.7982   8.1613   9.1812  11.4054  13.6196  13.9384  14.8218
    15.0728  17.3499

          k = 0.0625 0.1778 0.0000 (  5844 PWs)   bands (ev):

   -45.5117 -23.9278 -23.4319 -23.2705 -20.7157 -12.8845  -3.0302  -2.7580
    -2.5526  -1.0920  -0.0020   0.9664   3.7356   5.4782   6.0085   6.1161
     6.7723   6.9885   8.5485   9.6563  11.8653  13.0962  13.6290  14.9635
    15.6331  16.9492

          k = 0.0625 0.2489 0.0000 (  5858 PWs)   bands (ev):

   -45.5024 -23.8956 -23.5450 -23.2916 -20.6925 -12.7514  -2.9578  -2.8193
    -2.5594  -1.0894  -0.6175   0.7932   3.6587   5.5308   6.0844   6.4253
     7.0476   7.2722   9.0161  10.1140  12.0330  12.9239  13.4031  15.3861
    16.2667  16.5243

          k = 0.0625 0.3200 0.0000 (  5863 PWs)   bands (ev):

   -45.4924 -23.8730 -23.6472 -23.3150 -20.6744 -12.5990  -3.0275  -2.7455
    -2.5728  -1.4489  -0.8390   0.6184   3.5535   5.6922   6.2388   6.7780
     7.2819   7.7101   9.4475  10.4919  11.7930  12.5936  14.1376  15.1969
    15.8876  16.3440

          k = 0.0625 0.3911 0.0000 (  5869 PWs)   bands (ev):

   -45.4831 -23.8888 -23.6990 -23.3368 -20.6635 -12.4495  -3.1202  -2.6713
    -2.5936  -1.9503  -0.8090   0.4672   3.4669   5.9136   6.4508   7.0578
     7.5058   8.2930   9.7174  10.7592  11.7443  12.3962  14.0117  14.7802
    15.4107  16.2468

          k = 0.0625 0.4622 0.0000 (  5873 PWs)   bands (ev):

   -45.4760 -23.9362 -23.6999 -23.3534 -20.6584 -12.3286  -3.1986  -2.6641
    -2.6064  -2.2890  -0.7656   0.3572   3.4195   6.1476   6.6197   7.2080
     7.7156   8.9854   9.8336  10.9340  11.8373  12.3791  13.0622  14.5141
    14.8503  15.6332

          k = 0.0625 0.5333 0.0000 (  5872 PWs)   bands (ev):

   -45.4721 -23.9697 -23.6914 -23.3624 -20.6568 -12.2606  -3.2485  -2.7236
    -2.5984  -2.4171  -0.7395   0.2995   3.4031   6.3337   6.6625   7.2618
     7.8574   9.5713   9.9515  11.0679  11.5324  12.2299  13.0177  14.0166
    14.5471  15.1470

          k = 0.1250 0.0711 0.0000 (  5859 PWs)   bands (ev):

   -45.5165 -23.9467 -23.3542 -23.2713 -20.7318 -12.9536  -3.1024  -2.6791
    -2.5652  -1.1228   0.4556   1.0227   3.7627   5.5831   5.8589   5.9629
     6.6637   6.8076   8.2771   9.3279  11.5314  13.4964  13.9165  14.9242
    14.9951  17.3567

          k = 0.1250 0.1422 0.0000 (  5856 PWs)   bands (ev):

   -45.5113 -23.9268 -23.4259 -23.2806 -20.7155 -12.8811  -3.0281  -2.7519
    -2.5631  -1.0881   0.0309   0.9102   3.7489   5.4950   6.0001   6.0941
     6.7777   6.9681   8.5605   9.6638  11.8774  13.1223  13.6521  14.9709
    15.5610  16.9209

          k = 0.1250 0.2133 0.0000 (  5851 PWs)   bands (ev):

   -45.5034 -23.8985 -23.5197 -23.3023 -20.6950 -12.7685  -2.9331  -2.8334
    -2.5728  -1.0636  -0.4843   0.7012   3.7153   5.4625   6.1157   6.3954
     6.9290   7.2510   8.9656  10.0874  12.4201  12.7102  13.2489  15.2144
    16.1751  16.4836

          k = 0.1250 0.2844 0.0000 (  5852 PWs)   bands (ev):

   -45.4942 -23.8719 -23.6151 -23.3311 -20.6762 -12.6292  -2.9594  -2.7916
    -2.5934  -1.2370  -0.8234   0.4591   3.6669   5.5482   6.2286   6.7160
     7.1736   7.6492   9.4010  10.5235  12.2700  12.7425  13.3515  15.1466
    15.9288  16.4092

          k = 0.1250 0.3555 0.0000 (  5867 PWs)   bands (ev):

   -45.4849 -23.8677 -23.6816 -23.3612 -20.6626 -12.4819  -3.0451  -2.7025
    -2.6248  -1.6891  -0.8293   0.2323   3.6252   5.7579   6.3505   6.9348
     7.4383   8.2360   9.7635  10.9252  12.0255  12.5065  14.1167  14.4748
    15.2078  16.2595

          k = 0.1250 0.4266 0.0000 (  5872 PWs)   bands (ev):

   -45.4770 -23.9008 -23.6970 -23.3872 -20.6548 -12.3498  -3.1181  -2.6936
    -2.6284  -2.0614  -0.7877   0.0507   3.6077   6.0471   6.4587   7.0849
     7.6006   8.9863   9.9828  11.2254  11.9773  12.4478  13.4874  14.2626
    14.9405  16.0822

          k = 0.1250 0.4977 0.0000 (  5871 PWs)   bands (ev):

   -45.4717 -23.9390 -23.6892 -23.4047 -20.6514 -12.2574  -3.1685  -2.7714
    -2.6010  -2.2570  -0.7534  -0.0667   3.6102   6.3178   6.5402   7.1725
     7.6508   9.7333  10.1482  11.3587  11.9142  12.3613  12.9239  14.0363
    14.6093  15.4176

          k = 0.1250 0.5688 0.0000 (  5878 PWs)   bands (ev):

   -45.4698 -23.9541 -23.6844 -23.4109 -20.6505 -12.2241  -3.1874  -2.8135
    -2.5931  -2.3083  -0.7405  -0.1074   3.6144   6.4179   6.5972   7.1830
     7.6601   9.9447  10.5130  11.3871  11.5155  12.2517  13.0717  13.8677
    14.5829  14.9519

          k = 0.1250 0.0000 0.0000 (  5872 PWs)   bands (ev):

   -45.5183 -23.9539 -23.3241 -23.2723 -20.7381 -12.9787  -3.1295  -2.6468
    -2.5715  -1.1370   0.6415   1.0348   3.7652   5.6385   5.7797   5.9525
     6.5757   6.7876   8.1768   9.1943  11.4170  13.6824  13.9590  14.7487
    15.0094  17.3490

          k = 0.1875 0.1067 0.0000 (  5867 PWs)   bands (ev):

   -45.5074 -23.9135 -23.4684 -23.2916 -20.7067 -12.8297  -2.9947  -2.7803
    -2.5687  -1.0719  -0.2303   0.8653   3.7217   5.5549   6.0093   6.1086
     6.9618   7.0024   8.7418   9.8262  11.9099  13.1167  13.5559  15.2649
    15.6326  17.0211

          k = 0.1875 0.1778 0.0000 (  5870 PWs)   bands (ev):

   -45.5014 -23.8928 -23.5380 -23.3083 -20.6922 -12.7423  -2.9520  -2.8142
    -2.5759  -1.0757  -0.5827   0.7012   3.6884   5.5344   6.0876   6.3903
     7.0244   7.2724   9.0402  10.1200  12.0359  12.9652  13.4659  15.4235
    16.1868  16.4858

          k = 0.1875 0.2489 0.0000 (  5864 PWs)   bands (ev):

   -45.4936 -23.8702 -23.6119 -23.3401 -20.6761 -12.6236  -2.9557  -2.7912
    -2.6009  -1.2211  -0.8142   0.4094   3.6839   5.5440   6.2285   6.7086
     7.1557   7.6545   9.4134  10.5222  12.2583  12.7470  13.4212  15.1498
    15.9773  16.4250

          k = 0.1875 0.3200 0.0000 (  5877 PWs)   bands (ev):

   -45.4850 -23.8592 -23.6689 -23.3807 -20.6621 -12.4887  -3.0039  -2.7283
    -2.6375  -1.5489  -0.8383   0.0736   3.7142   5.6377   6.4002   6.8234
     7.4262   8.2258   9.7889  10.9844  12.3573  12.6001  13.6478  14.4165
    15.5555  16.0128

          k = 0.1875 0.3911 0.0000 (  5868 PWs)   bands (ev):

   -45.4771 -23.8743 -23.6898 -23.4218 -20.6520 -12.3574  -3.0566  -2.7242
    -2.6361  -1.8580  -0.8141  -0.2289   3.7696   5.8355   6.5230   6.9005
     7.5970   8.9969  10.0909  11.4367  12.2492  12.5865  13.7193  14.2279
    14.6254  15.7047

          k = 0.1875 0.4622 0.0000 (  5868 PWs)   bands (ev):

   -45.4711 -23.9032 -23.6852 -23.4549 -20.6461 -12.2522  -3.0988  -2.7898
    -2.5996  -2.0644  -0.7890  -0.4502   3.8309   6.1104   6.5305   7.0561
     7.5951   9.8392  10.2727  11.7380  12.1669  12.6724  13.1297  13.9389
    14.6459  15.5436

          k = 0.1875 0.5333 0.0000 (  5882 PWs)   bands (ev):

   -45.4678 -23.9226 -23.6778 -23.4734 -20.6436 -12.1933  -3.1224  -2.8448
    -2.5811  -2.1563  -0.7749  -0.5655   3.8721   6.3530   6.5032   7.1798
     7.4981  10.1625  10.8523  11.7288  11.9595  12.4172  13.0870  13.9774
    14.5023  15.1352

          k = 0.1875-0.0356 0.0000 (  5864 PWs)   bands (ev):

   -45.5107 -23.9253 -23.4233 -23.2886 -20.7154 -12.8758  -3.0256  -2.7475
    -2.5734  -1.0829   0.0315   0.8917   3.7542   5.5412   5.9979   6.0328
     6.7331   6.9959   8.5793   9.6713  11.8857  13.1219  13.6586  14.9510
    15.5332  16.9432

          k = 0.2500 0.1422 0.0000 (  5878 PWs)   bands (ev):

   -45.4967 -23.8807 -23.5893 -23.3148 -20.6852 -12.6756  -2.9899  -2.7805
    -2.5769  -1.1817  -0.7664   0.6952   3.6156   5.6270   6.1793   6.4359
     7.1650   7.4153   9.2272  10.2328  11.7795  12.8149  13.9711  15.7404
    16.2874  16.4216

          k = 0.2500 0.2133 0.0000 (  5886 PWs)   bands (ev):

   -45.4907 -23.8686 -23.6417 -23.3363 -20.6746 -12.5828  -3.0207  -2.7423
    -2.5932  -1.4183  -0.8218   0.5040   3.5931   5.6843   6.2480   6.7443
     7.2408   7.7283   9.4800  10.4871  11.7993  12.6347  14.2549  15.2956
    15.8996  16.3414

          k = 0.2500 0.2844 0.0000 (  5877 PWs)   bands (ev):

   -45.4836 -23.8643 -23.6777 -23.3768 -20.6629 -12.4691  -3.0403  -2.7061
    -2.6335  -1.6660  -0.8182   0.1499   3.6534   5.7505   6.3524   6.9198
     7.4169   8.2465   9.7845  10.9107  12.0251  12.5182  14.2014  14.5619
    15.2683  16.2682

          k = 0.2500 0.3555 0.0000 (  5875 PWs)   bands (ev):

   -45.4764 -23.8728 -23.6879 -23.4296 -20.6524 -12.3503  -3.0548  -2.7313
    -2.6341  -1.8477  -0.8100  -0.2673   3.7822   5.8347   6.5212   6.8949
     7.5910   9.0014  10.1020  11.4239  12.2534  12.5559  13.7337  14.3412
    14.6822  15.6340

          k = 0.2500 0.4266 0.0000 (  5876 PWs)   bands (ev):

   -45.4704 -23.8857 -23.6815 -23.4831 -20.6443 -12.2451  -3.0761  -2.7912
    -2.5982  -1.9490  -0.8537  -0.6064   3.9380   5.9754   6.5834   6.9624
     7.6047   9.8738  10.3375  11.7717  12.2842  12.9088  13.4881  14.0105
    14.4450  15.0088

          k = 0.2500 0.4977 0.0000 (  5873 PWs)   bands (ev):

   -45.4663 -23.8938 -23.6727 -23.5234 -20.6394 -12.1725  -3.1066  -2.8200
    -2.5702  -1.9888  -1.0356  -0.7021   4.0661   6.1689   6.5130   7.1230
     7.4976  10.3002  10.8571  11.7329  12.5362  13.0528  13.2088  13.8423
    14.4099  14.9754

          k = 0.2500 0.5688 0.0000 (  5864 PWs)   bands (ev):

   -45.4649 -23.8962 -23.6692 -23.5384 -20.6378 -12.1465  -3.1222  -2.8249
    -2.5597  -1.9967  -1.1303  -0.7110   4.1158   6.2910   6.4626   7.1718
     7.4389  10.2663  11.6247  11.8115  11.8711  13.0584  13.4158  13.8620
    14.4369  15.0387

          k = 0.2500-0.0711 0.0000 (  5875 PWs)   bands (ev):

   -45.5007 -23.8915 -23.5408 -23.3110 -20.6926 -12.7358  -2.9517  -2.8136
    -2.5814  -1.0734  -0.6007   0.7110   3.6845   5.5519   6.0865   6.3584
     7.0024   7.2930   9.0579  10.1235  12.0292  12.9543  13.4347  15.4041
    16.2539  16.5186

          k = 0.2500 0.0000 0.0000 (  5876 PWs)   bands (ev):

   -45.5021 -23.8957 -23.5202 -23.3129 -20.6953 -12.7566  -2.9293  -2.8312
    -2.5869  -1.0536  -0.4955   0.6785   3.7221   5.4927   6.1000   6.3495
     6.8909   7.2746   8.9992  10.0951  12.4243  12.6810  13.2497  15.2205
    16.2129  16.4853

          k = 0.3125 0.1778 0.0000 (  5884 PWs)   bands (ev):

   -45.4859 -23.8728 -23.6776 -23.3379 -20.6711 -12.5117  -3.0825  -2.7010
    -2.5896  -1.7059  -0.8095   0.5386   3.4963   5.7779   6.4382   6.8141
     7.3593   7.9224   9.5897  10.5079  11.6609  12.5019  14.5948  15.0637
    16.0760  16.2538

          k = 0.3125 0.2489 0.0000 (  5893 PWs)   bands (ev):

   -45.4807 -23.8847 -23.6938 -23.3612 -20.6644 -12.4255  -3.1132  -2.6731
    -2.6147  -1.9298  -0.7884   0.3401   3.5094   5.8991   6.4683   7.0225
     7.4720   8.3177   9.7493  10.7401  11.7729  12.4449  14.1563  14.8548
    15.4206  16.2867

          k = 0.3125 0.3200 0.0000 (  5897 PWs)   bands (ev):

   -45.4750 -23.8980 -23.6921 -23.4070 -20.6559 -12.3292  -3.1127  -2.7123
    -2.6257  -2.0481  -0.7711  -0.0480   3.6395   6.0383   6.4674   7.0619
     7.5876   9.0017  10.0075  11.1860  11.9948  12.4763  13.5987  14.2817
    15.0533  16.1276

          k = 0.3125 0.3911 0.0000 (  5878 PWs)   bands (ev):

   -45.4697 -23.9021 -23.6816 -23.4678 -20.6472 -12.2372  -3.0977  -2.7981
    -2.5986  -2.0587  -0.7850  -0.5039   3.8479   6.1158   6.5276   7.0449
     7.5895   9.8564  10.2935  11.7001  12.1413  12.6720  13.2391  13.9319
    14.7567  15.4699

          k = 0.3125 0.4622 0.0000 (  5864 PWs)   bands (ev):

   -45.4656 -23.8942 -23.6708 -23.5287 -20.6401 -12.1647  -3.1084  -2.8220
    -2.5702  -1.9877  -1.0588  -0.6985   4.0702   6.1777   6.5108   7.1178
     7.4941  10.3258  10.8597  11.7171  12.5619  13.0395  13.2289  13.7753
    14.4481  15.0016

          k = 0.3125 0.5333 0.0000 (  5865 PWs)   bands (ev):

   -45.4634 -23.8829 -23.6652 -23.5688 -20.6362 -12.1248  -3.1355  -2.7996
    -2.5488  -1.8539  -1.4131  -0.7118   4.2204   6.2476   6.4563   7.1103
     7.4746  10.2954  11.6302  11.7695  12.6423  12.8644  13.5863  13.7550
    14.5486  15.1619

          k = 0.3125-0.1067 0.0000 (  5884 PWs)   bands (ev):

   -45.4900 -23.8686 -23.6456 -23.3360 -20.6753 -12.5759  -3.0237  -2.7410
    -2.5970  -1.4397  -0.8224   0.5260   3.5811   5.6850   6.2419   6.7437
     7.2426   7.7363   9.4952  10.4892  11.7872  12.6272  14.1902  15.2931
    15.9170  16.3596

          k = 0.3125-0.0356 0.0000 (  5868 PWs)   bands (ev):

   -45.4921 -23.8686 -23.6179 -23.3435 -20.6773 -12.6100  -2.9596  -2.7882
    -2.6101  -1.2446  -0.8211   0.4277   3.6730   5.5573   6.2062   6.6973
     7.1515   7.6703   9.4451  10.5278  12.2283  12.7333  13.3577  15.1817
    16.0209  16.4529

          k = 0.3750 0.2133 0.0000 (  5903 PWs)   bands (ev):

   -45.4768 -23.9145 -23.6989 -23.3573 -20.6643 -12.3639  -3.1730  -2.6546
    -2.6036  -2.1775  -0.7602   0.4149   3.4112   5.9794   6.6517   7.1135
     7.6096   8.5238   9.7357  10.7132  11.7824  12.4262  13.5993  14.9981
    15.4779  15.5844

          k = 0.3750 0.2844 0.0000 (  5874 PWs)   bands (ev):

   -45.4729 -23.9349 -23.6931 -23.3796 -20.6602 -12.2975  -3.1901  -2.6830
    -2.6157  -2.2839  -0.7400   0.2253   3.4614   6.1283   6.6390   7.1681
     7.7055   9.0155   9.8600  10.9173  11.8945  12.4537  13.1647  14.5422
    14.9428  15.5898

          k = 0.3750 0.3555 0.0000 (  5870 PWs)   bands (ev):

   -45.4691 -23.9387 -23.6828 -23.4264 -20.6533 -12.2297  -3.1626  -2.7888
    -2.6021  -2.2601  -0.7320  -0.1683   3.6402   6.2985   6.5630   7.1408
     7.6522   9.7690  10.1655  11.3080  11.9753  12.4328  12.9769  14.0554
    14.7080  15.4296

          k = 0.3750 0.4266 0.0000 (  5865 PWs)   bands (ev):

   -45.4658 -23.9242 -23.6727 -23.4879 -20.6455 -12.1714  -3.1232  -2.8544
    -2.5819  -2.1638  -0.7806  -0.6066   3.8859   6.3543   6.5134   7.1549
     7.5018  10.2206  10.8603  11.7366  11.9622  12.3982  13.1360  14.0047
    14.5483  15.1823

          k = 0.3750 0.4977 0.0000 (  5860 PWs)   bands (ev):

   -45.4636 -23.8997 -23.6660 -23.5448 -20.6394 -12.1319  -3.1266  -2.8304
    -2.5608  -2.0102  -1.1552  -0.6985   4.1147   6.2981   6.4722   7.1602
     7.4366  10.3182  11.6030  11.8683  11.9402  12.9322  13.4019  13.8548
    14.4679  15.0683

          k = 0.3750 0.5688 0.0000 (  5866 PWs)   bands (ev):

   -45.4628 -23.8863 -23.6640 -23.5694 -20.6371 -12.1180  -3.1379  -2.8038
    -2.5499  -1.8787  -1.4023  -0.7048   4.2141   6.2458   6.4675   7.1081
     7.4733  10.3225  11.6146  11.8840  12.5970  12.8419  13.4846  13.8012
    14.5646  15.1750

          k = 0.3750-0.1422 0.0000 (  5886 PWs)   bands (ev):

   -45.4801 -23.8877 -23.6951 -23.3597 -20.6653 -12.4192  -3.1170  -2.6703
    -2.6192  -1.9526  -0.7859   0.3636   3.4951   5.8942   6.4518   7.0391
     7.4790   8.3331   9.7649  10.7405  11.7678  12.4443  14.1395  14.8133
    15.4573  16.2413

          k = 0.3750-0.0711 0.0000 (  5879 PWs)   bands (ev):

   -45.4822 -23.8675 -23.6820 -23.3758 -20.6646 -12.4557  -3.0469  -2.7022
    -2.6425  -1.7103  -0.8135   0.1869   3.6314   5.7510   6.3362   6.9176
     7.4376   8.2695   9.8161  10.9165  11.9998  12.5094  14.1305  14.5484
    15.2468  16.3128

          k = 0.3750 0.0000 0.0000 (  5874 PWs)   bands (ev):

   -45.4830 -23.8606 -23.6735 -23.3854 -20.6641 -12.4684  -3.0101  -2.7266
    -2.6491  -1.5938  -0.8300   0.0885   3.6994   5.6432   6.3749   6.8157
     7.4422   8.2540   9.8347  10.9916  12.3348  12.5396  13.6142  14.4478
    15.5834  16.0620

          k = 0.4375 0.2489 0.0000 (  5875 PWs)   bands (ev):

   -45.4707 -23.9637 -23.6892 -23.3702 -20.6622 -12.2600  -3.2434  -2.6689
    -2.6147  -2.4390  -0.7191   0.3364   3.3699   6.1974   6.6979   7.2544
     7.8864   9.1758   9.8007  10.8894  11.8111  12.3601  12.9899  14.4627
    14.7988  15.1375

          k = 0.4375 0.3200 0.0000 (  5870 PWs)   bands (ev):

   -45.4686 -23.9708 -23.6833 -23.3891 -20.6594 -12.2244  -3.2392  -2.7447
    -2.6092  -2.4244  -0.7107   0.1691   3.4424   6.3168   6.6627   7.2263
     7.8677   9.6228   9.9600  11.0724  11.6452  12.3076  13.0606  14.0811
    14.6565  15.0189

          k = 0.4375 0.3911 0.0000 (  5873 PWs)   bands (ev):

   -45.4668 -23.9567 -23.6772 -23.4324 -20.6532 -12.1917  -3.1827  -2.8329
    -2.5964  -2.3233  -0.7169  -0.2013   3.6388   6.4034   6.6023   7.1542
     7.6735  10.0164  10.5177  11.4307  11.5300  12.2971  13.1113  13.9248
    14.6537  14.9212

          k = 0.4375 0.4622 0.0000 (  5868 PWs)   bands (ev):

   -45.4654 -23.9277 -23.6722 -23.4865 -20.6463 -12.1668  -3.1250  -2.8596
    -2.5828  -2.1779  -0.7807  -0.5902   3.8775   6.3454   6.5189   7.1419
     7.5212  10.2375  10.9490  11.7293  11.8996  12.3939  13.1445  14.0009
    14.5255  15.1567

          k = 0.4375 0.5333 0.0000 (  5865 PWs)   bands (ev):

   -45.4646 -23.9016 -23.6695 -23.5273 -20.6417 -12.1534  -3.1117  -2.8323
    -2.5720  -2.0258  -1.0419  -0.6815   4.0545   6.1689   6.5327   7.0879
     7.5222  10.3605  10.9809  11.6939  12.5738  12.9759  13.1731  13.8109
    14.4274  14.9574

          k = 0.4375-0.1778 0.0000 (  5884 PWs)   bands (ev):

   -45.4725 -23.9382 -23.6929 -23.3782 -20.6610 -12.2930  -3.1936  -2.6817
    -2.6183  -2.2991  -0.7382   0.2426   3.4503   6.1299   6.6093   7.1879
     7.7080   9.0454   9.8780  10.9157  11.8908  12.4616  13.1513  14.5156
    14.9452  15.5819

          k = 0.4375-0.1067 0.0000 (  5883 PWs)   bands (ev):

   -45.4739 -23.9048 -23.6924 -23.4043 -20.6575 -12.3183  -3.1192  -2.7140
    -2.6297  -2.0851  -0.7670  -0.0117   3.6176   6.0316   6.4545   7.0573
     7.6148   9.0435  10.0464  11.1867  11.9855  12.4845  13.5668  14.2646
    14.9982  16.0952

          k = 0.4375-0.0356 0.0000 (  5881 PWs)   bands (ev):

   -45.4747 -23.8809 -23.6889 -23.4287 -20.6548 -12.3321  -3.0626  -2.7379
    -2.6379  -1.9035  -0.8026  -0.2275   3.7570   5.8344   6.5203   6.8680
     7.6270   9.0492  10.1577  11.4356  12.2537  12.5090  13.7345  14.2498
    14.6422  15.6690

          k =-0.5000-0.2844 0.0000 (  5882 PWs)   bands (ev):

   -45.4685 -23.9830 -23.6834 -23.3747 -20.6619 -12.2224  -3.2726  -2.7040
    -2.6191  -2.4964  -0.7039   0.3096   3.3590   6.3253   6.6512   7.2923
     8.0083   9.5421   9.8330  11.0716  11.4363  12.2848  13.1485  14.0042
    14.6230  14.9649

          k =-0.5000-0.2133 0.0000 (  5876 PWs)   bands (ev):

   -45.4685 -23.9721 -23.6832 -23.3886 -20.6597 -12.2228  -3.2408  -2.7450
    -2.6099  -2.4290  -0.7101   0.1755   3.4382   6.3240   6.6416   7.2363
     7.8662   9.6479   9.9662  11.0769  11.6241  12.3134  13.0708  14.0640
    14.6241  15.0448

          k =-0.5000-0.1422 0.0000 (  5872 PWs)   bands (ev):

   -45.4685 -23.9435 -23.6823 -23.4244 -20.6544 -12.2236  -3.1669  -2.7928
    -2.6036  -2.2783  -0.7304  -0.1462   3.6270   6.3056   6.5325   7.1449
     7.6687   9.8111  10.2118  11.3075  11.9413  12.4420  12.9756  14.0306
    14.6709  15.4280

          k =-0.5000-0.0711 0.0000 (  5881 PWs)   bands (ev):

   -45.4685 -23.9108 -23.6807 -23.4650 -20.6491 -12.2245  -3.1032  -2.8079
    -2.6008  -2.0996  -0.7826  -0.4644   3.8261   6.1054   6.5414   7.0107
     7.6290   9.9060  10.3727  11.7049  12.1400  12.6524  13.1898  13.9258
    14.6894  15.4594

          k =-0.5000-0.0000 0.0000 (  5884 PWs)   bands (ev):

   -45.4685 -23.8956 -23.6796 -23.4839 -20.6469 -12.2248  -3.0821  -2.8055
    -2.6002  -2.0018  -0.8493  -0.5734   3.9169   5.9745   6.6124   6.9054
     7.6452   9.9316  10.4357  11.7622  12.3284  12.8010  13.4757  13.9900
    14.4224  14.9723

     highest occupied, lowest unoccupied level (ev):     4.2204    5.4625

!    total energy              =    -571.23423101 Ry
     total all-electron energy =    -12610.611642 Ry
     estimated scf accuracy    <          1.1E-11 Ry

     The total energy is the sum of the following terms:
     one-electron contribution =    -277.60366924 Ry
     hartree contribution      =     147.21557929 Ry
     xc contribution           =     -36.33775509 Ry
     ewald contribution        =      -7.65404883 Ry
     one-center paw contrib.   =    -396.85433714 Ry

     convergence has been achieved in   4 iterations

     negative rho (up, down):  3.722E-05 0.000E+00

     Forces acting on atoms (cartesian axes, Ry/au):

     atom    1 type  1   force =     0.00000000   -0.00005158   -0.00006223
     atom    2 type  2   force =     0.00000000    0.00004393    0.00013856
     atom    3 type  3   force =     0.00000000    0.00000765   -0.00007633
     The non-local contrib.  to forces
     atom    1 type  1   force =     0.00000000    0.00309241   -0.02498238
     atom    2 type  2   force =     0.00000000    0.02206561   -0.97771308
     atom    3 type  3   force =     0.00000000    0.00119658    0.21083577
     The ionic contribution  to forces
     atom    1 type  1   force =    -0.00000001    0.16604650   -0.47065585
     atom    2 type  2   force =     0.00000001   -0.12323560   24.24542196
     atom    3 type  3   force =     0.00000000   -0.04281090  -23.77476611
     The local contribution  to forces
     atom    1 type  1   force =    -0.00000000   -0.16906474    0.49139416
     atom    2 type  2   force =     0.00000027    0.10127988  -23.27074887
     atom    3 type  3   force =    -0.00000000    0.04151893   23.56660092
     The core correction contribution to forces
     atom    1 type  1   force =    -0.00000000   -0.00012593    0.00417804
     atom    2 type  2   force =     0.00000000   -0.00006632    0.00317914
     atom    3 type  3   force =    -0.00000000    0.00010286   -0.00275667
     The Hubbard contrib.    to forces
     atom    1 type  1   force =     0.00000000    0.00000000    0.00000000
     atom    2 type  2   force =     0.00000000    0.00000000    0.00000000
     atom    3 type  3   force =     0.00000000    0.00000000    0.00000000
     The SCF correction term to forces
     atom    1 type  1   force =     0.00000000    0.00000026    0.00000002
     atom    2 type  2   force =     0.00000000    0.00000045   -0.00000436
     atom    3 type  3   force =     0.00000000    0.00000028    0.00000598

     Total force =     0.000183     Total SCF correction =     0.000007
     Energy error            =      4.5E-08 Ry
     Gradient error          =      1.4E-04 Ry/Bohr

     number of scf cycles    =  11
     number of bfgs steps    =  10

     energy             old  =    -571.2342309689 Ry
     energy             new  =    -571.2342310137 Ry

     CASE: energy            _new < energy            _old

     new trust radius        =       0.0003069461 bohr
     new conv_thr            =            1.0E-10 Ry


ATOMIC_POSITIONS (angstrom)
Zr            0.0000000000       -0.0177053139       10.1030169817
F            -0.0000000020        1.9422944037       11.3997348791
Br           -0.0000000020        1.9372186734        8.2154268523



     Writing config-only to output data dir ./tmp/ZrFBr.save/
     NEW-OLD atomic charge density approx. for the potential

     Check: negative core charge=   -0.000002

     negative rho (up, down):  3.724E-05 0.000E+00

     total cpu time spent up to now is      121.4 secs

     Self-consistent Calculation

     iteration #  1     ecut=    65.00 Ry     beta= 0.70
     Davidson diagonalization with overlap
     ethr =  1.00E-06,  avg # of iterations =  2.0

     Threshold (ethr) on eigenvalues was too large:
     Diagonalizing with lowered threshold

     Davidson diagonalization with overlap
     ethr =  2.83E-11,  avg # of iterations =  4.0

     negative rho (up, down):  3.721E-05 0.000E+00

     total cpu time spent up to now is      124.6 secs

     total energy              =    -571.23423106 Ry
     estimated scf accuracy    <          8.0E-09 Ry

     iteration #  2     ecut=    65.00 Ry     beta= 0.70
     Davidson diagonalization with overlap
     ethr =  3.06E-11,  avg # of iterations =  2.0

     negative rho (up, down):  3.722E-05 0.000E+00

     total cpu time spent up to now is      126.0 secs

     total energy              =    -571.23423106 Ry
     estimated scf accuracy    <          4.4E-09 Ry

     iteration #  3     ecut=    65.00 Ry     beta= 0.70
     Davidson diagonalization with overlap
     ethr =  1.70E-11,  avg # of iterations =  2.0

     negative rho (up, down):  3.722E-05 0.000E+00

     total cpu time spent up to now is      127.4 secs

     total energy              =    -571.23423106 Ry
     estimated scf accuracy    <          2.1E-09 Ry

     iteration #  4     ecut=    65.00 Ry     beta= 0.70
     Davidson diagonalization with overlap
     ethr =  7.97E-12,  avg # of iterations =  1.0

     negative rho (up, down):  3.722E-05 0.000E+00

     total cpu time spent up to now is      128.6 secs

     total energy              =    -571.23423106 Ry
     estimated scf accuracy    <          1.9E-10 Ry

     iteration #  5     ecut=    65.00 Ry     beta= 0.70
     Davidson diagonalization with overlap
     ethr =  7.24E-13,  avg # of iterations =  2.0

     negative rho (up, down):  3.722E-05 0.000E+00

     total cpu time spent up to now is      129.9 secs

     End of self-consistent calculation

          k = 0.0000 0.0000 0.0000 (  5879 PWs)   bands (ev):

   -45.5250 -23.9783 -23.2600 -23.2370 -20.7602 -13.0611  -3.2250  -2.5726
    -2.5452  -1.1976   1.1466   1.2544   3.7337   5.6279   5.7480   5.8014
     6.5950   6.6720   7.8187   8.6159  11.0187  13.8482  14.3984  14.6618
    15.2018  17.0909

          k = 0.0000 0.0711 0.0000 (  5863 PWs)   bands (ev):

   -45.5231 -23.9704 -23.2886 -23.2412 -20.7523 -13.0348  -3.1925  -2.6064
    -2.5447  -1.1771   0.9327   1.2171   3.7443   5.5737   5.8422   5.8456
     6.5555   6.7217   7.9364   8.8330  11.1452  13.8991  14.0623  14.7902
    15.0646  17.2472

          k = 0.0000 0.1422 0.0000 (  5849 PWs)   bands (ev):

   -45.5174 -23.9483 -23.3674 -23.2532 -20.7318 -12.9585  -3.1051  -2.6928
    -2.5441  -1.1281   0.3934   1.1145   3.7471   5.5067   5.9448   5.9714
     6.6446   6.8526   8.2580   9.3115  11.5130  13.4378  13.8765  14.8982
    15.1717  17.3212

          k = 0.0000 0.2133 0.0000 (  5850 PWs)   bands (ev):

   -45.5089 -23.9167 -23.4784 -23.2712 -20.7068 -12.8401  -3.0000  -2.7899
    -2.5458  -1.0833  -0.2780   0.9701   3.6913   5.5180   5.9933   6.1978
     6.9675   7.0267   8.7101   9.8119  11.8896  13.0699  13.5041  15.2250
    15.7924  17.0026

          k = 0.0000 0.2844 0.0000 (  5874 PWs)   bands (ev):

   -45.4989 -23.8855 -23.5956 -23.2922 -20.6849 -12.6929  -2.9966  -2.7862
    -2.5519  -1.2077  -0.7904   0.8123   3.5760   5.6252   6.1488   6.5112
     7.2126   7.3934   9.1865  10.2273  11.7724  12.7681  13.8835  15.6539
    16.1842  16.5605

          k = 0.0000 0.3555 0.0000 (  5874 PWs)   bands (ev):

   -45.4889 -23.8777 -23.6821 -23.3132 -20.6700 -12.5367  -3.0881  -2.7043
    -2.5621  -1.7257  -0.8310   0.6662   3.4542   5.7917   6.4113   6.8630
     7.4061   7.8920   9.5472  10.5163  11.6389  12.4511  14.4399  14.9669
    16.1406  16.2419

          k = 0.0000 0.4266 0.0000 (  5870 PWs)   bands (ev):

   -45.4803 -23.9162 -23.7054 -23.3308 -20.6623 -12.3962  -3.1795  -2.6528
    -2.5737  -2.1851  -0.7867   0.5503   3.3686   5.9974   6.6387   7.1463
     7.6412   8.4821   9.6997  10.7216  11.7346  12.3599  13.4706  14.9020
    15.3693  15.7350

          k = 0.0000 0.4977 0.0000 (  5892 PWs)   bands (ev):

   -45.4746 -23.9629 -23.6976 -23.3426 -20.6594 -12.2975  -3.2522  -2.6585
    -2.5829  -2.4413  -0.7492   0.4765   3.3267   6.2128   6.7036   7.2886
     7.8884   9.1235   9.7707  10.8806  11.7224  12.2627  12.9251  14.3841
    14.6814  15.3216

          k = 0.0000-0.5688 0.0000 (  5874 PWs)   bands (ev):

   -45.4726 -23.9813 -23.6924 -23.3467 -20.6589 -12.2619  -3.2824  -2.6886
    -2.5864  -2.4984  -0.7353   0.4512   3.3155   6.3347   6.6698   7.3282
     7.9968   9.4755   9.8240  11.0510  11.3148  12.1995  13.0943  13.9329
    14.5058  15.1588

          k = 0.0625 0.0356 0.0000 (  5870 PWs)   bands (ev):

   -45.5229 -23.9701 -23.2771 -23.2542 -20.7521 -13.0337  -3.1917  -2.5921
    -2.5607  -1.1757   0.9961   1.1450   3.7480   5.6335   5.7741   5.8479
     6.5873   6.6798   7.9426   8.8414  11.1502  13.8995  14.1857  14.6127
    15.0880  17.3091

          k = 0.0625 0.1067 0.0000 (  5846 PWs)   bands (ev):

   -45.5191 -23.9551 -23.3369 -23.2562 -20.7379 -12.9823  -3.1313  -2.6607
    -2.5518  -1.1411   0.5931   1.1014   3.7564   5.5351   5.8893   5.9571
     6.5884   6.7980   8.1613   9.1812  11.4052  13.6193  13.9384  14.8215
    15.0726  17.3496

          k = 0.0625 0.1778 0.0000 (  5844 PWs)   bands (ev):

   -45.5120 -23.9280 -23.4322 -23.2708 -20.7154 -12.8848  -3.0299  -2.7573
    -2.5520  -1.0922  -0.0023   0.9661   3.7352   5.4777   6.0082   6.1156
     6.7720   6.9883   8.5485   9.6564  11.8650  13.0959  13.6288  14.9635
    15.6329  16.9490

          k = 0.0625 0.2489 0.0000 (  5858 PWs)   bands (ev):

   -45.5028 -23.8957 -23.5452 -23.2920 -20.6922 -12.7517  -2.9573  -2.8187
    -2.5588  -1.0897  -0.6178   0.7930   3.6584   5.5303   6.0839   6.4248
     7.0473   7.2722   9.0160  10.1141  12.0327  12.9237  13.4029  15.3861
    16.2665  16.5242

          k = 0.0625 0.3200 0.0000 (  5863 PWs)   bands (ev):

   -45.4927 -23.8732 -23.6475 -23.3154 -20.6741 -12.5993  -3.0269  -2.7451
    -2.5723  -1.4492  -0.8393   0.6181   3.5533   5.6919   6.2381   6.7776
     7.2815   7.7102   9.4473  10.4920  11.7927  12.5933  14.1373  15.1970
    15.8876  16.3439

          k = 0.0625 0.3911 0.0000 (  5869 PWs)   bands (ev):

   -45.4834 -23.8890 -23.6993 -23.3371 -20.6631 -12.4498  -3.1196  -2.6710
    -2.5932  -1.9505  -0.8093   0.4669   3.4667   5.9134   6.4501   7.0575
     7.5055   8.2929   9.7171  10.7592  11.7441  12.3960  14.0118  14.7801
    15.4105  16.2465

          k = 0.0625 0.4622 0.0000 (  5873 PWs)   bands (ev):

   -45.4763 -23.9363 -23.7002 -23.3538 -20.6581 -12.3289  -3.1981  -2.6638
    -2.6060  -2.2891  -0.7660   0.3569   3.4193   6.1474   6.6192   7.2077
     7.7153   8.9852   9.8333  10.9338  11.8371  12.3791  13.0622  14.5141
    14.8501  15.6329

          k = 0.0625 0.5333 0.0000 (  5872 PWs)   bands (ev):

   -45.4725 -23.9697 -23.6917 -23.3628 -20.6565 -12.2608  -3.2481  -2.7234
    -2.5980  -2.4170  -0.7398   0.2992   3.4029   6.3334   6.6623   7.2615
     7.8570   9.5707   9.9514  11.0677  11.5324  12.2297  13.0177  14.0167
    14.5470  15.1467

          k = 0.1250 0.0711 0.0000 (  5859 PWs)   bands (ev):

   -45.5169 -23.9469 -23.3545 -23.2716 -20.7314 -12.9539  -3.1021  -2.6785
    -2.5644  -1.1230   0.4553   1.0225   3.7621   5.5826   5.8584   5.9629
     6.6635   6.8072   8.2770   9.3280  11.5313  13.4962  13.9164  14.9241
    14.9947  17.3564

          k = 0.1250 0.1422 0.0000 (  5856 PWs)   bands (ev):

   -45.5116 -23.9270 -23.4262 -23.2809 -20.7151 -12.8814  -3.0277  -2.7513
    -2.5625  -1.0884   0.0306   0.9099   3.7484   5.4945   5.9998   6.0938
     6.7773   6.9679   8.5604   9.6639  11.8772  13.1220  13.6519  14.9708
    15.5608  16.9208

          k = 0.1250 0.2133 0.0000 (  5851 PWs)   bands (ev):

   -45.5038 -23.8987 -23.5200 -23.3026 -20.6946 -12.7688  -2.9327  -2.8328
    -2.5723  -1.0639  -0.4845   0.7009   3.7149   5.4619   6.1155   6.3949
     6.9286   7.2510   8.9655  10.0875  12.4199  12.7099  13.2486  15.2144
    16.1748  16.4836

          k = 0.1250 0.2844 0.0000 (  5852 PWs)   bands (ev):

   -45.4945 -23.8721 -23.6154 -23.3315 -20.6758 -12.6295  -2.9588  -2.7912
    -2.5929  -1.2373  -0.8236   0.4588   3.6666   5.5477   6.2283   6.7156
     7.1731   7.6492   9.4009  10.5236  12.2698  12.7422  13.3513  15.1464
    15.9288  16.4092

          k = 0.1250 0.3555 0.0000 (  5867 PWs)   bands (ev):

   -45.4852 -23.8678 -23.6819 -23.3615 -20.6623 -12.4822  -3.0446  -2.7021
    -2.6243  -1.6894  -0.8296   0.2321   3.6250   5.7575   6.3500   6.9345
     7.4379   8.2360   9.7632  10.9253  12.0254  12.5063  14.1165  14.4746
    15.2078  16.2592

          k = 0.1250 0.4266 0.0000 (  5872 PWs)   bands (ev):

   -45.4773 -23.9008 -23.6973 -23.3875 -20.6545 -12.3501  -3.1175  -2.6932
    -2.6280  -2.0616  -0.7880   0.0504   3.6075   6.0468   6.4581   7.0846
     7.6003   8.9862   9.9824  11.2254  11.9770  12.4477  13.4874  14.2624
    14.9403  16.0819

          k = 0.1250 0.4977 0.0000 (  5871 PWs)   bands (ev):

   -45.4721 -23.9390 -23.6895 -23.4051 -20.6511 -12.2577  -3.1680  -2.7711
    -2.6006  -2.2570  -0.7537  -0.0670   3.6100   6.3176   6.5397   7.1722
     7.6504   9.7330  10.1480  11.3585  11.9140  12.3613  12.9239  14.0363
    14.6091  15.4175

          k = 0.1250 0.5688 0.0000 (  5878 PWs)   bands (ev):

   -45.4702 -23.9542 -23.6847 -23.4113 -20.6502 -12.2244  -3.1869  -2.8133
    -2.5927  -2.3083  -0.7408  -0.1077   3.6142   6.4176   6.5969   7.1827
     7.6596   9.9442  10.5127  11.3872  11.5153  12.2514  13.0716  13.8679
    14.5828  14.9518

          k = 0.1250 0.0000 0.0000 (  5872 PWs)   bands (ev):

   -45.5187 -23.9541 -23.3245 -23.2726 -20.7377 -12.9789  -3.1292  -2.6462
    -2.5707  -1.1373   0.6412   1.0345   3.7646   5.6378   5.7793   5.9525
     6.5755   6.7871   8.1768   9.1943  11.4169  13.6821  13.9590  14.7484
    15.0091  17.3488

          k = 0.1875 0.1067 0.0000 (  5867 PWs)   bands (ev):

   -45.5078 -23.9137 -23.4687 -23.2919 -20.7064 -12.8300  -2.9943  -2.7798
    -2.5680  -1.0721  -0.2306   0.8650   3.7212   5.5544   6.0091   6.1082
     6.9615   7.0022   8.7417   9.8263  11.9097  13.1165  13.5556  15.2649
    15.6322  17.0207

          k = 0.1875 0.1778 0.0000 (  5870 PWs)   bands (ev):

   -45.5018 -23.8930 -23.5382 -23.3087 -20.6919 -12.7426  -2.9515  -2.8136
    -2.5752  -1.0760  -0.5830   0.7010   3.6880   5.5340   6.0874   6.3898
     7.0239   7.2724   9.0401  10.1200  12.0357  12.9650  13.4656  15.4235
    16.1865  16.4857

          k = 0.1875 0.2489 0.0000 (  5864 PWs)   bands (ev):

   -45.4939 -23.8704 -23.6122 -23.3404 -20.6758 -12.6239  -2.9551  -2.7908
    -2.6004  -1.2213  -0.8145   0.4091   3.6835   5.5435   6.2283   6.7083
     7.1552   7.6545   9.4132  10.5223  12.2581  12.7468  13.4209  15.1496
    15.9771  16.4251

          k = 0.1875 0.3200 0.0000 (  5877 PWs)   bands (ev):

   -45.4854 -23.8593 -23.6692 -23.3811 -20.6617 -12.4890  -3.0033  -2.7279
    -2.6370  -1.5492  -0.8386   0.0733   3.7139   5.6372   6.3999   6.8231
     7.4257   8.2257   9.7886  10.9845  12.3572  12.5999  13.6475  14.4162
    15.5556  16.0127

          k = 0.1875 0.3911 0.0000 (  5868 PWs)   bands (ev):

   -45.4775 -23.8744 -23.6902 -23.4221 -20.6517 -12.3577  -3.0560  -2.7237
    -2.6357  -1.8582  -0.8145  -0.2291   3.7693   5.8350   6.5226   6.9002
     7.5967   8.9968  10.0905  11.4367  12.2491  12.5863  13.7191  14.2277
    14.6255  15.7047

          k = 0.1875 0.4622 0.0000 (  5868 PWs)   bands (ev):

   -45.4715 -23.9032 -23.6855 -23.4553 -20.6458 -12.2524  -3.0983  -2.7895
    -2.5992  -2.0646  -0.7893  -0.4505   3.8307   6.1100   6.5300   7.0558
     7.5948   9.8391  10.2722  11.7378  12.1667  12.6722  13.1297  13.9388
    14.6458  15.5436

          k = 0.1875 0.5333 0.0000 (  5882 PWs)   bands (ev):

   -45.4682 -23.9227 -23.6781 -23.4737 -20.6433 -12.1936  -3.1219  -2.8446
    -2.5807  -2.1564  -0.7752  -0.5658   3.8719   6.3529   6.5027   7.1794
     7.4976  10.1620  10.8522  11.7287  11.9593  12.4171  13.0868  13.9775
    14.5022  15.1352

          k = 0.1875-0.0356 0.0000 (  5864 PWs)   bands (ev):

   -45.5110 -23.9255 -23.4236 -23.2889 -20.7150 -12.8761  -3.0252  -2.7470
    -2.5726  -1.0831   0.0312   0.8914   3.7536   5.5406   5.9974   6.0328
     6.7329   6.9955   8.5793   9.6713  11.8855  13.1217  13.6584  14.9510
    15.5328  16.9429

          k = 0.2500 0.1422 0.0000 (  5878 PWs)   bands (ev):

   -45.4971 -23.8808 -23.5896 -23.3152 -20.6848 -12.6759  -2.9894  -2.7801
    -2.5762  -1.1820  -0.7667   0.6949   3.6151   5.6267   6.1789   6.4355
     7.1645   7.4153   9.2270  10.2329  11.7794  12.8147  13.9708  15.7404
    16.2874  16.4213

          k = 0.2500 0.2133 0.0000 (  5886 PWs)   bands (ev):

   -45.4910 -23.8687 -23.6419 -23.3367 -20.6742 -12.5831  -3.0202  -2.7419
    -2.5926  -1.4186  -0.8221   0.5037   3.5926   5.6840   6.2478   6.7439
     7.2402   7.7283   9.4797  10.4871  11.7991  12.6345  14.2547  15.2955
    15.8994  16.3414

          k = 0.2500 0.2844 0.0000 (  5877 PWs)   bands (ev):

   -45.4839 -23.8645 -23.6780 -23.3771 -20.6626 -12.4694  -3.0398  -2.7056
    -2.6330  -1.6662  -0.8185   0.1497   3.6530   5.7501   6.3522   6.9194
     7.4164   8.2464   9.7842  10.9107  12.0250  12.5180  14.2012  14.5616
    15.2683  16.2680

          k = 0.2500 0.3555 0.0000 (  5875 PWs)   bands (ev):

   -45.4768 -23.8729 -23.6882 -23.4299 -20.6520 -12.3506  -3.0543  -2.7308
    -2.6337  -1.8479  -0.8103  -0.2676   3.7818   5.8342   6.5210   6.8945
     7.5907   9.0013  10.1016  11.4239  12.2533  12.5557  13.7334  14.3409
    14.6822  15.6341

          k = 0.2500 0.4266 0.0000 (  5876 PWs)   bands (ev):

   -45.4707 -23.8857 -23.6819 -23.4834 -20.6440 -12.2454  -3.0755  -2.7908
    -2.5978  -1.9491  -0.8540  -0.6067   3.9377   5.9750   6.5830   6.9621
     7.6044   9.8738  10.3370  11.7714  12.2842  12.9085  13.4880  14.0107
    14.4448  15.0090

          k = 0.2500 0.4977 0.0000 (  5873 PWs)   bands (ev):

   -45.4667 -23.8939 -23.6731 -23.5237 -20.6391 -12.1728  -3.1061  -2.8197
    -2.5698  -1.9889  -1.0359  -0.7025   4.0659   6.1686   6.5125   7.1226
     7.4972  10.2998  10.8570  11.7325  12.5363  13.0528  13.2085  13.8423
    14.4099  14.9756

          k = 0.2500 0.5688 0.0000 (  5864 PWs)   bands (ev):

   -45.4653 -23.8963 -23.6695 -23.5388 -20.6375 -12.1468  -3.1217  -2.8245
    -2.5593  -1.9969  -1.1305  -0.7113   4.1156   6.2909   6.4621   7.1713
     7.4385  10.2659  11.6244  11.8116  11.8710  13.0582  13.4156  13.8620
    14.4370  15.0388

          k = 0.2500-0.0711 0.0000 (  5875 PWs)   bands (ev):

   -45.5011 -23.8917 -23.5412 -23.3113 -20.6923 -12.7361  -2.9511  -2.8131
    -2.5806  -1.0737  -0.6010   0.7107   3.6839   5.5514   6.0861   6.3581
     7.0020   7.2929   9.0578  10.1235  12.0290  12.9541  13.4344  15.4041
    16.2536  16.5182

          k = 0.2500 0.0000 0.0000 (  5876 PWs)   bands (ev):

   -45.5025 -23.8959 -23.5205 -23.3132 -20.6949 -12.7569  -2.9288  -2.8306
    -2.5861  -1.0539  -0.4958   0.6782   3.7215   5.4922   6.0998   6.3492
     6.8905   7.2745   8.9992  10.0952  12.4241  12.6808  13.2495  15.2205
    16.2126  16.4849

          k = 0.3125 0.1778 0.0000 (  5884 PWs)   bands (ev):

   -45.4863 -23.8730 -23.6779 -23.3382 -20.6707 -12.5120  -3.0820  -2.7006
    -2.5889  -1.7062  -0.8098   0.5383   3.4958   5.7776   6.4378   6.8138
     7.3587   7.9224   9.5894  10.5079  11.6609  12.5017  14.5948  15.0637
    16.0756  16.2536

          k = 0.3125 0.2489 0.0000 (  5893 PWs)   bands (ev):

   -45.4810 -23.8849 -23.6942 -23.3615 -20.6640 -12.4258  -3.1127  -2.6727
    -2.6141  -1.9301  -0.7887   0.3399   3.5089   5.8988   6.4680   7.0221
     7.4715   8.3176   9.7490  10.7401  11.7728  12.4447  14.1563  14.8546
    15.4204  16.2863

          k = 0.3125 0.3200 0.0000 (  5897 PWs)   bands (ev):

   -45.4753 -23.8981 -23.6924 -23.4073 -20.6556 -12.3295  -3.1122  -2.7117
    -2.6252  -2.0482  -0.7714  -0.0483   3.6391   6.0379   6.4671   7.0614
     7.5872   9.0015  10.0071  11.1860  11.9946  12.4762  13.5987  14.2816
    15.0532  16.1272

          k = 0.3125 0.3911 0.0000 (  5878 PWs)   bands (ev):

   -45.4700 -23.9022 -23.6819 -23.4681 -20.6469 -12.2375  -3.0972  -2.7977
    -2.5981  -2.0588  -0.7853  -0.5042   3.8475   6.1154   6.5273   7.0445
     7.5891   9.8563  10.2931  11.6999  12.1410  12.6718  13.2392  13.9319
    14.7567  15.4700

          k = 0.3125 0.4622 0.0000 (  5864 PWs)   bands (ev):

   -45.4660 -23.8943 -23.6712 -23.5290 -20.6398 -12.1650  -3.1079  -2.8216
    -2.5697  -1.9879  -1.0591  -0.6988   4.0699   6.1775   6.5104   7.1173
     7.4937  10.3255  10.8596  11.7167  12.5619  13.0394  13.2289  13.7753
    14.4480  15.0018

          k = 0.3125 0.5333 0.0000 (  5865 PWs)   bands (ev):

   -45.4638 -23.8830 -23.6655 -23.5691 -20.6359 -12.1250  -3.1350  -2.7992
    -2.5484  -1.8541  -1.4133  -0.7122   4.2201   6.2474   6.4559   7.1096
     7.4743  10.2950  11.6298  11.7697  12.6424  12.8645  13.5860  13.7549
    14.5485  15.1621

          k = 0.3125-0.1067 0.0000 (  5884 PWs)   bands (ev):

   -45.4903 -23.8688 -23.6459 -23.3363 -20.6750 -12.5761  -3.0232  -2.7406
    -2.5963  -1.4399  -0.8227   0.5258   3.5806   5.6846   6.2414   6.7434
     7.2420   7.7364   9.4951  10.4892  11.7870  12.6270  14.1900  15.2930
    15.9170  16.3595

          k = 0.3125-0.0356 0.0000 (  5868 PWs)   bands (ev):

   -45.4925 -23.8688 -23.6183 -23.3438 -20.6769 -12.6103  -2.9591  -2.7877
    -2.6094  -1.2449  -0.8214   0.4274   3.6724   5.5568   6.2058   6.6971
     7.1509   7.6704   9.4449  10.5278  12.2281  12.7331  13.3575  15.1816
    16.0208  16.4529

          k = 0.3750 0.2133 0.0000 (  5903 PWs)   bands (ev):

   -45.4772 -23.9147 -23.6992 -23.3576 -20.6640 -12.3642  -3.1725  -2.6542
    -2.6029  -2.1777  -0.7605   0.4147   3.4107   5.9792   6.6513   7.1132
     7.6090   8.5236   9.7355  10.7132  11.7823  12.4261  13.5994  14.9981
    15.4776  15.5840

          k = 0.3750 0.2844 0.0000 (  5874 PWs)   bands (ev):

   -45.4733 -23.9350 -23.6934 -23.3799 -20.6599 -12.2977  -3.1896  -2.6825
    -2.6151  -2.2840  -0.7404   0.2250   3.4609   6.1281   6.6387   7.1677
     7.7050   9.0151   9.8598  10.9172  11.8944  12.4536  13.1648  14.5421
    14.9427  15.5894

          k = 0.3750 0.3555 0.0000 (  5870 PWs)   bands (ev):

   -45.4694 -23.9389 -23.6831 -23.4267 -20.6530 -12.2300  -3.1621  -2.7884
    -2.6017  -2.2601  -0.7323  -0.1686   3.6398   6.2982   6.5627   7.1404
     7.6518   9.7686  10.1652  11.3079  11.9750  12.4327  12.9770  14.0553
    14.7081  15.4292

          k = 0.3750 0.4266 0.0000 (  5865 PWs)   bands (ev):

   -45.4661 -23.9243 -23.6730 -23.4882 -20.6452 -12.1717  -3.1227  -2.8540
    -2.5814  -2.1639  -0.7809  -0.6069   3.8855   6.3541   6.5131   7.1545
     7.5014  10.2203  10.8602  11.7365  11.9620  12.3980  13.1361  14.0047
    14.5483  15.1823

          k = 0.3750 0.4977 0.0000 (  5860 PWs)   bands (ev):

   -45.4640 -23.8998 -23.6663 -23.5451 -20.6391 -12.1322  -3.1261  -2.8300
    -2.5603  -2.0104  -1.1555  -0.6988   4.1144   6.2979   6.4718   7.1596
     7.4362  10.3179  11.6027  11.8683  11.9403  12.9320  13.4020  13.8548
    14.4679  15.0681

          k = 0.3750 0.5688 0.0000 (  5866 PWs)   bands (ev):

   -45.4632 -23.8865 -23.6643 -23.5697 -20.6368 -12.1182  -3.1374  -2.8033
    -2.5495  -1.8789  -1.4025  -0.7051   4.2138   6.2456   6.4671   7.1073
     7.4730  10.3222  11.6142  11.8841  12.5973  12.8421  13.4843  13.8010
    14.5644  15.1750

          k = 0.3750-0.1422 0.0000 (  5886 PWs)   bands (ev):

   -45.4804 -23.8878 -23.6955 -23.3600 -20.6649 -12.4195  -3.1165  -2.6699
    -2.6185  -1.9529  -0.7862   0.3633   3.4946   5.8940   6.4513   7.0389
     7.4784   8.3331   9.7647  10.7405  11.7678  12.4441  14.1396  14.8132
    15.4570  16.2409

          k = 0.3750-0.0711 0.0000 (  5879 PWs)   bands (ev):

   -45.4826 -23.8677 -23.6823 -23.3761 -20.6643 -12.4560  -3.0464  -2.7017
    -2.6418  -1.7106  -0.8138   0.1866   3.6309   5.7506   6.3358   6.9172
     7.4370   8.2696   9.8159  10.9165  11.9997  12.5092  14.1303  14.5482
    15.2468  16.3127

          k = 0.3750 0.0000 0.0000 (  5874 PWs)   bands (ev):

   -45.4834 -23.8608 -23.6739 -23.3857 -20.6638 -12.4687  -3.0096  -2.7260
    -2.6485  -1.5941  -0.8303   0.0883   3.6989   5.6427   6.3746   6.8152
     7.4417   8.2541   9.8345  10.9917  12.3347  12.5393  13.6139  14.4475
    15.5835  16.0619

          k = 0.4375 0.2489 0.0000 (  5875 PWs)   bands (ev):

   -45.4710 -23.9639 -23.6895 -23.3705 -20.6618 -12.2603  -3.2430  -2.6687
    -2.6140  -2.4390  -0.7194   0.3362   3.3694   6.1971   6.6976   7.2540
     7.8859   9.1754   9.8006  10.8893  11.8111  12.3602  12.9900  14.4627
    14.7987  15.1371

          k = 0.4375 0.3200 0.0000 (  5870 PWs)   bands (ev):

   -45.4690 -23.9709 -23.6836 -23.3895 -20.6590 -12.2247  -3.2388  -2.7444
    -2.6087  -2.4243  -0.7110   0.1689   3.4419   6.3165   6.6625   7.2259
     7.8672   9.6223   9.9598  11.0723  11.6453  12.3075  13.0607  14.0811
    14.6564  15.0185

          k = 0.4375 0.3911 0.0000 (  5873 PWs)   bands (ev):

   -45.4672 -23.9568 -23.6775 -23.4327 -20.6529 -12.1920  -3.1822  -2.8325
    -2.5960  -2.3232  -0.7172  -0.2016   3.6383   6.4031   6.6021   7.1538
     7.6729  10.0161  10.5174  11.4305  11.5302  12.2968  13.1114  13.9248
    14.6535  14.9210

          k = 0.4375 0.4622 0.0000 (  5868 PWs)   bands (ev):

   -45.4657 -23.9279 -23.6725 -23.4868 -20.6459 -12.1671  -3.1245  -2.8592
    -2.5823  -2.1780  -0.7810  -0.5904   3.8771   6.3451   6.5186   7.1415
     7.5207  10.2373  10.9489  11.7293  11.8993  12.3937  13.1446  14.0009
    14.5254  15.1568

          k = 0.4375 0.5333 0.0000 (  5865 PWs)   bands (ev):

   -45.4650 -23.9017 -23.6698 -23.5276 -20.6414 -12.1537  -3.1112  -2.8319
    -2.5716  -2.0259  -1.0422  -0.6818   4.0542   6.1685   6.5323   7.0874
     7.5218  10.3603  10.9809  11.6936  12.5738  12.9758  13.1732  13.8109
    14.4272  14.9575

          k = 0.4375-0.1778 0.0000 (  5884 PWs)   bands (ev):

   -45.4729 -23.9383 -23.6932 -23.3785 -20.6606 -12.2933  -3.1932  -2.6812
    -2.6178  -2.2992  -0.7385   0.2423   3.4498   6.1297   6.6090   7.1876
     7.7074   9.0452   9.8777  10.9156  11.8907  12.4616  13.1515  14.5154
    14.9450  15.5816

          k = 0.4375-0.1067 0.0000 (  5883 PWs)   bands (ev):

   -45.4743 -23.9050 -23.6927 -23.4047 -20.6572 -12.3186  -3.1187  -2.7134
    -2.6293  -2.0853  -0.7673  -0.0119   3.6171   6.0313   6.4541   7.0569
     7.6142   9.0434  10.0461  11.1867  11.9854  12.4844  13.5668  14.2644
    14.9981  16.0950

          k = 0.4375-0.0356 0.0000 (  5881 PWs)   bands (ev):

   -45.4751 -23.8811 -23.6892 -23.4290 -20.6544 -12.3323  -3.0620  -2.7373
    -2.6375  -1.9038  -0.8029  -0.2277   3.7565   5.8339   6.5201   6.8675
     7.6266   9.0492  10.1575  11.4356  12.2535  12.5089  13.7342  14.2496
    14.6423  15.6690

          k =-0.5000-0.2844 0.0000 (  5882 PWs)   bands (ev):

   -45.4689 -23.9832 -23.6837 -23.3750 -20.6615 -12.2227  -3.2723  -2.7039
    -2.6184  -2.4963  -0.7042   0.3093   3.3585   6.3251   6.6510   7.2919
     8.0079   9.5415   9.8328  11.0714  11.4366  12.2848  13.1485  14.0041
    14.6229  14.9644

          k =-0.5000-0.2133 0.0000 (  5876 PWs)   bands (ev):

   -45.4689 -23.9722 -23.6835 -23.3889 -20.6593 -12.2231  -3.2404  -2.7447
    -2.6094  -2.4289  -0.7104   0.1752   3.4377   6.3238   6.6414   7.2359
     7.8656   9.6475   9.9660  11.0768  11.6242  12.3134  13.0709  14.0639
    14.6239  15.0446

          k =-0.5000-0.1422 0.0000 (  5872 PWs)   bands (ev):

   -45.4689 -23.9437 -23.6826 -23.4247 -20.6540 -12.2239  -3.1665  -2.7923
    -2.6032  -2.2784  -0.7307  -0.1464   3.6265   6.3054   6.5322   7.1446
     7.6681   9.8110  10.2115  11.3074  11.9412  12.4420  12.9757  14.0304
    14.6707  15.4279

          k =-0.5000-0.0711 0.0000 (  5881 PWs)   bands (ev):

   -45.4689 -23.9110 -23.6810 -23.4653 -20.6488 -12.2248  -3.1026  -2.8074
    -2.6004  -2.0998  -0.7829  -0.4647   3.8257   6.1050   6.5411   7.0102
     7.6286   9.9061  10.3724  11.7049  12.1398  12.6523  13.1898  13.9257
    14.6893  15.4595

          k =-0.5000-0.0000 0.0000 (  5884 PWs)   bands (ev):

   -45.4689 -23.8958 -23.6800 -23.4842 -20.6466 -12.2251  -3.0816  -2.8049
    -2.5997  -2.0021  -0.8496  -0.5737   3.9165   5.9740   6.6121   6.9048
     7.6448   9.9317  10.4355  11.7621  12.3284  12.8008  13.4755  13.9901
    14.4222  14.9723

     highest occupied, lowest unoccupied level (ev):     4.2201    5.4619

!    total energy              =    -571.23423106 Ry
     total all-electron energy =    -12610.611642 Ry
     estimated scf accuracy    <          3.8E-11 Ry

     The total energy is the sum of the following terms:
     one-electron contribution =    -277.58658232 Ry
     hartree contribution      =     147.20691337 Ry
     xc contribution           =     -36.33767755 Ry
     ewald contribution        =      -7.66254969 Ry
     one-center paw contrib.   =    -396.85433487 Ry

     convergence has been achieved in   5 iterations

     negative rho (up, down):  3.722E-05 0.000E+00

     Forces acting on atoms (cartesian axes, Ry/au):

     atom    1 type  1   force =     0.00000000   -0.00003975   -0.00001550
     atom    2 type  2   force =     0.00000000    0.00002835    0.00008477
     atom    3 type  3   force =     0.00000000    0.00001140   -0.00006927
     The non-local contrib.  to forces
     atom    1 type  1   force =     0.00000000    0.00310736   -0.02499791
     atom    2 type  2   force =     0.00000000    0.02215346   -0.97791834
     atom    3 type  3   force =     0.00000000    0.00119833    0.21084366
     The ionic contribution  to forces
     atom    1 type  1   force =    -0.00000001    0.16666056   -0.47113857
     atom    2 type  2   force =     0.00000001   -0.12384939   24.24515219
     atom    3 type  3   force =     0.00000000   -0.04281117  -23.77401362
     The local contribution  to forces
     atom    1 type  1   force =    -0.00000000   -0.16968178    0.49191995
     atom    2 type  2   force =     0.00000027    0.10179060  -23.27033341
     atom    3 type  3   force =    -0.00000000    0.04152146   23.56584424
     The core correction contribution to forces
     atom    1 type  1   force =    -0.00000000   -0.00012580    0.00417858
     atom    2 type  2   force =     0.00000000   -0.00006652    0.00318007
     atom    3 type  3   force =    -0.00000000    0.00010277   -0.00275737
     The Hubbard contrib.    to forces
     atom    1 type  1   force =     0.00000000    0.00000000    0.00000000
     atom    2 type  2   force =     0.00000000    0.00000000    0.00000000
     atom    3 type  3   force =     0.00000000    0.00000000    0.00000000
     The SCF correction term to forces
     atom    1 type  1   force =    -0.00000000   -0.00000003    0.00001693
     atom    2 type  2   force =     0.00000000    0.00000025   -0.00000125
     atom    3 type  3   force =    -0.00000000    0.00000007    0.00000831

     Total force =     0.000121     Total SCF correction =     0.000019
     SCF correction compared to forces is large: reduce conv_thr to get better values
     Energy error            =      4.9E-08 Ry
     Gradient error          =      8.5E-05 Ry/Bohr

     bfgs converged in  12 scf cycles and  11 bfgs steps
     (criteria: energy <  1.0E-05 Ry, force <  1.0E-04 Ry/Bohr)

     End of BFGS Geometry Optimization

     Final energy             =    -571.2342310625 Ry

     File ./tmp/ZrFBr.bfgs deleted, as requested
Begin final coordinates

ATOMIC_POSITIONS (angstrom)
Zr            0.0000000000       -0.0177053139       10.1030169817
F            -0.0000000020        1.9422944037       11.3997348791
Br           -0.0000000020        1.9372186734        8.2154268523
End final coordinates



     Writing all to output data dir ./tmp/ZrFBr.save/

     init_run     :      0.58s CPU      0.62s WALL (       1 calls)
     electrons    :    121.32s CPU    124.31s WALL (      12 calls)
     update_pot   :      1.43s CPU      1.52s WALL (      11 calls)
     forces       :      2.25s CPU      2.26s WALL (      12 calls)

     Called by init_run:
     wfcinit      :      0.42s CPU      0.44s WALL (       1 calls)
     potinit      :      0.07s CPU      0.08s WALL (       1 calls)
     hinit0       :      0.07s CPU      0.07s WALL (       1 calls)

     Called by electrons:
     c_bands      :    103.41s CPU    105.31s WALL (      86 calls)
     sum_band     :     14.17s CPU     14.56s WALL (      86 calls)
     v_of_rho     :      0.28s CPU      0.29s WALL (      86 calls)
     newd         :      0.48s CPU      0.55s WALL (      86 calls)
     PAW_pot      :      3.94s CPU      4.74s WALL (      97 calls)
     mix_rho      :      0.02s CPU      0.02s WALL (      86 calls)

     Called by c_bands:
     init_us_2    :      0.79s CPU      0.81s WALL (   14308 calls)
     init_us_2:cp :      0.78s CPU      0.80s WALL (   14308 calls)
     cegterg      :    101.73s CPU    103.60s WALL (    6278 calls)

     Called by *egterg:
     cdiaghg      :     15.28s CPU     15.40s WALL (   18681 calls)
     h_psi        :     60.03s CPU     61.58s WALL (   20433 calls)
     s_psi        :      3.13s CPU      3.18s WALL (   20433 calls)
     g_psi        :      0.15s CPU      0.15s WALL (   14082 calls)

     Called by h_psi:
     h_psi:calbec :      5.35s CPU      5.48s WALL (   20433 calls)
     vloc_psi     :     51.41s CPU     52.76s WALL (   20433 calls)
     add_vuspsi   :      3.13s CPU      3.19s WALL (   20433 calls)

     General routines
     calbec       :      9.16s CPU      9.37s WALL (   31018 calls)
     fft          :      0.31s CPU      0.31s WALL (    1101 calls)
     ffts         :      0.01s CPU      0.01s WALL (      86 calls)
     fftw         :     57.94s CPU     59.46s WALL (  916520 calls)

     Parallel routines

     PWSCF        :   2m 7.13s CPU   2m10.60s WALL


   This run was terminated on:   9: 4:27  18Sep2026            

=------------------------------------------------------------------------------=
   JOB DONE.
=------------------------------------------------------------------------------=
Note: The following floating-point exceptions are signalling: IEEE_INVALID_FLAG
