
     Program PWSCF v.7.2 starts on 18Sep2026 at  8:35:41 

     This program is part of the open-source Quantum ESPRESSO suite
     for quantum simulation of materials; please cite
         "P. Giannozzi et al., J. Phys.:Condens. Matter 21 395502 (2009);
         "P. Giannozzi et al., J. Phys.:Condens. Matter 29 465901 (2017);
         "P. Giannozzi et al., J. Chem. Phys. 152 154105 (2020);
          URL http://www.quantum-espresso.org", 
     in publications or presentations arising from this work. More details at
     http://www.quantum-espresso.org/quote

     Parallel version (MPI), running on    32 processors

     MPI processes distributed on     1 nodes
     228828 MiB available memory on the printing compute node when the environment starts

     Waiting for input...
     Reading input from standard input

     Current dimensions of program PWSCF are:
     Max number of different atomic species (ntypx) = 10
     Max number of k-points (npk) =  40000
     Max angular momentum in pseudopotentials (lmaxx) =  4
     file Zr.pbe-spn-kjpaw_psl.1.0.0.UPF: wavefunction(s)  4S 4P renormalized
     file Cl.pbe-n-kjpaw_psl.1.0.0.UPF: wavefunction(s)  3S 3P renormalized
     file Br.pbe-n-kjpaw_psl.1.0.0.UPF: wavefunction(s)  4S 4P renormalized
     Message from routine setup:
     using ibrav=0 with symmetry is DISCOURAGED, use correct ibrav instead

     R & G space division:  proc/nbgrp/npool/nimage =      32
     Subspace diagonalization in iterative solution of the eigenvalue problem:
     a serial algorithm will be used


     Parallelization info
     --------------------
     sticks:   dense  smooth     PW     G-vecs:    dense   smooth      PW
     Min          24      24      6                 1566     1566     234
     Max          25      25      7                 1579     1579     251
     Sum         769     769    223                50293    50293    7787

     Using Slab Decomposition



     bravais-lattice index     =            0
     lattice parameter (alat)  =       6.5934  a.u.
     unit-cell volume          =     711.4628 (a.u.)^3
     number of atoms/cell      =            3
     number of atomic types    =            3
     number of electrons       =        26.00
     number of Kohn-Sham states=           26
     kinetic-energy cutoff     =      65.0000  Ry
     charge density cutoff     =     260.0000  Ry
     scf convergence threshold =      1.0E-08
     mixing beta               =       0.7000
     number of iterations used =            8  plain     mixing
     energy convergence thresh.=      1.0E-05
     force convergence thresh. =      1.0E-04
     Exchange-correlation= SLA  PW   PBX  PBC
                           (   1   4   3   4   0   0   0)
     nstep                     =           50


     celldm(1)=   6.593429  celldm(2)=   0.000000  celldm(3)=   0.000000
     celldm(4)=   0.000000  celldm(5)=   0.000000  celldm(6)=   0.000000

     crystal axes: (cart. coord. in units of alat)
               a(1) = (   1.000000   0.000000   0.000000 )  
               a(2) = (  -0.500000   0.866025   0.000000 )  
               a(3) = (   0.000000   0.000000   2.866075 )  

     reciprocal axes: (cart. coord. in units 2 pi/alat)
               b(1) = (  1.000000  0.577350 -0.000000 )  
               b(2) = (  0.000000  1.154701  0.000000 )  
               b(3) = (  0.000000 -0.000000  0.348909 )  


     PseudoPot. # 1 for Zr read from file:
     /mgpfs/home/rabdillah/repo/qe/pseudo/Zr.pbe-spn-kjpaw_psl.1.0.0.UPF
     MD5 check sum: 02112c41713a0468aff2bb39ef194e36
     Pseudo is Projector augmented-wave + core cor, Zval = 12.0
     Generated using &quot;atomic&quot; code by A. Dal Corso  v.6.2.2
     Shape of augmentation charge: PSQ
     Using radial grid of 1225 points,  6 beta functions with: 
                l(1) =   0
                l(2) =   0
                l(3) =   1
                l(4) =   1
                l(5) =   2
                l(6) =   2
     Q(r) pseudized with 0 coefficients 


     PseudoPot. # 2 for Cl read from file:
     /mgpfs/home/rabdillah/repo/qe/pseudo/Cl.pbe-n-kjpaw_psl.1.0.0.UPF
     MD5 check sum: 530da96d25dcb7781b0586ca00827062
     Pseudo is Projector augmented-wave + core cor, Zval =  7.0
     Generated using &quot;atomic&quot; code by A. Dal Corso  v.6.3
     Shape of augmentation charge: PSQ
     Using radial grid of 1157 points,  6 beta functions with: 
                l(1) =   0
                l(2) =   0
                l(3) =   1
                l(4) =   1
                l(5) =   2
                l(6) =   2
     Q(r) pseudized with 0 coefficients 


     PseudoPot. # 3 for Br read from file:
     /mgpfs/home/rabdillah/repo/qe/pseudo/Br.pbe-n-kjpaw_psl.1.0.0.UPF
     MD5 check sum: b00de77caabc69c0a6b76eb37264f235
     Pseudo is Projector augmented-wave + core cor, Zval =  7.0
     Generated using &quot;atomic&quot; code by A. Dal Corso  v.6.3
     Shape of augmentation charge: PSQ
     Using radial grid of 1213 points,  4 beta functions with: 
                l(1) =   0
                l(2) =   0
                l(3) =   1
                l(4) =   1
     Q(r) pseudized with 0 coefficients 


     atomic species   valence    mass     pseudopotential
        Zr            12.00    91.22400     Zr( 1.00)
        Cl             7.00    35.45300     Cl( 1.00)
        Br             7.00    79.90400     Br( 1.00)

      6 Sym. Ops. (no inversion) found



   Cartesian axes

     site n.     atom                  positions (alat units)
         1           Zr  tau(   1) = (   0.0000000   0.0000000   2.9453878  )
         2           Cl  tau(   2) = (  -0.0000000   0.5773503   3.4291986  )
         3           Br  tau(   3) = (  -0.0000000   0.5773503   2.4137016  )

     number of k points=    30
                       cart. coord. in units 2pi/alat
        k(    1) = (   0.0000000   0.0000000   0.0000000), wk =   0.0078125
        k(    2) = (   0.0000000   0.0721688   0.0000000), wk =   0.0468750
        k(    3) = (   0.0000000   0.1443376   0.0000000), wk =   0.0468750
        k(    4) = (   0.0000000   0.2165064   0.0000000), wk =   0.0468750
        k(    5) = (   0.0000000   0.2886751   0.0000000), wk =   0.0468750
        k(    6) = (   0.0000000   0.3608439   0.0000000), wk =   0.0468750
        k(    7) = (   0.0000000   0.4330127   0.0000000), wk =   0.0468750
        k(    8) = (   0.0000000   0.5051815   0.0000000), wk =   0.0468750
        k(    9) = (   0.0000000  -0.5773503   0.0000000), wk =   0.0234375
        k(   10) = (   0.0625000   0.1082532   0.0000000), wk =   0.0468750
        k(   11) = (   0.0625000   0.1804220   0.0000000), wk =   0.0937500
        k(   12) = (   0.0625000   0.2525907   0.0000000), wk =   0.0937500
        k(   13) = (   0.0625000   0.3247595   0.0000000), wk =   0.0937500
        k(   14) = (   0.0625000   0.3969283   0.0000000), wk =   0.0937500
        k(   15) = (   0.0625000   0.4690971   0.0000000), wk =   0.0937500
        k(   16) = (   0.0625000   0.5412659   0.0000000), wk =   0.0937500
        k(   17) = (   0.1250000   0.2165064   0.0000000), wk =   0.0468750
        k(   18) = (   0.1250000   0.2886751   0.0000000), wk =   0.0937500
        k(   19) = (   0.1250000   0.3608439   0.0000000), wk =   0.0937500
        k(   20) = (   0.1250000   0.4330127   0.0000000), wk =   0.0937500
        k(   21) = (   0.1250000   0.5051815   0.0000000), wk =   0.0937500
        k(   22) = (   0.1250000   0.5773503   0.0000000), wk =   0.0468750
        k(   23) = (   0.1875000   0.3247595   0.0000000), wk =   0.0468750
        k(   24) = (   0.1875000   0.3969283   0.0000000), wk =   0.0937500
        k(   25) = (   0.1875000   0.4690971   0.0000000), wk =   0.0937500
        k(   26) = (   0.1875000   0.5412659   0.0000000), wk =   0.0937500
        k(   27) = (   0.2500000   0.4330127   0.0000000), wk =   0.0468750
        k(   28) = (   0.2500000   0.5051815   0.0000000), wk =   0.0937500
        k(   29) = (   0.2500000   0.5773503   0.0000000), wk =   0.0468750
        k(   30) = (   0.3125000   0.5412659   0.0000000), wk =   0.0468750

     Dense  grid:    50293 G-vectors     FFT dimensions: (  36,  36, 100)

     Estimated max dynamical RAM per process >      12.02 MB

     Estimated total dynamical RAM >     384.62 MB

     Check: negative core charge=   -0.000004

     Initial potential from superposition of free atoms

     starting charge      25.9978, renormalised to      26.0000
     Starting wfcs are   21 randomized atomic wfcs +    5 random wfcs
     Checking if some PAW data can be deallocated... 

     total cpu time spent up to now is        0.7 secs

     Self-consistent Calculation

     iteration #  1     ecut=    65.00 Ry     beta= 0.70
     Davidson diagonalization with overlap
     ethr =  1.00E-02,  avg # of iterations =  6.5

     Threshold (ethr) on eigenvalues was too large:
     Diagonalizing with lowered threshold

     Davidson diagonalization with overlap
     ethr =  4.46E-04,  avg # of iterations =  2.1

     negative rho (up, down):  1.207E-06 0.000E+00

     total cpu time spent up to now is        2.4 secs

     total energy              =    -591.18532995 Ry
     estimated scf accuracy    <       0.11931548 Ry

     iteration #  2     ecut=    65.00 Ry     beta= 0.70
     Davidson diagonalization with overlap
     ethr =  4.59E-04,  avg # of iterations =  4.8

     total cpu time spent up to now is        3.3 secs

     total energy              =    -591.17958261 Ry
     estimated scf accuracy    <       0.32748856 Ry

     iteration #  3     ecut=    65.00 Ry     beta= 0.70
     Davidson diagonalization with overlap
     ethr =  4.59E-04,  avg # of iterations =  2.5

     total cpu time spent up to now is        4.1 secs

     total energy              =    -591.24263651 Ry
     estimated scf accuracy    <       0.00661901 Ry

     iteration #  4     ecut=    65.00 Ry     beta= 0.70
     Davidson diagonalization with overlap
     ethr =  2.55E-05,  avg # of iterations =  5.9

     negative rho (up, down):  2.562E-08 0.000E+00

     total cpu time spent up to now is        4.9 secs

     total energy              =    -591.24415432 Ry
     estimated scf accuracy    <       0.00039873 Ry

     iteration #  5     ecut=    65.00 Ry     beta= 0.70
     Davidson diagonalization with overlap
     ethr =  1.53E-06,  avg # of iterations =  5.3

     negative rho (up, down):  3.240E-08 0.000E+00

     total cpu time spent up to now is        5.8 secs

     total energy              =    -591.24422433 Ry
     estimated scf accuracy    <       0.00001268 Ry

     iteration #  6     ecut=    65.00 Ry     beta= 0.70
     Davidson diagonalization with overlap
     ethr =  4.88E-08,  avg # of iterations =  2.0

     negative rho (up, down):  3.631E-08 0.000E+00

     total cpu time spent up to now is        6.4 secs

     total energy              =    -591.24422579 Ry
     estimated scf accuracy    <       0.00000459 Ry

     iteration #  7     ecut=    65.00 Ry     beta= 0.70
     Davidson diagonalization with overlap
     ethr =  1.77E-08,  avg # of iterations =  2.0

     negative rho (up, down):  3.923E-08 0.000E+00

     total cpu time spent up to now is        7.1 secs

     total energy              =    -591.24422717 Ry
     estimated scf accuracy    <       0.00000215 Ry

     iteration #  8     ecut=    65.00 Ry     beta= 0.70
     Davidson diagonalization with overlap
     ethr =  8.26E-09,  avg # of iterations =  1.2

     negative rho (up, down):  4.001E-08 0.000E+00

     total cpu time spent up to now is        7.6 secs

     total energy              =    -591.24422758 Ry
     estimated scf accuracy    <       0.00000001 Ry

     iteration #  9     ecut=    65.00 Ry     beta= 0.70
     Davidson diagonalization with overlap
     ethr =  3.97E-11,  avg # of iterations =  2.7

     negative rho (up, down):  4.014E-08 0.000E+00

     total cpu time spent up to now is        8.4 secs

     End of self-consistent calculation

          k = 0.0000 0.0000 0.0000 (  6343 PWs)   bands (ev):

   -44.7879 -23.0265 -22.6248 -22.6248 -12.6580 -12.0954  -2.0188   0.0400
     0.3134   0.3134   1.5027   1.5027   4.3383   6.0674   6.0674   6.7692
     6.7692   6.9091   8.4638   9.5624  11.4206  13.7314  13.7314  14.0277
    14.7512  15.3707

          k = 0.0000 0.0722 0.0000 (  6337 PWs)   bands (ev):

   -44.7866 -23.0225 -22.6405 -22.6281 -12.6319 -12.0838  -1.9737  -0.0228
     0.2535   0.3004   1.3407   1.4672   4.3432   6.0002   6.1024   6.7336
     6.8286   7.0897   8.5937   9.7958  11.4883  13.2695  13.8589  14.4058
    14.7642  14.9323

          k = 0.0000 0.1443 0.0000 (  6343 PWs)   bands (ev):

   -44.7828 -23.0110 -22.6848 -22.6375 -12.5581 -12.0492  -1.8468  -0.2436
     0.1253   0.2591   0.9414   1.3742   4.3316   5.8851   6.2148   6.6977
     6.9867   7.5240   8.9580  10.3480  11.6917  12.7100  14.1378  14.2223
    14.6382  14.9920

          k = 0.0000 0.2165 0.0000 (  6331 PWs)   bands (ev):

   -44.7772 -22.9937 -22.7503 -22.6515 -12.4500 -11.9919  -1.6642  -0.6034
    -0.0788   0.1864   0.5118   1.2549   4.2492   5.8862   6.4196   6.7382
     7.1957   8.0243   9.4712  10.9148  11.9385  12.3170  13.6534  14.4425
    14.7507  15.2621

          k = 0.0000 0.2887 0.0000 (  6305 PWs)   bands (ev):

   -44.7705 -22.9733 -22.8263 -22.6679 -12.3288 -11.9128  -1.4792  -1.0009
    -0.4639   0.0874   0.2735   1.1376   4.1013   6.0832   6.7237   6.8515
     7.4044   8.4929   9.9074  11.2760  11.8916  12.1913  13.8593  14.1495
    15.1340  15.2229

          k = 0.0000 0.3608 0.0000 (  6297 PWs)   bands (ev):

   -44.7638 -22.9529 -22.9009 -22.6842 -12.2180 -11.8167  -1.5291  -1.1779
    -0.8968  -0.0215   0.1810   1.0386   3.9625   6.4333   6.9963   7.1098
     7.5768   8.9137  10.0366  11.3475  11.8192  12.1711  13.8292  14.4059
    14.7932  15.0673

          k = 0.0000 0.4330 0.0000 (  6276 PWs)   bands (ev):

   -44.7582 -22.9637 -22.9350 -22.6980 -12.1344 -11.7190  -1.8318  -1.2965
    -1.0341  -0.1184   0.1426   0.9644   3.8835   6.8270   7.1529   7.5205
     7.7010   9.2689   9.9530  11.2061  11.8429  12.1639  13.3443  14.3602
    14.4849  14.7155

          k = 0.0000 0.5052 0.0000 (  6278 PWs)   bands (ev):

   -44.7544 -23.0047 -22.9235 -22.7072 -12.0839 -11.6451  -2.0542  -1.5124
    -0.9683  -0.1844   0.1285   0.9182   3.8597   7.0527   7.3865   7.7503
     7.8813   9.4877   9.8739  11.0868  11.8153  12.1537  12.8186  13.9824
    14.2189  14.4594

          k = 0.0000-0.5774 0.0000 (  6278 PWs)   bands (ev):

   -44.7530 -23.0190 -22.9194 -22.7105 -12.0671 -11.6175  -2.1336  -1.5879
    -0.9446  -0.2077   0.1253   0.9025   3.8579   7.0993   7.5287   7.7772
     8.0134   9.5193   9.8941  11.0494  11.7283  12.1884  12.6327  13.7852
    14.1196  14.3266

          k = 0.0625 0.1083 0.0000 (  6345 PWs)   bands (ev):

   -44.7841 -23.0147 -22.6701 -22.6349 -12.5819 -12.0607  -1.8875  -0.1631
     0.1537   0.2781   1.0646   1.3987   4.3413   5.9027   6.1831   6.7038
     6.9348   7.3957   8.8406  10.1862  11.6276  12.8593  14.0500  14.3400
    14.6961  14.8920

          k = 0.0625 0.1804 0.0000 (  6330 PWs)   bands (ev):

   -44.7793 -23.0004 -22.7237 -22.6478 -12.4910 -12.0147  -1.7316  -0.4512
     0.0013   0.2084   0.6597   1.2813   4.3004   5.8270   6.3637   6.7219
     7.1129   7.8566   9.2854  10.7361  11.9088  12.4281  13.7275  14.2901
    14.7752  15.2246

          k = 0.0625 0.2526 0.0000 (  6313 PWs)   bands (ev):

   -44.7732 -22.9815 -22.7928 -22.6646 -12.3763 -11.9462  -1.5406  -0.8287
    -0.2654   0.0503   0.3798   1.1450   4.1931   5.9023   6.6491   6.8202
     7.3128   8.3343   9.7803  11.1739  12.0408  12.2695  13.5168  14.1799
    15.0259  15.2308

          k = 0.0625 0.3248 0.0000 (  6298 PWs)   bands (ev):

   -44.7665 -22.9611 -22.8663 -22.6828 -12.2609 -11.8575  -1.4166  -1.1584
    -0.6913  -0.0807   0.2633   1.0128   4.0620   6.1549   6.9389   7.0546
     7.4910   8.7836  10.0543  11.3974  11.9444  12.2139  13.8689  14.1182
    14.7758  15.0897

          k = 0.0625 0.3969 0.0000 (  6291 PWs)   bands (ev):

   -44.7603 -22.9428 -22.9324 -22.6995 -12.1652 -11.7583  -1.6601  -1.1711
    -1.0397  -0.1672   0.1928   0.9008   3.9709   6.5355   7.0957   7.4570
     7.6262   9.1982  10.0326  11.3716  11.9065  12.2090  13.6211  14.1979
    14.5532  14.8859

          k = 0.0625 0.4691 0.0000 (  6293 PWs)   bands (ev):

   -44.7556 -22.9839 -22.9273 -22.7122 -12.0997 -11.6700  -1.9273  -1.4136
    -0.9915  -0.2249   0.1489   0.8205   3.9380   6.9432   7.2388   7.6810
     7.8159   9.5426   9.9150  11.2601  11.9054  12.1746  13.0298  13.8572
    14.4295  14.7313

          k = 0.0625 0.5413 0.0000 (  6279 PWs)   bands (ev):

   -44.7530 -23.0109 -22.9194 -22.7191 -12.0669 -11.6177  -2.0763  -1.5626
    -0.9440  -0.2548   0.1284   0.7788   3.9374   7.1461   7.4515   7.7184
     7.9499   9.6022  10.0088  11.1978  11.8309  12.1851  12.6181  13.5904
    14.3309  14.4397

          k = 0.1250 0.2165 0.0000 (  6303 PWs)   bands (ev):

   -44.7741 -22.9844 -22.7789 -22.6656 -12.3934 -11.9573  -1.5634  -0.7484
    -0.1844   0.0102   0.4264   1.1281   4.2433   5.8058   6.6512   6.8193
     7.2719   8.2865   9.7301  11.1342  12.1868  12.3231  13.2789  14.1152
    14.9878  15.1314

          k = 0.1250 0.2887 0.0000 (  6312 PWs)   bands (ev):

   -44.7680 -22.9655 -22.8419 -22.6878 -12.2849 -11.8782  -1.3853  -1.0796
    -0.5127  -0.2052   0.3181   0.9435   4.1711   5.9148   6.9510   7.0696
     7.4288   8.7411  10.0803  11.4125  12.1507  12.4955  13.3085  13.9185
    14.6985  15.0243

          k = 0.1250 0.3608 0.0000 (  6288 PWs)   bands (ev):

   -44.7618 -22.9466 -22.9034 -22.7103 -12.1865 -11.7832  -1.4672  -1.1613
    -0.9161  -0.3060   0.2385   0.7563   4.1189   6.1787   7.1242   7.4611
     7.5936   9.2019  10.1479  11.5588  12.1797  12.3474  13.6847  13.8752
    14.1394  14.8849

          k = 0.1250 0.4330 0.0000 (  6285 PWs)   bands (ev):

   -44.7566 -22.9552 -22.9301 -22.7295 -12.1120 -11.6887  -1.7347  -1.2787
    -1.0175  -0.3555   0.1721   0.5955   4.1116   6.5668   7.2562   7.6171
     7.8684   9.6806  10.0196  11.5769  12.0993  12.2606  13.1903  13.7343
    14.4991  14.8021

          k = 0.1250 0.5052 0.0000 (  6287 PWs)   bands (ev):

   -44.7531 -22.9890 -22.9194 -22.7423 -12.0664 -11.6182  -1.9198  -1.4926
    -0.9455  -0.3745   0.1266   0.4871   4.1344   6.9940   7.3493   7.6700
     7.9562   9.7990  10.2171  11.5683  12.0162  12.1934  12.6516  13.5327
    14.4381  14.7332

          k = 0.1250 0.5774 0.0000 (  6286 PWs)   bands (ev):

   -44.7518 -23.0009 -22.9157 -22.7468 -12.0512 -11.5922  -1.9854  -1.5668
    -0.9215  -0.3784   0.1102   0.4490   4.1488   7.2034   7.4388   7.6748
     7.8817   9.7088  10.4975  11.5729  11.9640  12.2522  12.2965  13.4608
    14.3916  14.6007

          k = 0.1875 0.3248 0.0000 (  6297 PWs)   bands (ev):

   -44.7623 -22.9482 -22.8901 -22.7171 -12.1942 -11.7917  -1.3610  -1.1898
    -0.8299  -0.3843   0.2356   0.6932   4.1954   6.0241   7.1409   7.4482
     7.6080   9.2067  10.2102  11.6167  12.3884  12.5744  13.4034  13.7339
    13.8238  14.9597

          k = 0.1875 0.3969 0.0000 (  6293 PWs)   bands (ev):

   -44.7571 -22.9344 -22.9293 -22.7467 -12.1187 -11.6986  -1.5665  -1.1565
    -1.0523  -0.4712   0.1302   0.4519   4.2636   6.2682   7.2471   7.6436
     7.9242   9.7336  10.1634  11.7726  12.3255  12.4767  13.2387  13.6006
    14.1696  14.7319

          k = 0.1875 0.4691 0.0000 (  6277 PWs)   bands (ev):

   -44.7531 -22.9620 -22.9195 -22.7707 -12.0660 -11.6188  -1.7234  -1.4024
    -0.9561  -0.5051   0.0334   0.2647   4.3543   6.6262   7.2705   7.8069
     8.0089  10.0186  10.3622  11.8423  11.9771  12.4189  12.9894  13.7060
    14.4426  14.6976

          k = 0.1875 0.5413 0.0000 (  6281 PWs)   bands (ev):

   -44.7509 -22.9777 -22.9128 -22.7841 -12.0391 -11.5726  -1.8063  -1.5361
    -0.9077  -0.5129  -0.0213   0.1602   4.4215   6.9880   7.2772   7.8350
     7.9040   9.8943  10.9470  11.7373  12.0294  12.3753  12.5412  13.6384
    14.4747  14.6760

          k = 0.2500 0.4330 0.0000 (  6292 PWs)   bands (ev):

   -44.7531 -22.9481 -22.9194 -22.7852 -12.0658 -11.6190  -1.6217  -1.3543
    -0.9667  -0.5641  -0.0834   0.2351   4.4593   6.4565   7.2257   7.8891
     8.0330  10.1261  10.4048  11.7795  12.0331  12.6566  13.3013  13.7377
    14.3688  14.4951

          k = 0.2500 0.5052 0.0000 (  6282 PWs)   bands (ev):

   -44.7504 -22.9534 -22.9113 -22.8162 -12.0325 -11.5620  -1.6376  -1.4856
    -0.9053  -0.6251  -0.2839   0.1211   4.6389   6.7217   7.1738   7.8429
     8.0960  10.1087  10.9921  11.5738  12.2099  12.7361  13.1165  13.8505
    14.3501  14.5960

          k = 0.2500 0.5774 0.0000 (  6310 PWs)   bands (ev):

   -44.7494 -22.9538 -22.9084 -22.8287 -12.0211 -11.5413  -1.6452  -1.5207
    -0.8849  -0.6578  -0.3516   0.0820   4.7139   6.9011   7.1510   7.6599
     8.1716  10.0887  11.0859  11.8804  12.3231  12.7254  12.7576  13.7474
    14.5782  14.6399

          k = 0.3125 0.5413 0.0000 (  6284 PWs)   bands (ev):

   -44.7489 -22.9361 -22.9068 -22.8536 -12.0148 -11.5302  -1.6103  -1.4208
    -0.8779  -0.7931  -0.4643   0.0620   4.8522   6.8203   7.0997   7.5963
     8.2859  10.2476  10.8484  12.1839  12.4091  12.9547  13.1212  13.4176
    14.4941  14.7217

     highest occupied, lowest unoccupied level (ev):     4.8522    5.8058

!    total energy              =    -591.24422758 Ry
     total all-electron energy =    -13333.877504 Ry
     estimated scf accuracy    <          7.4E-10 Ry

     The total energy is the sum of the following terms:
     one-electron contribution =    -204.84497116 Ry
     hartree contribution      =     110.33697603 Ry
     xc contribution           =     -37.60514672 Ry
     ewald contribution        =     -28.01442421 Ry
     one-center paw contrib.   =    -431.11666153 Ry

     convergence has been achieved in   9 iterations

     negative rho (up, down):  4.014E-08 0.000E+00

     Forces acting on atoms (cartesian axes, Ry/au):

     atom    1 type  1   force =     0.00000000    0.00000000   -0.00008802
     atom    2 type  2   force =     0.00000000    0.00000000    0.00032353
     atom    3 type  3   force =     0.00000000    0.00000000   -0.00023551
     The non-local contrib.  to forces
     atom    1 type  1   force =     0.00000000    0.00000000   -0.00056746
     atom    2 type  2   force =     0.00000000    0.00000000   -0.21277148
     atom    3 type  3   force =     0.00000000    0.00000000    0.20925567
     The ionic contribution  to forces
     atom    1 type  1   force =    -0.00000001    0.00000000   -0.32902150
     atom    2 type  2   force =     0.00000000   -0.00000000   21.18374925
     atom    3 type  3   force =     0.00000000   -0.00000000  -20.85472774
     The local contribution  to forces
     atom    1 type  1   force =    -0.00000000    0.00000000    0.32919846
     atom    2 type  2   force =     0.00000003   -0.00000002  -20.97852420
     atom    3 type  3   force =    -0.00000000    0.00000000   20.64883190
     The core correction contribution to forces
     atom    1 type  1   force =     0.00000000    0.00000000    0.00034794
     atom    2 type  2   force =    -0.00000000    0.00000000    0.00792804
     atom    3 type  3   force =    -0.00000000    0.00000000   -0.00353480
     The Hubbard contrib.    to forces
     atom    1 type  1   force =     0.00000000    0.00000000    0.00000000
     atom    2 type  2   force =     0.00000000    0.00000000    0.00000000
     atom    3 type  3   force =     0.00000000    0.00000000    0.00000000
     The SCF correction term to forces
     atom    1 type  1   force =    -0.00000000    0.00000000    0.00000511
     atom    2 type  2   force =     0.00000000   -0.00000000   -0.00000751
     atom    3 type  3   force =     0.00000000   -0.00000000   -0.00000997

     Total force =     0.000410     Total SCF correction =     0.000013

     BFGS Geometry Optimization
     Energy error            =      0.0E+00 Ry
     Gradient error          =      3.2E-04 Ry/Bohr

     number of scf cycles    =   1
     number of bfgs steps    =   0

     energy             new  =    -591.2442275808 Ry

     new trust radius        =       0.0003235267 bohr
     new conv_thr            =       0.0000000100 Ry


ATOMIC_POSITIONS (angstrom)
Zr            0.0000000000        0.0000000000       10.2766835448
Cl           -0.0000000017        2.0144284223       11.9649618739
Br           -0.0000000017        2.0144284223        8.4215033556



     Writing config-only to output data dir ./tmp/ZrClBr.save/
     NEW-OLD atomic charge density approx. for the potential

     Check: negative core charge=   -0.000004

     negative rho (up, down):  4.026E-08 0.000E+00

     total cpu time spent up to now is        8.7 secs

     Self-consistent Calculation

     iteration #  1     ecut=    65.00 Ry     beta= 0.70
     Davidson diagonalization with overlap
     ethr =  1.00E-06,  avg # of iterations =  2.0

     Threshold (ethr) on eigenvalues was too large:
     Diagonalizing with lowered threshold

     Davidson diagonalization with overlap
     ethr =  8.65E-11,  avg # of iterations =  3.9

     negative rho (up, down):  4.027E-08 0.000E+00

     total cpu time spent up to now is       10.1 secs

     total energy              =    -591.24422772 Ry
     estimated scf accuracy    <       0.00000002 Ry

     iteration #  2     ecut=    65.00 Ry     beta= 0.70
     Davidson diagonalization with overlap
     ethr =  8.21E-11,  avg # of iterations =  2.0

     negative rho (up, down):  4.031E-08 0.000E+00

     total cpu time spent up to now is       10.8 secs

     total energy              =    -591.24422772 Ry
     estimated scf accuracy    <       0.00000008 Ry

     iteration #  3     ecut=    65.00 Ry     beta= 0.70
     Davidson diagonalization with overlap
     ethr =  8.21E-11,  avg # of iterations =  2.0

     negative rho (up, down):  4.031E-08 0.000E+00

     total cpu time spent up to now is       11.4 secs

     End of self-consistent calculation

          k = 0.0000 0.0000 0.0000 (  6343 PWs)   bands (ev):

   -44.7883 -23.0268 -22.6251 -22.6251 -12.6577 -12.0955  -2.0185   0.0398
     0.3141   0.3141   1.5027   1.5027   4.3377   6.0670   6.0670   6.7691
     6.7691   6.9091   8.4640   9.5624  11.4209  13.7315  13.7315  14.0273
    14.7513  15.3705

          k = 0.0000 0.0722 0.0000 (  6337 PWs)   bands (ev):

   -44.7870 -23.0228 -22.6408 -22.6284 -12.6316 -12.0839  -1.9734  -0.0228
     0.2540   0.3011   1.3407   1.4672   4.3426   5.9998   6.1020   6.7335
     6.8284   7.0896   8.5939   9.7958  11.4886  13.2693  13.8590  14.4056
    14.7643  14.9321

          k = 0.0000 0.1443 0.0000 (  6343 PWs)   bands (ev):

   -44.7832 -23.0113 -22.6851 -22.6378 -12.5578 -12.0492  -1.8465  -0.2431
     0.1253   0.2598   0.9414   1.3743   4.3311   5.8847   6.2144   6.6975
     6.9865   7.5239   8.9581  10.3481  11.6919  12.7098  14.1376  14.2224
    14.6378  14.9923

          k = 0.0000 0.2165 0.0000 (  6331 PWs)   bands (ev):

   -44.7776 -22.9940 -22.7506 -22.6518 -12.4497 -11.9920  -1.6639  -0.6028
    -0.0789   0.1871   0.5117   1.2549   4.2489   5.8858   6.4193   6.7380
     7.1955   8.0242   9.4711  10.9150  11.9384  12.3169  13.6533  14.4422
    14.7508  15.2624

          k = 0.0000 0.2887 0.0000 (  6305 PWs)   bands (ev):

   -44.7709 -22.9736 -22.8266 -22.6682 -12.3284 -11.9129  -1.4788  -1.0004
    -0.4640   0.0880   0.2733   1.1377   4.1010   6.0827   6.7235   6.8513
     7.4040   8.4928   9.9071  11.2763  11.8915  12.1913  13.8593  14.1494
    15.1340  15.2228

          k = 0.0000 0.3608 0.0000 (  6297 PWs)   bands (ev):

   -44.7642 -22.9532 -22.9011 -22.6845 -12.2176 -11.8168  -1.5287  -1.1776
    -0.8968  -0.0209   0.1808   1.0386   3.9623   6.4329   6.9959   7.1096
     7.5763   8.9136  10.0362  11.3475  11.8191  12.1711  13.8292  14.4059
    14.7929  15.0671

          k = 0.0000 0.4330 0.0000 (  6276 PWs)   bands (ev):

   -44.7586 -22.9639 -22.9353 -22.6983 -12.1340 -11.7191  -1.8314  -1.2964
    -1.0339  -0.1178   0.1424   0.9644   3.8833   6.8268   7.1523   7.5204
     7.7005   9.2685   9.9528  11.2059  11.8428  12.1639  13.3443  14.3603
    14.4848  14.7151

          k = 0.0000 0.5052 0.0000 (  6278 PWs)   bands (ev):

   -44.7548 -23.0049 -22.9238 -22.7075 -12.0835 -11.6452  -2.0539  -1.5123
    -0.9680  -0.1838   0.1283   0.9182   3.8595   7.0524   7.3860   7.7498
     7.8812   9.4870   9.8740  11.0866  11.8152  12.1536  12.8186  13.9823
    14.2187  14.4594

          k = 0.0000-0.5774 0.0000 (  6278 PWs)   bands (ev):

   -44.7534 -23.0193 -22.9197 -22.7108 -12.0667 -11.6176  -2.1333  -1.5878
    -0.9443  -0.2071   0.1251   0.9025   3.8577   7.0990   7.5282   7.7766
     8.0132   9.5189   9.8940  11.0491  11.7282  12.1883  12.6326  13.7852
    14.1191  14.3269

          k = 0.0625 0.1083 0.0000 (  6345 PWs)   bands (ev):

   -44.7844 -23.0150 -22.6704 -22.6352 -12.5816 -12.0608  -1.8873  -0.1627
     0.1539   0.2788   1.0645   1.3987   4.3408   5.9023   6.1828   6.7036
     6.9346   7.3956   8.8407  10.1863  11.6278  12.8591  14.0500  14.3397
    14.6957  14.8924

          k = 0.0625 0.1804 0.0000 (  6330 PWs)   bands (ev):

   -44.7797 -23.0006 -22.7240 -22.6481 -12.4906 -12.0147  -1.7313  -0.4507
     0.0013   0.2090   0.6596   1.2813   4.3000   5.8266   6.3634   6.7217
     7.1126   7.8565   9.2854  10.7363  11.9088  12.4280  13.7273  14.2900
    14.7749  15.2249

          k = 0.0625 0.2526 0.0000 (  6313 PWs)   bands (ev):

   -44.7736 -22.9818 -22.7931 -22.6649 -12.3759 -11.9463  -1.5403  -0.8282
    -0.2655   0.0508   0.3798   1.1450   4.1928   5.9018   6.6489   6.8199
     7.3124   8.3343   9.7800  11.1742  12.0407  12.2694  13.5167  14.1797
    15.0259  15.2307

          k = 0.0625 0.3248 0.0000 (  6298 PWs)   bands (ev):

   -44.7669 -22.9614 -22.8666 -22.6831 -12.2605 -11.8576  -1.4162  -1.1580
    -0.6913  -0.0803   0.2632   1.0128   4.0619   6.1545   6.9386   7.0544
     7.4905   8.7835  10.0538  11.3977  11.9443  12.2139  13.8689  14.1181
    14.7757  15.0896

          k = 0.0625 0.3969 0.0000 (  6291 PWs)   bands (ev):

   -44.7607 -22.9431 -22.9327 -22.6998 -12.1648 -11.7584  -1.6597  -1.1709
    -1.0396  -0.1667   0.1927   0.9008   3.9707   6.5352   7.0953   7.4569
     7.6257   9.1980  10.0322  11.3715  11.9064  12.2090  13.6211  14.1978
    14.5532  14.8857

          k = 0.0625 0.4691 0.0000 (  6293 PWs)   bands (ev):

   -44.7560 -22.9841 -22.9276 -22.7126 -12.0993 -11.6701  -1.9270  -1.4135
    -0.9912  -0.2243   0.1487   0.8205   3.9378   6.9430   7.2383   7.6806
     7.8156   9.5420   9.9150  11.2599  11.9052  12.1745  13.0298  13.8571
    14.4297  14.7310

          k = 0.0625 0.5413 0.0000 (  6279 PWs)   bands (ev):

   -44.7534 -23.0112 -22.9197 -22.7194 -12.0665 -11.6178  -2.0760  -1.5625
    -0.9437  -0.2542   0.1282   0.7788   3.9372   7.1458   7.4511   7.7178
     7.9497   9.6018  10.0087  11.1975  11.8308  12.1850  12.6180  13.5902
    14.3310  14.4394

          k = 0.1250 0.2165 0.0000 (  6303 PWs)   bands (ev):

   -44.7745 -22.9847 -22.7792 -22.6659 -12.3930 -11.9574  -1.5631  -0.7478
    -0.1844   0.0107   0.4264   1.1281   4.2430   5.8053   6.6510   6.8191
     7.2716   8.2864   9.7299  11.1345  12.1868  12.3229  13.2787  14.1150
    14.9877  15.1313

          k = 0.1250 0.2887 0.0000 (  6312 PWs)   bands (ev):

   -44.7684 -22.9658 -22.8421 -22.6881 -12.2845 -11.8783  -1.3850  -1.0791
    -0.5127  -0.2048   0.3181   0.9434   4.1709   5.9143   6.9508   7.0693
     7.4283   8.7411  10.0798  11.4128  12.1508  12.4954  13.3083  13.9182
    14.6984  15.0241

          k = 0.1250 0.3608 0.0000 (  6288 PWs)   bands (ev):

   -44.7622 -22.9470 -22.9037 -22.7106 -12.1861 -11.7833  -1.4668  -1.1610
    -0.9161  -0.3056   0.2384   0.7563   4.1188   6.1782   7.1239   7.4609
     7.5931   9.2018  10.1473  11.5590  12.1796  12.3474  13.6846  13.8750
    14.1392  14.8849

          k = 0.1250 0.4330 0.0000 (  6285 PWs)   bands (ev):

   -44.7569 -22.9555 -22.9304 -22.7298 -12.1116 -11.6887  -1.7344  -1.2785
    -1.0172  -0.3551   0.1720   0.5955   4.1115   6.5664   7.2558   7.6166
     7.8681   9.6803  10.0193  11.5769  12.0992  12.2605  13.1901  13.7343
    14.4992  14.8019

          k = 0.1250 0.5052 0.0000 (  6287 PWs)   bands (ev):

   -44.7534 -22.9893 -22.9198 -22.7426 -12.0660 -11.6183  -1.9195  -1.4925
    -0.9452  -0.3740   0.1265   0.4871   4.1343   6.9937   7.3488   7.6696
     7.9559   9.7986  10.2169  11.5681  12.0159  12.1934  12.6515  13.5326
    14.4383  14.7328

          k = 0.1250 0.5774 0.0000 (  6286 PWs)   bands (ev):

   -44.7522 -23.0011 -22.9160 -22.7471 -12.0508 -11.5923  -1.9851  -1.5667
    -0.9211  -0.3779   0.1101   0.4490   4.1487   7.2030   7.4382   7.6744
     7.8813   9.7087  10.4971  11.5727  11.9639  12.2521  12.2964  13.4607
    14.3919  14.6004

          k = 0.1875 0.3248 0.0000 (  6297 PWs)   bands (ev):

   -44.7627 -22.9485 -22.8904 -22.7174 -12.1938 -11.7918  -1.3605  -1.1896
    -0.8298  -0.3840   0.2356   0.6932   4.1953   6.0236   7.1406   7.4480
     7.6075   9.2067  10.2096  11.6170  12.3885  12.5744  13.4031  13.7337
    13.8235  14.9597

          k = 0.1875 0.3969 0.0000 (  6293 PWs)   bands (ev):

   -44.7575 -22.9346 -22.9296 -22.7470 -12.1183 -11.6987  -1.5661  -1.1563
    -1.0520  -0.4709   0.1301   0.4518   4.2635   6.2678   7.2467   7.6431
     7.9240   9.7336  10.1628  11.7728  12.3254  12.4767  13.2386  13.6006
    14.1692  14.7319

          k = 0.1875 0.4691 0.0000 (  6277 PWs)   bands (ev):

   -44.7534 -22.9622 -22.9198 -22.7710 -12.0656 -11.6188  -1.7231  -1.4022
    -0.9557  -0.5047   0.0334   0.2646   4.3542   6.6258   7.2699   7.8065
     8.0086  10.0183  10.3620  11.8423  11.9770  12.4189  12.9893  13.7060
    14.4426  14.6975

          k = 0.1875 0.5413 0.0000 (  6281 PWs)   bands (ev):

   -44.7513 -22.9780 -22.9131 -22.7844 -12.0386 -11.5727  -1.8059  -1.5360
    -0.9073  -0.5126  -0.0214   0.1601   4.4214   6.9878   7.2765   7.8347
     7.9035   9.8941  10.9466  11.7372  12.0294  12.3752  12.5411  13.6382
    14.4748  14.6757

          k = 0.2500 0.4330 0.0000 (  6292 PWs)   bands (ev):

   -44.7534 -22.9484 -22.9198 -22.7854 -12.0654 -11.6191  -1.6213  -1.3541
    -0.9664  -0.5638  -0.0834   0.2349   4.4593   6.4561   7.2251   7.8887
     8.0328  10.1259  10.4045  11.7793  12.0332  12.6566  13.3011  13.7377
    14.3685  14.4950

          k = 0.2500 0.5052 0.0000 (  6282 PWs)   bands (ev):

   -44.7508 -22.9537 -22.9116 -22.8165 -12.0321 -11.5621  -1.6372  -1.4854
    -0.9050  -0.6249  -0.2839   0.1210   4.6388   6.7215   7.1732   7.8425
     8.0955  10.1085  10.9919  11.5737  12.2101  12.7361  13.1163  13.8504
    14.3500  14.5958

          k = 0.2500 0.5774 0.0000 (  6310 PWs)   bands (ev):

   -44.7498 -22.9540 -22.9087 -22.8289 -12.0207 -11.5414  -1.6447  -1.5206
    -0.8845  -0.6576  -0.3517   0.0818   4.7138   6.9010   7.1503   7.6593
     8.1712  10.0885  11.0856  11.8804  12.3232  12.7253  12.7576  13.7473
    14.5783  14.6396

          k = 0.3125 0.5413 0.0000 (  6284 PWs)   bands (ev):

   -44.7493 -22.9364 -22.9072 -22.8539 -12.0144 -11.5303  -1.6098  -1.4206
    -0.8776  -0.7929  -0.4644   0.0618   4.8521   6.8203   7.0990   7.5957
     8.2853  10.2472  10.8483  12.1839  12.4092  12.9548  13.1211  13.4175
    14.4938  14.7213

     highest occupied, lowest unoccupied level (ev):     4.8521    5.8053

!    total energy              =    -591.24422773 Ry
     total all-electron energy =    -13333.877504 Ry
     estimated scf accuracy    <          5.5E-10 Ry

     The total energy is the sum of the following terms:
     one-electron contribution =    -204.82136251 Ry
     hartree contribution      =     110.32503362 Ry
     xc contribution           =     -37.60501856 Ry
     ewald contribution        =     -28.02621776 Ry
     one-center paw contrib.   =    -431.11666251 Ry

     convergence has been achieved in   3 iterations

     negative rho (up, down):  4.031E-08 0.000E+00

     Forces acting on atoms (cartesian axes, Ry/au):

     atom    1 type  1   force =     0.00000000   -0.00000000   -0.00004655
     atom    2 type  2   force =     0.00000000   -0.00000000    0.00025970
     atom    3 type  3   force =     0.00000000    0.00000000   -0.00021314
     The non-local contrib.  to forces
     atom    1 type  1   force =     0.00000000    0.00000000   -0.00059067
     atom    2 type  2   force =     0.00000000   -0.00000000   -0.21279661
     atom    3 type  3   force =     0.00000000    0.00000000    0.20925926
     The ionic contribution  to forces
     atom    1 type  1   force =    -0.00000001    0.00000000   -0.32891163
     atom    2 type  2   force =     0.00000000   -0.00000000   21.18243856
     atom    3 type  3   force =     0.00000000   -0.00000000  -20.85352692
     The local contribution  to forces
     atom    1 type  1   force =    -0.00000000    0.00000000    0.32910209
     atom    2 type  2   force =     0.00000003   -0.00000002  -20.97725683
     atom    3 type  3   force =    -0.00000000    0.00000000   20.64757657
     The core correction contribution to forces
     atom    1 type  1   force =     0.00000000    0.00000000    0.00034944
     atom    2 type  2   force =    -0.00000000    0.00000000    0.00793262
     atom    3 type  3   force =    -0.00000000    0.00000000   -0.00353752
     The Hubbard contrib.    to forces
     atom    1 type  1   force =     0.00000000    0.00000000    0.00000000
     atom    2 type  2   force =     0.00000000    0.00000000    0.00000000
     atom    3 type  3   force =     0.00000000    0.00000000    0.00000000
     The SCF correction term to forces
     atom    1 type  1   force =    -0.00000000    0.00000000    0.00004734
     atom    2 type  2   force =     0.00000000   -0.00000000   -0.00001493
     atom    3 type  3   force =     0.00000000   -0.00000000    0.00005858

     Total force =     0.000339     Total SCF correction =     0.000077
     SCF correction compared to forces is large: reduce conv_thr to get better values
     Energy error            =      1.5E-07 Ry
     Gradient error          =      2.6E-04 Ry/Bohr

     number of scf cycles    =   2
     number of bfgs steps    =   1

     energy             old  =    -591.2442275808 Ry
     energy             new  =    -591.2442277348 Ry

     CASE: energy            _new < energy            _old


     WARNING: bfgs curvature condition failed, Theta= 0.971
     new trust radius        =       0.0003558794 bohr
     new conv_thr            =            1.0E-10 Ry


ATOMIC_POSITIONS (angstrom)
Zr            0.0000000000       -0.0000000000       10.2766485972
Cl           -0.0000000017        2.0144284223       11.9651501972
Br           -0.0000000017        2.0144284223        8.4213499800



     Writing config-only to output data dir ./tmp/ZrClBr.save/
     NEW-OLD atomic charge density approx. for the potential

     Check: negative core charge=   -0.000004

     negative rho (up, down):  4.041E-08 0.000E+00

     total cpu time spent up to now is       11.8 secs

     Self-consistent Calculation

     iteration #  1     ecut=    65.00 Ry     beta= 0.70
     Davidson diagonalization with overlap
     ethr =  1.00E-06,  avg # of iterations =  2.0

     Threshold (ethr) on eigenvalues was too large:
     Diagonalizing with lowered threshold

     Davidson diagonalization with overlap
     ethr =  7.56E-11,  avg # of iterations =  4.0

     negative rho (up, down):  4.043E-08 0.000E+00

     total cpu time spent up to now is       13.2 secs

     total energy              =    -591.24422787 Ry
     estimated scf accuracy    <       0.00000001 Ry

     iteration #  2     ecut=    65.00 Ry     beta= 0.70
     Davidson diagonalization with overlap
     ethr =  5.25E-11,  avg # of iterations =  2.0

     negative rho (up, down):  4.046E-08 0.000E+00

     total cpu time spent up to now is       13.9 secs

     total energy              =    -591.24422787 Ry
     estimated scf accuracy    <       0.00000004 Ry

     iteration #  3     ecut=    65.00 Ry     beta= 0.70
     Davidson diagonalization with overlap
     ethr =  5.25E-11,  avg # of iterations =  2.0

     negative rho (up, down):  4.046E-08 0.000E+00

     total cpu time spent up to now is       14.5 secs

     total energy              =    -591.24422787 Ry
     estimated scf accuracy    <          6.4E-10 Ry

     iteration #  4     ecut=    65.00 Ry     beta= 0.70
     Davidson diagonalization with overlap
     ethr =  2.46E-12,  avg # of iterations =  2.0

     negative rho (up, down):  4.046E-08 0.000E+00

     total cpu time spent up to now is       15.2 secs

     total energy              =    -591.24422787 Ry
     estimated scf accuracy    <          2.9E-10 Ry

     iteration #  5     ecut=    65.00 Ry     beta= 0.70
     Davidson diagonalization with overlap
     ethr =  1.13E-12,  avg # of iterations =  1.4

     negative rho (up, down):  4.047E-08 0.000E+00

     total cpu time spent up to now is       15.8 secs

     End of self-consistent calculation

          k = 0.0000 0.0000 0.0000 (  6343 PWs)   bands (ev):

   -44.7887 -23.0271 -22.6255 -22.6255 -12.6573 -12.0955  -2.0182   0.0396
     0.3148   0.3148   1.5030   1.5030   4.3369   6.0666   6.0666   6.7689
     6.7689   6.9090   8.4642   9.5624  11.4212  13.7316  13.7316  14.0267
    14.7514  15.3702

          k = 0.0000 0.0722 0.0000 (  6337 PWs)   bands (ev):

   -44.7874 -23.0231 -22.6412 -22.6288 -12.6312 -12.0838  -1.9731  -0.0227
     0.2545   0.3018   1.3409   1.4674   4.3420   5.9993   6.1015   6.7333
     6.8282   7.0895   8.5940   9.7958  11.4889  13.2692  13.8591  14.4053
    14.7643  14.9318

          k = 0.0000 0.1443 0.0000 (  6343 PWs)   bands (ev):

   -44.7837 -23.0116 -22.6855 -22.6382 -12.5574 -12.0492  -1.8462  -0.2427
     0.1254   0.2604   0.9415   1.3745   4.3306   5.8841   6.2140   6.6973
     6.9862   7.5238   8.9581  10.3482  11.6921  12.7096  14.1374  14.2225
    14.6374  14.9925

          k = 0.0000 0.2165 0.0000 (  6331 PWs)   bands (ev):

   -44.7780 -22.9944 -22.7510 -22.6522 -12.4493 -11.9919  -1.6636  -0.6023
    -0.0789   0.1877   0.5118   1.2551   4.2485   5.8852   6.4190   6.7378
     7.1951   8.0241   9.4709  10.9153  11.9383  12.3168  13.6532  14.4418
    14.7509  15.2626

          k = 0.0000 0.2887 0.0000 (  6305 PWs)   bands (ev):

   -44.7714 -22.9740 -22.8269 -22.6686 -12.3281 -11.9128  -1.4785  -1.0000
    -0.4638   0.0886   0.2732   1.1379   4.1008   6.0822   6.7232   6.8509
     7.4036   8.4927   9.9066  11.2767  11.8913  12.1911  13.8594  14.1492
    15.1339  15.2228

          k = 0.0000 0.3608 0.0000 (  6297 PWs)   bands (ev):

   -44.7647 -22.9536 -22.9015 -22.6849 -12.2173 -11.8167  -1.5283  -1.1772
    -0.8966  -0.0203   0.1806   1.0388   3.9620   6.4324   6.9954   7.1093
     7.5758   8.9133  10.0356  11.3476  11.8190  12.1711  13.8292  14.4059
    14.7926  15.0670

          k = 0.0000 0.4330 0.0000 (  6276 PWs)   bands (ev):

   -44.7590 -22.9643 -22.9357 -22.6987 -12.1337 -11.7190  -1.8310  -1.2963
    -1.0336  -0.1173   0.1423   0.9646   3.8831   6.8264   7.1518   7.5202
     7.6998   9.2680   9.9526  11.2057  11.8427  12.1638  13.3442  14.3603
    14.4847  14.7147

          k = 0.0000 0.5052 0.0000 (  6278 PWs)   bands (ev):

   -44.7552 -23.0053 -22.9242 -22.7079 -12.0832 -11.6450  -2.0536  -1.5122
    -0.9677  -0.1832   0.1282   0.9184   3.8593   7.0520   7.3854   7.7492
     7.8809   9.4862   9.8741  11.0863  11.8150  12.1534  12.8184  13.9822
    14.2184  14.4593

          k = 0.0000-0.5774 0.0000 (  6278 PWs)   bands (ev):

   -44.7539 -23.0196 -22.9201 -22.7112 -12.0663 -11.6174  -2.1330  -1.5877
    -0.9439  -0.2065   0.1250   0.9027   3.8574   7.0986   7.5277   7.7759
     8.0130   9.5183   9.8938  11.0488  11.7281  12.1882  12.6324  13.7850
    14.1185  14.3272

          k = 0.0625 0.1083 0.0000 (  6345 PWs)   bands (ev):

   -44.7849 -23.0154 -22.6707 -22.6356 -12.5813 -12.0607  -1.8870  -0.1624
     0.1541   0.2794   1.0647   1.3989   4.3402   5.9018   6.1823   6.7035
     6.9343   7.3955   8.8408  10.1863  11.6280  12.8589  14.0501  14.3395
    14.6951  14.8927

          k = 0.0625 0.1804 0.0000 (  6330 PWs)   bands (ev):

   -44.7802 -23.0010 -22.7244 -22.6485 -12.4903 -12.0147  -1.7310  -0.4502
     0.0014   0.2096   0.6597   1.2815   4.2995   5.8260   6.3630   6.7215
     7.1123   7.8564   9.2853  10.7365  11.9088  12.4278  13.7271  14.2900
    14.7745  15.2253

          k = 0.0625 0.2526 0.0000 (  6313 PWs)   bands (ev):

   -44.7740 -22.9822 -22.7934 -22.6653 -12.3756 -11.9462  -1.5399  -0.8276
    -0.2654   0.0513   0.3798   1.1452   4.1925   5.9012   6.6485   6.8196
     7.3120   8.3341   9.7796  11.1746  12.0406  12.2692  13.5166  14.1795
    15.0259  15.2305

          k = 0.0625 0.3248 0.0000 (  6298 PWs)   bands (ev):

   -44.7674 -22.9618 -22.8669 -22.6835 -12.2601 -11.8575  -1.4157  -1.1577
    -0.6911  -0.0798   0.2632   1.0130   4.0616   6.1539   6.9383   7.0540
     7.4900   8.7834  10.0531  11.3979  11.9441  12.2138  13.8687  14.1181
    14.7754  15.0896

          k = 0.0625 0.3969 0.0000 (  6291 PWs)   bands (ev):

   -44.7612 -22.9435 -22.9330 -22.7002 -12.1645 -11.7583  -1.6593  -1.1707
    -1.0394  -0.1662   0.1927   0.9010   3.9705   6.5347   7.0949   7.4566
     7.6251   9.1977  10.0317  11.3715  11.9063  12.2089  13.6210  14.1976
    14.5532  14.8855

          k = 0.0625 0.4691 0.0000 (  6293 PWs)   bands (ev):

   -44.7565 -22.9845 -22.9280 -22.7129 -12.0990 -11.6699  -1.9267  -1.4134
    -0.9908  -0.2238   0.1486   0.8207   3.9376   6.9426   7.2377   7.6800
     7.8153   9.5413   9.9150  11.2597  11.9051  12.1744  13.0296  13.8569
    14.4298  14.7306

          k = 0.0625 0.5413 0.0000 (  6279 PWs)   bands (ev):

   -44.7539 -23.0115 -22.9201 -22.7198 -12.0661 -11.6177  -2.0756  -1.5624
    -0.9433  -0.2537   0.1281   0.7790   3.9369   7.1454   7.4506   7.7172
     7.9494   9.6014  10.0085  11.1972  11.8306  12.1849  12.6178  13.5900
    14.3311  14.4392

          k = 0.1250 0.2165 0.0000 (  6303 PWs)   bands (ev):

   -44.7750 -22.9851 -22.7795 -22.6663 -12.3927 -11.9574  -1.5628  -0.7473
    -0.1844   0.0112   0.4265   1.1283   4.2427   5.8047   6.6506   6.8188
     7.2711   8.2863   9.7295  11.1349  12.1868  12.3227  13.2785  14.1148
    14.9876  15.1312

          k = 0.1250 0.2887 0.0000 (  6312 PWs)   bands (ev):

   -44.7688 -22.9662 -22.8425 -22.6885 -12.2842 -11.8782  -1.3846  -1.0787
    -0.5125  -0.2044   0.3182   0.9436   4.1707   5.9137   6.9505   7.0690
     7.4277   8.7410  10.0792  11.4131  12.1509  12.4952  13.3080  13.9180
    14.6983  15.0240

          k = 0.1250 0.3608 0.0000 (  6288 PWs)   bands (ev):

   -44.7626 -22.9473 -22.9040 -22.7110 -12.1858 -11.7832  -1.4663  -1.1607
    -0.9159  -0.3053   0.2384   0.7564   4.1186   6.1777   7.1235   7.4605
     7.5925   9.2016  10.1466  11.5592  12.1795  12.3474  13.6845  13.8748
    14.1391  14.8848

          k = 0.1250 0.4330 0.0000 (  6285 PWs)   bands (ev):

   -44.7574 -22.9558 -22.9308 -22.7302 -12.1112 -11.6886  -1.7340  -1.2783
    -1.0168  -0.3547   0.1719   0.5956   4.1113   6.5660   7.2552   7.6161
     7.8678   9.6799  10.0189  11.5769  12.0991  12.2604  13.1899  13.7343
    14.4992  14.8016

          k = 0.1250 0.5052 0.0000 (  6287 PWs)   bands (ev):

   -44.7539 -22.9896 -22.9201 -22.7430 -12.0657 -11.6182  -1.9191  -1.4923
    -0.9448  -0.3736   0.1264   0.4872   4.1340   6.9933   7.3481   7.6691
     7.9555   9.7983  10.2167  11.5679  12.0156  12.1934  12.6514  13.5324
    14.4385  14.7324

          k = 0.1250 0.5774 0.0000 (  6286 PWs)   bands (ev):

   -44.7527 -23.0014 -22.9164 -22.7475 -12.0504 -11.5922  -1.9848  -1.5665
    -0.9208  -0.3775   0.1099   0.4491   4.1484   7.2026   7.4376   7.6740
     7.8808   9.7085  10.4967  11.5724  11.9637  12.2520  12.2962  13.4604
    14.3921  14.5999

          k = 0.1875 0.3248 0.0000 (  6297 PWs)   bands (ev):

   -44.7631 -22.9489 -22.8907 -22.7178 -12.1934 -11.7918  -1.3600  -1.1893
    -0.8296  -0.3837   0.2356   0.6933   4.1952   6.0230   7.1402   7.4476
     7.6069   9.2066  10.2088  11.6173  12.3886  12.5745  13.4027  13.7335
    13.8233  14.9596

          k = 0.1875 0.3969 0.0000 (  6293 PWs)   bands (ev):

   -44.7579 -22.9350 -22.9300 -22.7474 -12.1179 -11.6986  -1.5657  -1.1561
    -1.0517  -0.4706   0.1302   0.4519   4.2634   6.2672   7.2461   7.6426
     7.9236   9.7335  10.1621  11.7730  12.3253  12.4767  13.2385  13.6004
    14.1689  14.7318

          k = 0.1875 0.4691 0.0000 (  6277 PWs)   bands (ev):

   -44.7539 -22.9626 -22.9202 -22.7714 -12.0652 -11.6187  -1.7227  -1.4020
    -0.9554  -0.5044   0.0334   0.2645   4.3541   6.6254   7.2692   7.8060
     8.0083  10.0180  10.3617  11.8422  11.9769  12.4188  12.9891  13.7060
    14.4425  14.6973

          k = 0.1875 0.5413 0.0000 (  6281 PWs)   bands (ev):

   -44.7517 -22.9783 -22.9135 -22.7847 -12.0383 -11.5726  -1.8056  -1.5357
    -0.9070  -0.5122  -0.0213   0.1600   4.4212   6.9874   7.2758   7.8342
     7.9030   9.8938  10.9462  11.7370  12.0293  12.3752  12.5410  13.6380
    14.4749  14.6754

          k = 0.2500 0.4330 0.0000 (  6292 PWs)   bands (ev):

   -44.7539 -22.9487 -22.9202 -22.7858 -12.0650 -11.6190  -1.6209  -1.3538
    -0.9661  -0.5635  -0.0833   0.2348   4.4592   6.4556   7.2244   7.8882
     8.0325  10.1256  10.4041  11.7791  12.0333  12.6567  13.3009  13.7377
    14.3682  14.4948

          k = 0.2500 0.5052 0.0000 (  6282 PWs)   bands (ev):

   -44.7512 -22.9540 -22.9120 -22.8169 -12.0317 -11.5620  -1.6368  -1.4851
    -0.9046  -0.6246  -0.2838   0.1208   4.6387   6.7211   7.1724   7.8420
     8.0950  10.1081  10.9916  11.5735  12.2103  12.7361  13.1161  13.8502
    14.3499  14.5955

          k = 0.2500 0.5774 0.0000 (  6310 PWs)   bands (ev):

   -44.7503 -22.9544 -22.9091 -22.8293 -12.0203 -11.5413  -1.6443  -1.5203
    -0.8842  -0.6573  -0.3516   0.0817   4.7136   6.9009   7.1495   7.6586
     8.1706  10.0882  11.0853  11.8803  12.3234  12.7252  12.7575  13.7471
    14.5783  14.6392

          k = 0.3125 0.5413 0.0000 (  6284 PWs)   bands (ev):

   -44.7498 -22.9367 -22.9076 -22.8542 -12.0140 -11.5302  -1.6093  -1.4203
    -0.8773  -0.7927  -0.4643   0.0617   4.8519   6.8202   7.0983   7.5949
     8.2847  10.2468  10.8481  12.1838  12.4094  12.9548  13.1210  13.4173
    14.4934  14.7209

     highest occupied, lowest unoccupied level (ev):     4.8519    5.8047

!    total energy              =    -591.24422787 Ry
     total all-electron energy =    -13333.877504 Ry
     estimated scf accuracy    <          2.2E-11 Ry

     The total energy is the sum of the following terms:
     one-electron contribution =    -204.79446744 Ry
     hartree contribution      =     110.31157226 Ry
     xc contribution           =     -37.60485893 Ry
     ewald contribution        =     -28.03982155 Ry
     one-center paw contrib.   =    -431.11665221 Ry

     convergence has been achieved in   5 iterations

     negative rho (up, down):  4.047E-08 0.000E+00

     Forces acting on atoms (cartesian axes, Ry/au):

     atom    1 type  1   force =     0.00000000   -0.00000000   -0.00001989
     atom    2 type  2   force =     0.00000000    0.00000000    0.00019175
     atom    3 type  3   force =     0.00000000   -0.00000000   -0.00017186
     The non-local contrib.  to forces
     atom    1 type  1   force =     0.00000000    0.00000000   -0.00060101
     atom    2 type  2   force =     0.00000000   -0.00000000   -0.21284277
     atom    3 type  3   force =     0.00000000   -0.00000000    0.20928492
     The ionic contribution  to forces
     atom    1 type  1   force =    -0.00000001    0.00000000   -0.32889448
     atom    2 type  2   force =     0.00000000   -0.00000000   21.18096383
     atom    3 type  3   force =     0.00000000   -0.00000000  -20.85206935
     The local contribution  to forces
     atom    1 type  1   force =    -0.00000000    0.00000000    0.32915571
     atom    2 type  2   force =     0.00000003   -0.00000002  -20.97581495
     atom    3 type  3   force =    -0.00000000    0.00000000   20.64619652
     The core correction contribution to forces
     atom    1 type  1   force =     0.00000000    0.00000000    0.00035073
     atom    2 type  2   force =    -0.00000000    0.00000000    0.00793983
     atom    3 type  3   force =    -0.00000000    0.00000000   -0.00353920
     The Hubbard contrib.    to forces
     atom    1 type  1   force =     0.00000000    0.00000000    0.00000000
     atom    2 type  2   force =     0.00000000    0.00000000    0.00000000
     atom    3 type  3   force =     0.00000000    0.00000000    0.00000000
     The SCF correction term to forces
     atom    1 type  1   force =    -0.00000000    0.00000000    0.00001791
     atom    2 type  2   force =     0.00000000   -0.00000000   -0.00000543
     atom    3 type  3   force =    -0.00000000   -0.00000000    0.00000401

     Total force =     0.000258     Total SCF correction =     0.000019
     Energy error            =      1.4E-07 Ry
     Gradient error          =      1.9E-04 Ry/Bohr

     number of scf cycles    =   3
     number of bfgs steps    =   2

     energy             old  =    -591.2442277348 Ry
     energy             new  =    -591.2442278720 Ry

     CASE: energy            _new < energy            _old

     new trust radius        =       0.0005338190 bohr
     new conv_thr            =            1.0E-10 Ry


ATOMIC_POSITIONS (angstrom)
Zr            0.0000000000       -0.0000000000       10.2766107873
Cl           -0.0000000017        2.0144284223       11.9654326821
Br           -0.0000000017        2.0144284223        8.4211053050



     Writing config-only to output data dir ./tmp/ZrClBr.save/
     NEW-OLD atomic charge density approx. for the potential

     Check: negative core charge=   -0.000004

     negative rho (up, down):  4.059E-08 0.000E+00

     total cpu time spent up to now is       16.1 secs

     Self-consistent Calculation

     iteration #  1     ecut=    65.00 Ry     beta= 0.70
     Davidson diagonalization with overlap
     ethr =  1.00E-06,  avg # of iterations =  2.0

     Threshold (ethr) on eigenvalues was too large:
     Diagonalizing with lowered threshold

     Davidson diagonalization with overlap
     ethr =  1.53E-10,  avg # of iterations =  4.0

     negative rho (up, down):  4.058E-08 0.000E+00

     total cpu time spent up to now is       17.6 secs

     total energy              =    -591.24422799 Ry
     estimated scf accuracy    <       0.00000004 Ry

     iteration #  2     ecut=    65.00 Ry     beta= 0.70
     Davidson diagonalization with overlap
     ethr =  1.59E-10,  avg # of iterations =  2.0

     negative rho (up, down):  4.064E-08 0.000E+00

     total cpu time spent up to now is       18.2 secs

     total energy              =    -591.24422799 Ry
     estimated scf accuracy    <       0.00000015 Ry

     iteration #  3     ecut=    65.00 Ry     beta= 0.70
     Davidson diagonalization with overlap
     ethr =  1.59E-10,  avg # of iterations =  2.0

     negative rho (up, down):  4.065E-08 0.000E+00

     total cpu time spent up to now is       18.9 secs

     total energy              =    -591.24422801 Ry
     estimated scf accuracy    <          9.1E-10 Ry

     iteration #  4     ecut=    65.00 Ry     beta= 0.70
     Davidson diagonalization with overlap
     ethr =  3.49E-12,  avg # of iterations =  2.0

     negative rho (up, down):  4.065E-08 0.000E+00

     total cpu time spent up to now is       19.6 secs

     total energy              =    -591.24422801 Ry
     estimated scf accuracy    <          6.3E-10 Ry

     iteration #  5     ecut=    65.00 Ry     beta= 0.70
     Davidson diagonalization with overlap
     ethr =  2.40E-12,  avg # of iterations =  1.2

     negative rho (up, down):  4.065E-08 0.000E+00

     total cpu time spent up to now is       20.1 secs

     End of self-consistent calculation

          k = 0.0000 0.0000 0.0000 (  6343 PWs)   bands (ev):

   -44.7894 -23.0277 -22.6261 -22.6261 -12.6568 -12.0954  -2.0177   0.0394
     0.3159   0.3159   1.5035   1.5035   4.3359   6.0658   6.0658   6.7687
     6.7687   6.9088   8.4644   9.5624  11.4217  13.7318  13.7318  14.0258
    14.7515  15.3698

          k = 0.0000 0.0722 0.0000 (  6337 PWs)   bands (ev):

   -44.7881 -23.0236 -22.6418 -22.6294 -12.6307 -12.0838  -1.9726  -0.0227
     0.2553   0.3029   1.3414   1.4679   4.3410   5.9986   6.1009   6.7331
     6.8280   7.0893   8.5942   9.7959  11.4893  13.2689  13.8593  14.4049
    14.7643  14.9315

          k = 0.0000 0.1443 0.0000 (  6343 PWs)   bands (ev):

   -44.7843 -23.0122 -22.6861 -22.6388 -12.5569 -12.0491  -1.8457  -0.2421
     0.1256   0.2614   0.9419   1.3750   4.3298   5.8834   6.2134   6.6970
     6.9859   7.5236   8.9581  10.3483  11.6923  12.7093  14.1370  14.2226
    14.6368  14.9929

          k = 0.0000 0.2165 0.0000 (  6331 PWs)   bands (ev):

   -44.7787 -22.9950 -22.7515 -22.6527 -12.4488 -11.9918  -1.6630  -0.6015
    -0.0788   0.1887   0.5118   1.2556   4.2479   5.8844   6.4184   6.7374
     7.1946   8.0239   9.4706  10.9156  11.9382  12.3166  13.6531  14.4413
    14.7510  15.2629

          k = 0.0000 0.2887 0.0000 (  6305 PWs)   bands (ev):

   -44.7720 -22.9745 -22.8274 -22.6691 -12.3275 -11.9127  -1.4779  -0.9993
    -0.4636   0.0896   0.2730   1.1383   4.1004   6.0813   6.7227   6.8504
     7.4029   8.4925   9.9058  11.2772  11.8910  12.1910  13.8594  14.1490
    15.1338  15.2228

          k = 0.0000 0.3608 0.0000 (  6297 PWs)   bands (ev):

   -44.7654 -22.9541 -22.9020 -22.6855 -12.2167 -11.8166  -1.5275  -1.1767
    -0.8964  -0.0194   0.1804   1.0392   3.9617   6.4316   6.9948   7.1090
     7.5749   8.9130  10.0347  11.3477  11.8188  12.1710  13.8292  14.4060
    14.7923  15.0668

          k = 0.0000 0.4330 0.0000 (  6276 PWs)   bands (ev):

   -44.7597 -22.9647 -22.9363 -22.6993 -12.1331 -11.7188  -1.8304  -1.2960
    -1.0331  -0.1164   0.1420   0.9649   3.8828   6.8258   7.1510   7.5199
     7.6989   9.2672   9.9522  11.2054  11.8425  12.1636  13.3440  14.3603
    14.4845  14.7142

          k = 0.0000 0.5052 0.0000 (  6278 PWs)   bands (ev):

   -44.7559 -23.0057 -22.9248 -22.7085 -12.0826 -11.6448  -2.0530  -1.5119
    -0.9671  -0.1824   0.1280   0.9187   3.8589   7.0514   7.3846   7.7482
     7.8806   9.4850   9.8742  11.0858  11.8147  12.1532  12.8182  13.9820
    14.2180  14.4593

          k = 0.0000-0.5774 0.0000 (  6278 PWs)   bands (ev):

   -44.7546 -23.0201 -22.9207 -22.7117 -12.0657 -11.6172  -2.1325  -1.5874
    -0.9434  -0.2057   0.1248   0.9030   3.8571   7.0979   7.5269   7.7749
     8.0128   9.5175   9.8935  11.0484  11.7278  12.1880  12.6320  13.7849
    14.1176  14.3276

          k = 0.0625 0.1083 0.0000 (  6345 PWs)   bands (ev):

   -44.7856 -23.0159 -22.6713 -22.6362 -12.5807 -12.0606  -1.8864  -0.1619
     0.1545   0.2804   1.0651   1.3994   4.3394   5.9010   6.1817   6.7032
     6.9340   7.3953   8.8409  10.1864  11.6284  12.8585  14.0503  14.3391
    14.6944  14.8933

          k = 0.0625 0.1804 0.0000 (  6330 PWs)   bands (ev):

   -44.7809 -23.0015 -22.7249 -22.6491 -12.4897 -12.0146  -1.7305  -0.4494
     0.0015   0.2105   0.6599   1.2820   4.2989   5.8252   6.3624   6.7212
     7.1118   7.8562   9.2851  10.7368  11.9088  12.4276  13.7269  14.2899
    14.7740  15.2258

          k = 0.0625 0.2526 0.0000 (  6313 PWs)   bands (ev):

   -44.7747 -22.9827 -22.7940 -22.6659 -12.3750 -11.9461  -1.5394  -0.8269
    -0.2652   0.0521   0.3799   1.1457   4.1921   5.9003   6.6481   6.8192
     7.3113   8.3340   9.7790  11.1750  12.0405  12.2689  13.5166  14.1791
    15.0260  15.2303

          k = 0.0625 0.3248 0.0000 (  6298 PWs)   bands (ev):

   -44.7680 -22.9623 -22.8674 -22.6840 -12.2596 -11.8574  -1.4151  -1.1571
    -0.6909  -0.0791   0.2632   1.0134   4.0613   6.1531   6.9378   7.0536
     7.4892   8.7831  10.0522  11.3984  11.9438  12.2138  13.8686  14.1180
    14.7751  15.0895

          k = 0.0625 0.3969 0.0000 (  6291 PWs)   bands (ev):

   -44.7619 -22.9440 -22.9335 -22.7007 -12.1639 -11.7581  -1.6586  -1.1702
    -1.0390  -0.1655   0.1926   0.9014   3.9702   6.5340   7.0942   7.4562
     7.6242   9.1972  10.0309  11.3715  11.9062  12.2088  13.6208  14.1974
    14.5532  14.8852

          k = 0.0625 0.4691 0.0000 (  6293 PWs)   bands (ev):

   -44.7571 -22.9849 -22.9285 -22.7135 -12.0984 -11.6698  -1.9261  -1.4131
    -0.9903  -0.2230   0.1484   0.8210   3.9372   6.9420   7.2369   7.6791
     7.8149   9.5403   9.9150  11.2593  11.9048  12.1742  13.0294  13.8566
    14.4300  14.7300

          k = 0.0625 0.5413 0.0000 (  6279 PWs)   bands (ev):

   -44.7546 -23.0120 -22.9207 -22.7204 -12.0656 -11.6175  -2.0751  -1.5621
    -0.9428  -0.2529   0.1279   0.7793   3.9366   7.1447   7.4498   7.7163
     7.9490   9.6007  10.0081  11.1968  11.8303  12.1847  12.6175  13.5897
    14.3312  14.4388

          k = 0.1250 0.2165 0.0000 (  6303 PWs)   bands (ev):

   -44.7756 -22.9856 -22.7800 -22.6669 -12.3921 -11.9572  -1.5622  -0.7465
    -0.1842   0.0120   0.4266   1.1287   4.2423   5.8039   6.6501   6.8185
     7.2705   8.2862   9.7290  11.1353  12.1867  12.3225  13.2783  14.1145
    14.9875  15.1311

          k = 0.1250 0.2887 0.0000 (  6312 PWs)   bands (ev):

   -44.7695 -22.9667 -22.8430 -22.6890 -12.2836 -11.8781  -1.3840  -1.0780
    -0.5122  -0.2039   0.3183   0.9440   4.1704   5.9128   6.9502   7.0685
     7.4269   8.7408  10.0782  11.4137  12.1511  12.4950  13.3077  13.9176
    14.6981  15.0237

          k = 0.1250 0.3608 0.0000 (  6288 PWs)   bands (ev):

   -44.7633 -22.9479 -22.9045 -22.7115 -12.1852 -11.7831  -1.4656  -1.1602
    -0.9156  -0.3047   0.2385   0.7567   4.1184   6.1768   7.1229   7.4600
     7.5917   9.2014  10.1455  11.5596  12.1794  12.3474  13.6842  13.8745
    14.1388  14.8848

          k = 0.1250 0.4330 0.0000 (  6285 PWs)   bands (ev):

   -44.7581 -22.9563 -22.9313 -22.7307 -12.1106 -11.6885  -1.7334  -1.2780
    -1.0163  -0.3541   0.1719   0.5959   4.1110   6.5652   7.2544   7.6152
     7.8674   9.6794  10.0183  11.5769  12.0989  12.2602  13.1896  13.7342
    14.4993  14.8014

          k = 0.1250 0.5052 0.0000 (  6287 PWs)   bands (ev):

   -44.7546 -22.9901 -22.9207 -22.7436 -12.0651 -11.6180  -1.9186  -1.4920
    -0.9443  -0.3729   0.1263   0.4875   4.1338   6.9927   7.3471   7.6683
     7.9549   9.7977  10.2163  11.5677  12.0151  12.1933  12.6512  13.5322
    14.4387  14.7319

          k = 0.1250 0.5774 0.0000 (  6286 PWs)   bands (ev):

   -44.7533 -23.0019 -22.9169 -22.7481 -12.0498 -11.5919  -1.9842  -1.5662
    -0.9202  -0.3768   0.1098   0.4494   4.1482   7.2019   7.4368   7.6733
     7.8800   9.7082  10.4960  11.5721  11.9635  12.2519  12.2959  13.4601
    14.3925  14.5993

          k = 0.1875 0.3248 0.0000 (  6297 PWs)   bands (ev):

   -44.7638 -22.9494 -22.8912 -22.7183 -12.1929 -11.7916  -1.3592  -1.1888
    -0.8292  -0.3832   0.2357   0.6935   4.1950   6.0221   7.1397   7.4470
     7.6061   9.2064  10.2076  11.6177  12.3888  12.5746  13.4021  13.7333
    13.8229  14.9595

          k = 0.1875 0.3969 0.0000 (  6293 PWs)   bands (ev):

   -44.7586 -22.9355 -22.9305 -22.7479 -12.1173 -11.6984  -1.5650  -1.1557
    -1.0511  -0.4701   0.1303   0.4520   4.2632   6.2663   7.2453   7.6418
     7.9232   9.7333  10.1610  11.7733  12.3251  12.4767  13.2383  13.6002
    14.1684  14.7317

          k = 0.1875 0.4691 0.0000 (  6277 PWs)   bands (ev):

   -44.7546 -22.9631 -22.9207 -22.7719 -12.0646 -11.6185  -1.7221  -1.4015
    -0.9548  -0.5039   0.0335   0.2645   4.3539   6.6247   7.2681   7.8052
     8.0078  10.0174  10.3613  11.8421  11.9767  12.4188  12.9888  13.7059
    14.4425  14.6971

          k = 0.1875 0.5413 0.0000 (  6281 PWs)   bands (ev):

   -44.7524 -22.9788 -22.9141 -22.7853 -12.0377 -11.5724  -1.8051  -1.5353
    -0.9064  -0.5117  -0.0212   0.1599   4.4210   6.9869   7.2747   7.8335
     7.9022   9.8935  10.9456  11.7367  12.0293  12.3751  12.5408  13.6377
    14.4751  14.6749

          k = 0.2500 0.4330 0.0000 (  6292 PWs)   bands (ev):

   -44.7546 -22.9492 -22.9207 -22.7864 -12.0644 -11.6188  -1.6202  -1.3533
    -0.9655  -0.5631  -0.0831   0.2347   4.4590   6.4548   7.2234   7.8874
     8.0320  10.1251  10.4036  11.7787  12.0336  12.6568  13.3005  13.7376
    14.3677  14.4946

          k = 0.2500 0.5052 0.0000 (  6282 PWs)   bands (ev):

   -44.7519 -22.9545 -22.9126 -22.8174 -12.0311 -11.5618  -1.6361  -1.4847
    -0.9041  -0.6242  -0.2837   0.1207   4.6385   6.7205   7.1713   7.8413
     8.0941  10.1077  10.9911  11.5732  12.2106  12.7361  13.1158  13.8500
    14.3497  14.5952

          k = 0.2500 0.5774 0.0000 (  6310 PWs)   bands (ev):

   -44.7510 -22.9548 -22.9097 -22.8299 -12.0197 -11.5411  -1.6436  -1.5199
    -0.8836  -0.6569  -0.3514   0.0816   4.7134   6.9006   7.1484   7.6576
     8.1697  10.0877  11.0848  11.8802  12.3237  12.7250  12.7574  13.7468
    14.5783  14.6386

          k = 0.3125 0.5413 0.0000 (  6284 PWs)   bands (ev):

   -44.7504 -22.9372 -22.9081 -22.8548 -12.0135 -11.5300  -1.6086  -1.4199
    -0.8768  -0.7923  -0.4642   0.0615   4.8518   6.8201   7.0971   7.5938
     8.2838  10.2462  10.8479  12.1837  12.4096  12.9549  13.1207  13.4170
    14.4929  14.7203

     highest occupied, lowest unoccupied level (ev):     4.8518    5.8039

!    total energy              =    -591.24422801 Ry
     total all-electron energy =    -13333.877504 Ry
     estimated scf accuracy    <          2.6E-11 Ry

     The total energy is the sum of the following terms:
     one-electron contribution =    -204.75279838 Ry
     hartree contribution      =     110.29060904 Ry
     xc contribution           =     -37.60460824 Ry
     ewald contribution        =     -28.06079206 Ry
     one-center paw contrib.   =    -431.11663836 Ry

     convergence has been achieved in   5 iterations

     negative rho (up, down):  4.065E-08 0.000E+00

     Forces acting on atoms (cartesian axes, Ry/au):

     atom    1 type  1   force =     0.00000000   -0.00000000    0.00001150
     atom    2 type  2   force =     0.00000000    0.00000000    0.00009596
     atom    3 type  3   force =     0.00000000    0.00000000   -0.00010746
     The non-local contrib.  to forces
     atom    1 type  1   force =     0.00000000    0.00000000   -0.00061387
     atom    2 type  2   force =     0.00000000   -0.00000000   -0.21289878
     atom    3 type  3   force =     0.00000000   -0.00000000    0.20931550
     The ionic contribution  to forces
     atom    1 type  1   force =    -0.00000001    0.00000000   -0.32896163
     atom    2 type  2   force =     0.00000000   -0.00000000   21.17872192
     atom    3 type  3   force =     0.00000000   -0.00000000  -20.84976028
     The local contribution  to forces
     atom    1 type  1   force =    -0.00000000    0.00000000    0.32926611
     atom    2 type  2   force =     0.00000003   -0.00000002  -20.97361994
     atom    3 type  3   force =    -0.00000000    0.00000000   20.64392816
     The core correction contribution to forces
     atom    1 type  1   force =     0.00000000    0.00000000    0.00035195
     atom    2 type  2   force =    -0.00000000    0.00000000    0.00794894
     atom    3 type  3   force =    -0.00000000    0.00000000   -0.00354361
     The Hubbard contrib.    to forces
     atom    1 type  1   force =     0.00000000    0.00000000    0.00000000
     atom    2 type  2   force =     0.00000000    0.00000000    0.00000000
     atom    3 type  3   force =     0.00000000    0.00000000    0.00000000
     The SCF correction term to forces
     atom    1 type  1   force =    -0.00000000    0.00000000    0.00001908
     atom    2 type  2   force =     0.00000000   -0.00000000   -0.00000605
     atom    3 type  3   force =     0.00000000   -0.00000000    0.00000291

     Total force =     0.000145     Total SCF correction =     0.000020
     SCF correction compared to forces is large: reduce conv_thr to get better values
     Energy error            =      1.4E-07 Ry
     Gradient error          =      1.1E-04 Ry/Bohr

     number of scf cycles    =   4
     number of bfgs steps    =   3

     energy             old  =    -591.2442278720 Ry
     energy             new  =    -591.2442280124 Ry

     CASE: energy            _new < energy            _old

     new trust radius        =       0.0006331218 bohr
     new conv_thr            =            1.0E-10 Ry


ATOMIC_POSITIONS (angstrom)
Zr            0.0000000000       -0.0000000000       10.2765894268
Cl           -0.0000000017        2.0144284223       11.9657677157
Br           -0.0000000017        2.0144284223        8.4207916319



     Writing config-only to output data dir ./tmp/ZrClBr.save/
     NEW-OLD atomic charge density approx. for the potential

     Check: negative core charge=   -0.000004

     negative rho (up, down):  4.075E-08 0.000E+00

     total cpu time spent up to now is       20.5 secs

     Self-consistent Calculation

     iteration #  1     ecut=    65.00 Ry     beta= 0.70
     Davidson diagonalization with overlap
     ethr =  1.00E-06,  avg # of iterations =  2.0

     Threshold (ethr) on eigenvalues was too large:
     Diagonalizing with lowered threshold

     Davidson diagonalization with overlap
     ethr =  2.28E-10,  avg # of iterations =  4.0

     negative rho (up, down):  4.074E-08 0.000E+00

     total cpu time spent up to now is       21.9 secs

     total energy              =    -591.24422804 Ry
     estimated scf accuracy    <       0.00000006 Ry

     iteration #  2     ecut=    65.00 Ry     beta= 0.70
     Davidson diagonalization with overlap
     ethr =  2.46E-10,  avg # of iterations =  2.0

     negative rho (up, down):  4.081E-08 0.000E+00

     total cpu time spent up to now is       22.6 secs

     total energy              =    -591.24422803 Ry
     estimated scf accuracy    <       0.00000024 Ry

     iteration #  3     ecut=    65.00 Ry     beta= 0.70
     Davidson diagonalization with overlap
     ethr =  2.46E-10,  avg # of iterations =  2.0

     negative rho (up, down):  4.082E-08 0.000E+00

     total cpu time spent up to now is       23.2 secs

     total energy              =    -591.24422807 Ry
     estimated scf accuracy    <          1.2E-09 Ry

     iteration #  4     ecut=    65.00 Ry     beta= 0.70
     Davidson diagonalization with overlap
     ethr =  4.43E-12,  avg # of iterations =  2.0

     negative rho (up, down):  4.083E-08 0.000E+00

     total cpu time spent up to now is       23.9 secs

     total energy              =    -591.24422807 Ry
     estimated scf accuracy    <          8.8E-10 Ry

     iteration #  5     ecut=    65.00 Ry     beta= 0.70
     Davidson diagonalization with overlap
     ethr =  3.37E-12,  avg # of iterations =  1.2

     negative rho (up, down):  4.083E-08 0.000E+00

     total cpu time spent up to now is       24.5 secs

     End of self-consistent calculation

          k = 0.0000 0.0000 0.0000 (  6343 PWs)   bands (ev):

   -44.7902 -23.0283 -22.6268 -22.6268 -12.6561 -12.0953  -2.0171   0.0391
     0.3170   0.3170   1.5042   1.5042   4.3347   6.0650   6.0650   6.7684
     6.7684   6.9086   8.4647   9.5624  11.4223  13.7320  13.7320  14.0246
    14.7516  15.3693

          k = 0.0000 0.0722 0.0000 (  6337 PWs)   bands (ev):

   -44.7889 -23.0243 -22.6425 -22.6301 -12.6300 -12.0836  -1.9720  -0.0226
     0.2561   0.3040   1.3421   1.4687   4.3398   5.9977   6.1000   6.7328
     6.8277   7.0891   8.5944   9.7959  11.4899  13.2685  13.8595  14.4043
    14.7644  14.9311

          k = 0.0000 0.1443 0.0000 (  6343 PWs)   bands (ev):

   -44.7852 -23.0128 -22.6867 -22.6395 -12.5562 -12.0489  -1.8451  -0.2415
     0.1258   0.2625   0.9424   1.3757   4.3288   5.8825   6.2126   6.6967
     6.9854   7.5234   8.9581  10.3485  11.6927  12.7090  14.1366  14.2228
    14.6360  14.9934

          k = 0.0000 0.2165 0.0000 (  6331 PWs)   bands (ev):

   -44.7795 -22.9956 -22.7522 -22.6534 -12.4481 -11.9916  -1.6624  -0.6007
    -0.0785   0.1897   0.5120   1.2563   4.2472   5.8833   6.4177   6.7370
     7.1940   8.0236   9.4702  10.9161  11.9380  12.3163  13.6530  14.4406
    14.7511  15.2632

          k = 0.0000 0.2887 0.0000 (  6305 PWs)   bands (ev):

   -44.7728 -22.9752 -22.8281 -22.6698 -12.3269 -11.9124  -1.4772  -0.9985
    -0.4632   0.0905   0.2728   1.1390   4.0999   6.0802   6.7222   6.8499
     7.4021   8.4922   9.9048  11.2778  11.8906  12.1908  13.8596  14.1487
    15.1336  15.2228

          k = 0.0000 0.3608 0.0000 (  6297 PWs)   bands (ev):

   -44.7662 -22.9548 -22.9026 -22.6862 -12.2161 -11.8163  -1.5267  -1.1761
    -0.8960  -0.0185   0.1801   1.0399   3.9613   6.4307   6.9941   7.1085
     7.5739   8.9125  10.0336  11.3479  11.8185  12.1709  13.8291  14.4060
    14.7919  15.0665

          k = 0.0000 0.4330 0.0000 (  6276 PWs)   bands (ev):

   -44.7605 -22.9653 -22.9370 -22.7000 -12.1325 -11.7185  -1.8297  -1.2956
    -1.0325  -0.1154   0.1418   0.9655   3.8824   6.8250   7.1501   7.5195
     7.6978   9.2662   9.9517  11.2051  11.8423  12.1634  13.3438  14.3602
    14.4843  14.7137

          k = 0.0000 0.5052 0.0000 (  6278 PWs)   bands (ev):

   -44.7567 -23.0063 -22.9255 -22.7092 -12.0820 -11.6445  -2.0524  -1.5116
    -0.9665  -0.1814   0.1277   0.9193   3.8585   7.0506   7.3837   7.7471
     7.8802   9.4836   9.8744  11.0853  11.8143  12.1530  12.8179  13.9819
    14.2174  14.4592

          k = 0.0000-0.5774 0.0000 (  6278 PWs)   bands (ev):

   -44.7554 -23.0207 -22.9214 -22.7124 -12.0651 -11.6169  -2.1318  -1.5871
    -0.9427  -0.2047   0.1246   0.9036   3.8566   7.0971   7.5259   7.7737
     8.0125   9.5165   9.8932  11.0479  11.7275  12.1878  12.6316  13.7847
    14.1165  14.3282

          k = 0.0625 0.1083 0.0000 (  6345 PWs)   bands (ev):

   -44.7864 -23.0165 -22.6720 -22.6369 -12.5800 -12.0605  -1.8858  -0.1614
     0.1549   0.2814   1.0657   1.4001   4.3383   5.9001   6.1809   6.7029
     6.9336   7.3951   8.8410  10.1865  11.6288  12.8581  14.0505  14.3386
    14.6934  14.8940

          k = 0.0625 0.1804 0.0000 (  6330 PWs)   bands (ev):

   -44.7817 -23.0022 -22.7256 -22.6497 -12.4891 -12.0144  -1.7298  -0.4486
     0.0017   0.2115   0.6603   1.2827   4.2981   5.8242   6.3617   6.7209
     7.1113   7.8559   9.2849  10.7371  11.9089  12.4273  13.7265  14.2898
    14.7734  15.2265

          k = 0.0625 0.2526 0.0000 (  6313 PWs)   bands (ev):

   -44.7755 -22.9834 -22.7946 -22.6666 -12.3744 -11.9459  -1.5387  -0.8260
    -0.2648   0.0530   0.3799   1.1463   4.1916   5.8993   6.6474   6.8188
     7.3105   8.3337   9.7783  11.1757  12.0403  12.2686  13.5165  14.1786
    15.0260  15.2301

          k = 0.0625 0.3248 0.0000 (  6298 PWs)   bands (ev):

   -44.7689 -22.9630 -22.8680 -22.6847 -12.2590 -11.8571  -1.4143  -1.1564
    -0.6904  -0.0784   0.2632   1.0140   4.0609   6.1521   6.9373   7.0530
     7.4882   8.7828  10.0510  11.3989  11.9435  12.2137  13.8684  14.1180
    14.7747  15.0894

          k = 0.0625 0.3969 0.0000 (  6291 PWs)   bands (ev):

   -44.7627 -22.9447 -22.9341 -22.7014 -12.1633 -11.7578  -1.6579  -1.1697
    -1.0385  -0.1647   0.1925   0.9019   3.9698   6.5331   7.0935   7.4558
     7.6231   9.1966  10.0300  11.3714  11.9060  12.2087  13.6206  14.1971
    14.5532  14.8849

          k = 0.0625 0.4691 0.0000 (  6293 PWs)   bands (ev):

   -44.7580 -22.9855 -22.9292 -22.7142 -12.0978 -11.6694  -1.9254  -1.4127
    -0.9897  -0.2222   0.1483   0.8215   3.9369   6.9412   7.2360   7.6780
     7.8144   9.5390   9.9150  11.2589  11.9045  12.1740  13.0291  13.8563
    14.4302  14.7294

          k = 0.0625 0.5413 0.0000 (  6279 PWs)   bands (ev):

   -44.7554 -23.0125 -22.9214 -22.7210 -12.0650 -11.6171  -2.0745  -1.5618
    -0.9421  -0.2520   0.1277   0.7798   3.9362   7.1439   7.4490   7.7151
     7.9484   9.5999  10.0077  11.1963  11.8300  12.1845  12.6171  13.5893
    14.3313  14.4383

          k = 0.1250 0.2165 0.0000 (  6303 PWs)   bands (ev):

   -44.7765 -22.9863 -22.7807 -22.6676 -12.3915 -11.9570  -1.5616  -0.7457
    -0.1839   0.0128   0.4268   1.1294   4.2417   5.8028   6.6495   6.8181
     7.2697   8.2859   9.7283  11.1359  12.1867  12.3222  13.2779  14.1140
    14.9873  15.1309

          k = 0.1250 0.2887 0.0000 (  6312 PWs)   bands (ev):

   -44.7703 -22.9674 -22.8436 -22.6897 -12.2830 -11.8778  -1.3833  -1.0772
    -0.5118  -0.2032   0.3184   0.9445   4.1701   5.9117   6.9497   7.0680
     7.4258   8.7406  10.0769  11.4143  12.1513  12.4947  13.3073  13.9171
    14.6979  15.0234

          k = 0.1250 0.3608 0.0000 (  6288 PWs)   bands (ev):

   -44.7641 -22.9486 -22.9051 -22.7122 -12.1846 -11.7828  -1.4648  -1.1596
    -0.9151  -0.3041   0.2385   0.7572   4.1181   6.1758   7.1223   7.4594
     7.5908   9.2011  10.1442  11.5600  12.1792  12.3474  13.6839  13.8741
    14.1386  14.8847

          k = 0.1250 0.4330 0.0000 (  6285 PWs)   bands (ev):

   -44.7589 -22.9569 -22.9320 -22.7314 -12.1101 -11.6881  -1.7327  -1.2776
    -1.0157  -0.3534   0.1718   0.5963   4.1107   6.5643   7.2535   7.6142
     7.8668   9.6787  10.0176  11.5769  12.0986  12.2600  13.1891  13.7341
    14.4994  14.8010

          k = 0.1250 0.5052 0.0000 (  6287 PWs)   bands (ev):

   -44.7554 -22.9907 -22.9214 -22.7442 -12.0645 -11.6177  -1.9180  -1.4915
    -0.9436  -0.3722   0.1261   0.4879   4.1334   6.9919   7.3459   7.6674
     7.9543   9.7970  10.2159  11.5674  12.0146  12.1932  12.6509  13.5319
    14.4390  14.7312

          k = 0.1250 0.5774 0.0000 (  6286 PWs)   bands (ev):

   -44.7542 -23.0025 -22.9176 -22.7487 -12.0492 -11.5916  -1.9836  -1.5658
    -0.9195  -0.3760   0.1096   0.4498   4.1478   7.2010   7.4358   7.6724
     7.8791   9.7078  10.4953  11.5717  11.9632  12.2518  12.2955  13.4597
    14.3930  14.5985

          k = 0.1875 0.3248 0.0000 (  6297 PWs)   bands (ev):

   -44.7646 -22.9501 -22.8918 -22.7190 -12.1923 -11.7913  -1.3583  -1.1882
    -0.8287  -0.3827   0.2358   0.6939   4.1947   6.0209   7.1392   7.4463
     7.6053   9.2062  10.2061  11.6182  12.3890  12.5748  13.4013  13.7329
    13.8224  14.9594

          k = 0.1875 0.3969 0.0000 (  6293 PWs)   bands (ev):

   -44.7594 -22.9362 -22.9312 -22.7486 -12.1167 -11.6981  -1.5643  -1.1551
    -1.0505  -0.4695   0.1304   0.4522   4.2630   6.2653   7.2443   7.6409
     7.9226   9.7331  10.1596  11.7737  12.3248  12.4767  13.2381  13.6000
    14.1678  14.7316

          k = 0.1875 0.4691 0.0000 (  6277 PWs)   bands (ev):

   -44.7554 -22.9636 -22.9214 -22.7726 -12.0640 -11.6182  -1.7215  -1.4010
    -0.9541  -0.5034   0.0337   0.2646   4.3537   6.6238   7.2669   7.8043
     8.0071  10.0168  10.3607  11.8420  11.9764  12.4187  12.9885  13.7057
    14.4423  14.6968

          k = 0.1875 0.5413 0.0000 (  6281 PWs)   bands (ev):

   -44.7532 -22.9794 -22.9148 -22.7859 -12.0371 -11.5720  -1.8044  -1.5347
    -0.9057  -0.5112  -0.0209   0.1599   4.4207   6.9863   7.2733   7.8326
     7.9013   9.8931  10.9448  11.7364  12.0293  12.3750  12.5405  13.6374
    14.4753  14.6742

          k = 0.2500 0.4330 0.0000 (  6292 PWs)   bands (ev):

   -44.7554 -22.9498 -22.9214 -22.7870 -12.0638 -11.6184  -1.6196  -1.3527
    -0.9648  -0.5627  -0.0828   0.2347   4.4589   6.4538   7.2221   7.8864
     8.0313  10.1245  10.4029  11.7784  12.0338  12.6568  13.3001  13.7375
    14.3672  14.4943

          k = 0.2500 0.5052 0.0000 (  6282 PWs)   bands (ev):

   -44.7527 -22.9551 -22.9133 -22.8181 -12.0305 -11.5614  -1.6354  -1.4840
    -0.9034  -0.6238  -0.2833   0.1205   4.6383   6.7199   7.1699   7.8404
     8.0931  10.1070  10.9906  11.5728  12.2110  12.7360  13.1155  13.8498
    14.3493  14.5948

          k = 0.2500 0.5774 0.0000 (  6310 PWs)   bands (ev):

   -44.7518 -22.9554 -22.9104 -22.8305 -12.0191 -11.5407  -1.6429  -1.5193
    -0.8829  -0.6565  -0.3512   0.0814   4.7132   6.9003   7.1470   7.6563
     8.1687  10.0871  11.0842  11.8801  12.3240  12.7247  12.7572  13.7464
    14.5784  14.6379

          k = 0.3125 0.5413 0.0000 (  6284 PWs)   bands (ev):

   -44.7513 -22.9378 -22.9088 -22.8554 -12.0128 -11.5296  -1.6078  -1.4193
    -0.8762  -0.7918  -0.4640   0.0614   4.8515   6.8199   7.0957   7.5924
     8.2827  10.2454  10.8477  12.1836  12.4100  12.9549  13.1205  13.4167
    14.4923  14.7198

     highest occupied, lowest unoccupied level (ev):     4.8515    5.8028

!    total energy              =    -591.24422807 Ry
     total all-electron energy =    -13333.877504 Ry
     estimated scf accuracy    <          3.5E-11 Ry

     The total energy is the sum of the following terms:
     one-electron contribution =    -204.70156807 Ry
     hartree contribution      =     110.26483188 Ry
     xc contribution           =     -37.60429962 Ry
     ewald contribution        =     -28.08657116 Ry
     one-center paw contrib.   =    -431.11662111 Ry

     convergence has been achieved in   5 iterations

     negative rho (up, down):  4.083E-08 0.000E+00

     Forces acting on atoms (cartesian axes, Ry/au):

     atom    1 type  1   force =     0.00000000    0.00000000    0.00002713
     atom    2 type  2   force =     0.00000000   -0.00000000   -0.00001087
     atom    3 type  3   force =     0.00000000    0.00000000   -0.00001626
     The non-local contrib.  to forces
     atom    1 type  1   force =    -0.00000000    0.00000000   -0.00062112
     atom    2 type  2   force =     0.00000000   -0.00000000   -0.21296088
     atom    3 type  3   force =     0.00000000    0.00000000    0.20935586
     The ionic contribution  to forces
     atom    1 type  1   force =    -0.00000001    0.00000000   -0.32919090
     atom    2 type  2   force =     0.00000000   -0.00000000   21.17601521
     atom    3 type  3   force =     0.00000000   -0.00000000  -20.84682431
     The local contribution  to forces
     atom    1 type  1   force =    -0.00000000    0.00000000    0.32951754
     atom    2 type  2   force =     0.00000003   -0.00000002  -20.97096701
     atom    3 type  3   force =    -0.00000000    0.00000000   20.64104913
     The core correction contribution to forces
     atom    1 type  1   force =     0.00000000    0.00000000    0.00035267
     atom    2 type  2   force =    -0.00000000    0.00000000    0.00795918
     atom    3 type  3   force =    -0.00000000    0.00000000   -0.00354966
     The Hubbard contrib.    to forces
     atom    1 type  1   force =     0.00000000    0.00000000    0.00000000
     atom    2 type  2   force =     0.00000000    0.00000000    0.00000000
     atom    3 type  3   force =     0.00000000    0.00000000    0.00000000
     The SCF correction term to forces
     atom    1 type  1   force =    -0.00000000    0.00000000    0.00002026
     atom    2 type  2   force =     0.00000000   -0.00000000   -0.00000604
     atom    3 type  3   force =     0.00000000   -0.00000000    0.00000404

     Total force =     0.000033     Total SCF correction =     0.000022
     SCF correction compared to forces is large: reduce conv_thr to get better values
     Energy error            =      6.1E-08 Ry
     Gradient error          =      2.7E-05 Ry/Bohr

     bfgs converged in   5 scf cycles and   4 bfgs steps
     (criteria: energy <  1.0E-05 Ry, force <  1.0E-04 Ry/Bohr)

     End of BFGS Geometry Optimization

     Final energy             =    -591.2442280735 Ry

     File ./tmp/ZrClBr.bfgs deleted, as requested
Begin final coordinates

ATOMIC_POSITIONS (angstrom)
Zr            0.0000000000       -0.0000000000       10.2765894268
Cl           -0.0000000017        2.0144284223       11.9657677157
Br           -0.0000000017        2.0144284223        8.4207916319
End final coordinates



     Writing all to output data dir ./tmp/ZrClBr.save/

     init_run     :      0.36s CPU      0.38s WALL (       1 calls)
     electrons    :     21.67s CPU     22.31s WALL (       5 calls)
     update_pot   :      0.48s CPU      0.51s WALL (       4 calls)
     forces       :      0.69s CPU      0.70s WALL (       5 calls)

     Called by init_run:
     wfcinit      :      0.18s CPU      0.19s WALL (       1 calls)
     potinit      :      0.07s CPU      0.08s WALL (       1 calls)
     hinit0       :      0.07s CPU      0.08s WALL (       1 calls)

     Called by electrons:
     c_bands      :     17.60s CPU     17.89s WALL (      32 calls)
     sum_band     :      2.61s CPU      2.67s WALL (      32 calls)
     v_of_rho     :      0.11s CPU      0.11s WALL (      32 calls)
     newd         :      0.30s CPU      0.32s WALL (      32 calls)
     PAW_pot      :      1.44s CPU      1.79s WALL (      36 calls)
     mix_rho      :      0.01s CPU      0.01s WALL (      32 calls)

     Called by c_bands:
     init_us_2    :      0.15s CPU      0.15s WALL (    2220 calls)
     init_us_2:cp :      0.15s CPU      0.15s WALL (    2220 calls)
     cegterg      :     17.24s CPU     17.52s WALL (     960 calls)

     Called by *egterg:
     cdiaghg      :      2.66s CPU      2.68s WALL (    3230 calls)
     h_psi        :     10.04s CPU     10.27s WALL (    3530 calls)
     s_psi        :      0.68s CPU      0.69s WALL (    3530 calls)
     g_psi        :      0.03s CPU      0.03s WALL (    2540 calls)

     Called by h_psi:
     h_psi:calbec :      1.15s CPU      1.18s WALL (    3530 calls)
     vloc_psi     :      8.19s CPU      8.38s WALL (    3530 calls)
     add_vuspsi   :      0.68s CPU      0.69s WALL (    3530 calls)

     General routines
     calbec       :      1.99s CPU      2.04s WALL (    5210 calls)
     fft          :      0.08s CPU      0.08s WALL (     416 calls)
     ffts         :      0.00s CPU      0.00s WALL (      32 calls)
     fftw         :      9.22s CPU      9.43s WALL (  142128 calls)

     Parallel routines

     PWSCF        :     23.94s CPU     24.83s WALL


   This run was terminated on:   8:36: 6  18Sep2026            

=------------------------------------------------------------------------------=
   JOB DONE.
=------------------------------------------------------------------------------=
Note: The following floating-point exceptions are signalling: IEEE_INVALID_FLAG
