
     Program PWSCF v.7.2 starts on 18Sep2026 at  8:45:48 

     This program is part of the open-source Quantum ESPRESSO suite
     for quantum simulation of materials; please cite
         "P. Giannozzi et al., J. Phys.:Condens. Matter 21 395502 (2009);
         "P. Giannozzi et al., J. Phys.:Condens. Matter 29 465901 (2017);
         "P. Giannozzi et al., J. Chem. Phys. 152 154105 (2020);
          URL http://www.quantum-espresso.org", 
     in publications or presentations arising from this work. More details at
     http://www.quantum-espresso.org/quote

     Parallel version (MPI), running on    32 processors

     MPI processes distributed on     1 nodes
     228833 MiB available memory on the printing compute node when the environment starts

     Waiting for input...
     Reading input from standard input

     Current dimensions of program PWSCF are:
     Max number of different atomic species (ntypx) = 10
     Max number of k-points (npk) =  40000
     Max angular momentum in pseudopotentials (lmaxx) =  4
     file Zr.pbe-spn-kjpaw_psl.1.0.0.UPF: wavefunction(s)  4S 4P renormalized
     file F.pbe-n-kjpaw_psl.1.0.0.UPF: wavefunction(s)  2S 2P renormalized
     file Br.pbe-n-kjpaw_psl.1.0.0.UPF: wavefunction(s)  4S 4P renormalized
     Message from routine setup:
     using ibrav=0 with symmetry is DISCOURAGED, use correct ibrav instead

     R & G space division:  proc/nbgrp/npool/nimage =      32
     Subspace diagonalization in iterative solution of the eigenvalue problem:
     a serial algorithm will be used


     Parallelization info
     --------------------
     sticks:   dense  smooth     PW     G-vecs:    dense   smooth      PW
     Min          22      22      6                 1442     1442     220
     Max          23      23      7                 1450     1450     233
     Sum         721     721    211                46261    46261    7175

     Using Slab Decomposition



     bravais-lattice index     =            0
     lattice parameter (alat)  =       6.3200  a.u.
     unit-cell volume          =     653.6869 (a.u.)^3
     number of atoms/cell      =            3
     number of atomic types    =            3
     number of electrons       =        26.00
     number of Kohn-Sham states=           26
     kinetic-energy cutoff     =      65.0000  Ry
     charge density cutoff     =     260.0000  Ry
     scf convergence threshold =      1.0E-08
     mixing beta               =       0.7000
     number of iterations used =            8  plain     mixing
     energy convergence thresh.=      1.0E-05
     force convergence thresh. =      1.0E-04
     Exchange-correlation= SLA  PW   PBX  PBC
                           (   1   4   3   4   0   0   0)
     nstep                     =           50


     celldm(1)=   6.320045  celldm(2)=   0.000000  celldm(3)=   0.000000
     celldm(4)=   0.000000  celldm(5)=   0.000000  celldm(6)=   0.000000

     crystal axes: (cart. coord. in units of alat)
               a(1) = (   1.000000   0.000000   0.000000 )  
               a(2) = (  -0.500000   0.866025   0.000000 )  
               a(3) = (   0.000000   0.000000   2.990052 )  

     reciprocal axes: (cart. coord. in units 2 pi/alat)
               b(1) = (  1.000000  0.577350 -0.000000 )  
               b(2) = (  0.000000  1.154701  0.000000 )  
               b(3) = (  0.000000 -0.000000  0.334442 )  


     PseudoPot. # 1 for Zr read from file:
     /mgpfs/home/rabdillah/repo/qe/pseudo/Zr.pbe-spn-kjpaw_psl.1.0.0.UPF
     MD5 check sum: 02112c41713a0468aff2bb39ef194e36
     Pseudo is Projector augmented-wave + core cor, Zval = 12.0
     Generated using &quot;atomic&quot; code by A. Dal Corso  v.6.2.2
     Shape of augmentation charge: PSQ
     Using radial grid of 1225 points,  6 beta functions with: 
                l(1) =   0
                l(2) =   0
                l(3) =   1
                l(4) =   1
                l(5) =   2
                l(6) =   2
     Q(r) pseudized with 0 coefficients 


     PseudoPot. # 2 for F  read from file:
     /mgpfs/home/rabdillah/repo/qe/pseudo/F.pbe-n-kjpaw_psl.1.0.0.UPF
     MD5 check sum: 66d718ea72839a4268ab2a9540e8cdd4
     Pseudo is Projector augmented-wave + core cor, Zval =  7.0
     Generated using &quot;atomic&quot; code by A. Dal Corso  v.6.3
     Shape of augmentation charge: PSQ
     Using radial grid of 1105 points,  4 beta functions with: 
                l(1) =   0
                l(2) =   0
                l(3) =   1
                l(4) =   1
     Q(r) pseudized with 0 coefficients 


     PseudoPot. # 3 for Br read from file:
     /mgpfs/home/rabdillah/repo/qe/pseudo/Br.pbe-n-kjpaw_psl.1.0.0.UPF
     MD5 check sum: b00de77caabc69c0a6b76eb37264f235
     Pseudo is Projector augmented-wave + core cor, Zval =  7.0
     Generated using &quot;atomic&quot; code by A. Dal Corso  v.6.3
     Shape of augmentation charge: PSQ
     Using radial grid of 1213 points,  4 beta functions with: 
                l(1) =   0
                l(2) =   0
                l(3) =   1
                l(4) =   1
     Q(r) pseudized with 0 coefficients 


     atomic species   valence    mass     pseudopotential
        Zr            12.00    91.22400     Zr( 1.00)
        F              7.00    18.99800     F ( 1.00)
        Br             7.00    79.90400     Br( 1.00)

      6 Sym. Ops. (no inversion) found



   Cartesian axes

     site n.     atom                  positions (alat units)
         1           Zr  tau(   1) = (   0.0000000   0.0000000   3.0210788  )
         2           F   tau(   2) = (  -0.0000000   0.5773503   3.4105834  )
         3           Br  tau(   3) = (  -0.0000000   0.5773503   2.4542273  )

     number of k points=    30
                       cart. coord. in units 2pi/alat
        k(    1) = (   0.0000000   0.0000000   0.0000000), wk =   0.0078125
        k(    2) = (   0.0000000   0.0721688   0.0000000), wk =   0.0468750
        k(    3) = (   0.0000000   0.1443376   0.0000000), wk =   0.0468750
        k(    4) = (   0.0000000   0.2165064   0.0000000), wk =   0.0468750
        k(    5) = (   0.0000000   0.2886751   0.0000000), wk =   0.0468750
        k(    6) = (   0.0000000   0.3608439   0.0000000), wk =   0.0468750
        k(    7) = (   0.0000000   0.4330127   0.0000000), wk =   0.0468750
        k(    8) = (   0.0000000   0.5051815   0.0000000), wk =   0.0468750
        k(    9) = (   0.0000000  -0.5773503   0.0000000), wk =   0.0234375
        k(   10) = (   0.0625000   0.1082532   0.0000000), wk =   0.0468750
        k(   11) = (   0.0625000   0.1804220   0.0000000), wk =   0.0937500
        k(   12) = (   0.0625000   0.2525907   0.0000000), wk =   0.0937500
        k(   13) = (   0.0625000   0.3247595   0.0000000), wk =   0.0937500
        k(   14) = (   0.0625000   0.3969283   0.0000000), wk =   0.0937500
        k(   15) = (   0.0625000   0.4690971   0.0000000), wk =   0.0937500
        k(   16) = (   0.0625000   0.5412659   0.0000000), wk =   0.0937500
        k(   17) = (   0.1250000   0.2165064   0.0000000), wk =   0.0468750
        k(   18) = (   0.1250000   0.2886751   0.0000000), wk =   0.0937500
        k(   19) = (   0.1250000   0.3608439   0.0000000), wk =   0.0937500
        k(   20) = (   0.1250000   0.4330127   0.0000000), wk =   0.0937500
        k(   21) = (   0.1250000   0.5051815   0.0000000), wk =   0.0937500
        k(   22) = (   0.1250000   0.5773503   0.0000000), wk =   0.0468750
        k(   23) = (   0.1875000   0.3247595   0.0000000), wk =   0.0468750
        k(   24) = (   0.1875000   0.3969283   0.0000000), wk =   0.0937500
        k(   25) = (   0.1875000   0.4690971   0.0000000), wk =   0.0937500
        k(   26) = (   0.1875000   0.5412659   0.0000000), wk =   0.0937500
        k(   27) = (   0.2500000   0.4330127   0.0000000), wk =   0.0468750
        k(   28) = (   0.2500000   0.5051815   0.0000000), wk =   0.0937500
        k(   29) = (   0.2500000   0.5773503   0.0000000), wk =   0.0468750
        k(   30) = (   0.3125000   0.5412659   0.0000000), wk =   0.0468750

     Dense  grid:    46261 G-vectors     FFT dimensions: (  36,  36, 100)

     Estimated max dynamical RAM per process >      11.37 MB

     Estimated total dynamical RAM >     363.86 MB

     Check: negative core charge=   -0.000002

     Initial potential from superposition of free atoms

     starting charge      25.9978, renormalised to      26.0000

     negative rho (up, down):  4.247E-07 0.000E+00
     Starting wfcs are   21 randomized atomic wfcs +    5 random wfcs
     Checking if some PAW data can be deallocated... 

     total cpu time spent up to now is        0.6 secs

     Self-consistent Calculation

     iteration #  1     ecut=    65.00 Ry     beta= 0.70
     Davidson diagonalization with overlap
     ethr =  1.00E-02,  avg # of iterations =  5.7

     Threshold (ethr) on eigenvalues was too large:
     Diagonalizing with lowered threshold

     Davidson diagonalization with overlap
     ethr =  9.55E-04,  avg # of iterations =  1.0

     negative rho (up, down):  2.557E-05 0.000E+00

     total cpu time spent up to now is        2.1 secs

     total energy              =    -571.11627181 Ry
     estimated scf accuracy    <       0.24989770 Ry

     iteration #  2     ecut=    65.00 Ry     beta= 0.70
     Davidson diagonalization with overlap
     ethr =  9.61E-04,  avg # of iterations =  3.7

     negative rho (up, down):  1.658E-06 0.000E+00

     total cpu time spent up to now is        2.9 secs

     total energy              =    -571.10616874 Ry
     estimated scf accuracy    <       0.59955617 Ry

     iteration #  3     ecut=    65.00 Ry     beta= 0.70
     Davidson diagonalization with overlap
     ethr =  9.61E-04,  avg # of iterations =  2.3

     negative rho (up, down):  4.623E-06 0.000E+00

     total cpu time spent up to now is        3.5 secs

     total energy              =    -571.22897434 Ry
     estimated scf accuracy    <       0.02409661 Ry

     iteration #  4     ecut=    65.00 Ry     beta= 0.70
     Davidson diagonalization with overlap
     ethr =  9.27E-05,  avg # of iterations =  3.3

     negative rho (up, down):  1.322E-05 0.000E+00

     total cpu time spent up to now is        4.2 secs

     total energy              =    -571.23363900 Ry
     estimated scf accuracy    <       0.00357025 Ry

     iteration #  5     ecut=    65.00 Ry     beta= 0.70
     Davidson diagonalization with overlap
     ethr =  1.37E-05,  avg # of iterations =  4.9

     negative rho (up, down):  2.431E-05 0.000E+00

     total cpu time spent up to now is        4.9 secs

     total energy              =    -571.23434985 Ry
     estimated scf accuracy    <       0.00125548 Ry

     iteration #  6     ecut=    65.00 Ry     beta= 0.70
     Davidson diagonalization with overlap
     ethr =  4.83E-06,  avg # of iterations =  2.1

     negative rho (up, down):  2.859E-05 0.000E+00

     total cpu time spent up to now is        5.5 secs

     total energy              =    -571.23459648 Ry
     estimated scf accuracy    <       0.00001551 Ry

     iteration #  7     ecut=    65.00 Ry     beta= 0.70
     Davidson diagonalization with overlap
     ethr =  5.97E-08,  avg # of iterations =  2.1

     negative rho (up, down):  2.983E-05 0.000E+00

     total cpu time spent up to now is        6.1 secs

     total energy              =    -571.23460097 Ry
     estimated scf accuracy    <       0.00000058 Ry

     iteration #  8     ecut=    65.00 Ry     beta= 0.70
     Davidson diagonalization with overlap
     ethr =  2.24E-09,  avg # of iterations =  2.9

     negative rho (up, down):  3.013E-05 0.000E+00

     total cpu time spent up to now is        6.8 secs

     total energy              =    -571.23460114 Ry
     estimated scf accuracy    <       0.00000002 Ry

     iteration #  9     ecut=    65.00 Ry     beta= 0.70
     Davidson diagonalization with overlap
     ethr =  8.13E-11,  avg # of iterations =  2.0

     negative rho (up, down):  3.016E-05 0.000E+00

     total cpu time spent up to now is        7.4 secs

     End of self-consistent calculation

          k = 0.0000 0.0000 0.0000 (  5755 PWs)   bands (ev):

   -45.3780 -23.8601 -23.0878 -23.0878 -20.6736 -12.9858  -3.1596  -2.4725
    -2.4725  -1.1361   1.3971   1.3971   3.7865   5.8368   5.8368   5.9213
     6.8129   6.8129   7.9438   8.8000  11.1552  14.0113  14.7207  14.7207
    15.3276  17.2567

          k = 0.0000 0.0722 0.0000 (  5746 PWs)   bands (ev):

   -45.3757 -23.8514 -23.1193 -23.0927 -20.6650 -12.9574  -3.1254  -2.5092
    -2.4722  -1.1135   1.1708   1.3561   3.8030   5.7713   5.8812   6.0178
     6.7642   6.8641   8.0713   9.0221  11.2929  14.0723  14.3347  14.8556
    15.2028  17.4767

          k = 0.0000 0.1443 0.0000 (  5754 PWs)   bands (ev):

   -45.3692 -23.8271 -23.2058 -23.1065 -20.6431 -12.8750  -3.0339  -2.6024
    -2.4727  -1.0592   0.6019   1.2432   3.8233   5.6691   6.0220   6.1191
     6.8396   6.9980   8.4132   9.4997  11.6902  13.6518  14.0783  15.0443
    15.2565  17.6500

          k = 0.0000 0.2165 0.0000 (  5770 PWs)   bands (ev):

   -45.3595 -23.7923 -23.3267 -23.1270 -20.6172 -12.7467  -2.9250  -2.7064
    -2.4763  -1.0060  -0.1070   1.0848   3.7885   5.6407   6.1718   6.2695
     7.1538   7.1738   8.8839   9.9874  12.0682  13.2852  13.7133  15.4088
    15.9083  17.3231

          k = 0.0000 0.2887 0.0000 (  5784 PWs)   bands (ev):

   -45.3479 -23.7588 -23.4528 -23.1512 -20.5954 -12.5869  -2.9229  -2.7057
    -2.4850  -1.1018  -0.6767   0.9120   3.6845   5.7311   6.3277   6.6137
     7.3589   7.5760   9.3689  10.3891  11.9223  12.9518  14.1909  15.9186
    16.4822  16.7031

          k = 0.0000 0.3608 0.0000 (  5812 PWs)   bands (ev):

   -45.3364 -23.7541 -23.5417 -23.1751 -20.5819 -12.4165  -3.0181  -2.6268
    -2.4983  -1.6267  -0.7353   0.7523   3.5642   5.9003   6.5902   6.9998
     7.5543   8.0734   9.7245  10.6688  11.7977  12.6335  14.8066  15.2754
    16.3909  16.4572

          k = 0.0000 0.4330 0.0000 (  5808 PWs)   bands (ev):

   -45.3266 -23.8008 -23.5604 -23.1953 -20.5762 -12.2624  -3.1114  -2.5830
    -2.5128  -2.1093  -0.6856   0.6259   3.4776   6.1113   6.8168   7.2993
     7.8130   8.6643   9.8745  10.8760  11.9105  12.5641  13.7908  15.1838
    15.6913  15.8768

          k = 0.0000 0.5052 0.0000 (  5790 PWs)   bands (ev):

   -45.3200 -23.8530 -23.5492 -23.2088 -20.5750 -12.1538  -3.1851  -2.6049
    -2.5241  -2.3723  -0.6431   0.5454   3.4354   6.3288   6.8740   7.4373
     8.0996   9.3106   9.9625  11.0375  11.9464  12.5086  13.1675  14.6236
    14.9798  15.4465

          k = 0.0000-0.5774 0.0000 (  5798 PWs)   bands (ev):

   -45.3177 -23.8732 -23.5429 -23.2135 -20.5750 -12.1145  -3.2160  -2.6452
    -2.5284  -2.4274  -0.6274   0.5179   3.4242   6.4490   6.8367   7.4742
     8.2255   9.6716  10.0150  11.1897  11.6133  12.4173  13.3307  14.1493
    14.7948  15.2743

          k = 0.0625 0.1083 0.0000 (  5748 PWs)   bands (ev):

   -45.3713 -23.8349 -23.1774 -23.1028 -20.6498 -12.9020  -3.0622  -2.5734
    -2.4733  -1.0752   0.7852   1.2681   3.8223   5.6853   5.9783   6.1174
     6.7681   6.9682   8.3058   9.3654  11.5689  13.8182  14.1208  14.9545
    15.2165  17.5803

          k = 0.0625 0.1804 0.0000 (  5758 PWs)   bands (ev):

   -45.3632 -23.8051 -23.2790 -23.1222 -20.6260 -12.7966  -2.9567  -2.6736
    -2.4782  -1.0200   0.1716   1.1064   3.8203   5.6034   6.1765   6.2042
     6.9412   7.1576   8.7131   9.8342  12.0557  13.2863  13.8112  15.1161
    15.7865  17.1763

          k = 0.0625 0.2526 0.0000 (  5779 PWs)   bands (ev):

   -45.3526 -23.7700 -23.4003 -23.1475 -20.6025 -12.6521  -2.8831  -2.7380
    -2.4888  -1.0035  -0.4796   0.9113   3.7602   5.6335   6.2485   6.5414
     7.2010   7.4486   9.1946  10.2804  12.1913  13.1155  13.6399  15.5873
    16.4780  16.7524

          k = 0.0625 0.3248 0.0000 (  5792 PWs)   bands (ev):

   -45.3410 -23.7474 -23.5078 -23.1747 -20.5853 -12.4862  -2.9562  -2.6655
    -2.5060  -1.3430  -0.7440   0.7176   3.6616   5.7922   6.4023   6.9250
     7.4303   7.8886   9.6289  10.6482  11.9426  12.7666  14.4516  15.5141
    16.1324  16.5532

          k = 0.0625 0.3969 0.0000 (  5799 PWs)   bands (ev):

   -45.3303 -23.7698 -23.5569 -23.1998 -20.5760 -12.3228  -3.0515  -2.5966
    -2.5292  -1.8663  -0.7120   0.5514   3.5754   6.0220   6.6182   7.2170
     7.6686   8.4758   9.8946  10.9102  11.9104  12.5807  14.3497  15.0486
    15.6919  16.4920

          k = 0.0625 0.4691 0.0000 (  5793 PWs)   bands (ev):

   -45.3221 -23.8240 -23.5533 -23.2190 -20.5728 -12.1900  -3.1311  -2.6062
    -2.5375  -2.2221  -0.6628   0.4310   3.5277   6.2626   6.7916   7.3613
     7.9022   9.1809  10.0201  11.0844  12.0256  12.6033  13.3475  14.7310
    15.1437  15.8312

          k = 0.0625 0.5413 0.0000 (  5785 PWs)   bands (ev):

   -45.3177 -23.8609 -23.5426 -23.2294 -20.5724 -12.1150  -3.1818  -2.6766
    -2.5318  -2.3538  -0.6332   0.3680   3.5115   6.4480   6.8363   7.4092
     8.0640   9.7823  10.1431  11.2215  11.7952  12.4539  13.2458  14.2311
    14.8280  15.2957

          k = 0.1250 0.2165 0.0000 (  5762 PWs)   bands (ev):

   -45.3542 -23.7744 -23.3776 -23.1500 -20.6051 -12.6747  -2.8612  -2.7538
    -2.4948  -0.9874  -0.3581   0.8660   3.8020   5.5622   6.2747   6.5327
     7.0897   7.4280   9.1342  10.2528  12.6166  12.8724  13.4063  15.3970
    16.4277  16.7189

          k = 0.1250 0.2887 0.0000 (  5772 PWs)   bands (ev):

   -45.3435 -23.7465 -23.4771 -23.1847 -20.5866 -12.5233  -2.8902  -2.7101
    -2.5213  -1.1407  -0.7280   0.5922   3.7661   5.6401   6.3848   6.8805
     7.3308   7.8219   9.5793  10.6843  12.4195  12.8932  13.5977  15.4001
    16.1930  16.6540

          k = 0.1250 0.3608 0.0000 (  5786 PWs)   bands (ev):

   -45.3329 -23.7462 -23.5422 -23.2201 -20.5742 -12.3625  -2.9778  -2.6236
    -2.5568  -1.6026  -0.7372   0.3389   3.7302   5.8556   6.5084   7.0984
     7.6135   8.4152   9.9462  11.0825  12.1828  12.6605  14.3910  14.7889
    15.4666  16.5046

          k = 0.1250 0.4330 0.0000 (  5797 PWs)   bands (ev):

   -45.3238 -23.7861 -23.5525 -23.2504 -20.5681 -12.2177  -3.0523  -2.6309
    -2.5531  -1.9916  -0.6900   0.1380   3.7148   6.1597   6.6189   7.2414
     7.7851   9.1853  10.1766  11.3743  12.1494  12.6289  13.7894  14.4764
    15.2472  16.3302

          k = 0.1250 0.5052 0.0000 (  5784 PWs)   bands (ev):

   -45.3177 -23.8284 -23.5414 -23.2708 -20.5660 -12.1161  -3.1033  -2.7165
    -2.5295  -2.1955  -0.6512   0.0089   3.7184   6.4353   6.7145   7.3238
     7.8342   9.9524  10.3594  11.5015  12.1232  12.5965  13.1552  14.2304
    14.8820  15.6359

          k = 0.1250 0.5774 0.0000 (  5794 PWs)   bands (ev):

   -45.3156 -23.8449 -23.5355 -23.2781 -20.5656 -12.0794  -3.1222  -2.7628
    -2.5237  -2.2481  -0.6367  -0.0357   3.7230   6.5289   6.7905   7.3271
     7.8437  10.1725  10.7163  11.6056  11.7067  12.4620  13.2905  14.0773
    14.8561  15.1262

          k = 0.1875 0.3248 0.0000 (  5784 PWs)   bands (ev):

   -45.3337 -23.7381 -23.5325 -23.2320 -20.5733 -12.3763  -2.9395  -2.6459
    -2.5656  -1.4742  -0.7514   0.2211   3.8079   5.7330   6.5571   6.9905
     7.6158   8.4001   9.9663  11.1505  12.5218  12.7423  13.8604  14.6757
    15.7945  16.2696

          k = 0.1875 0.3969 0.0000 (  5803 PWs)   bands (ev):

   -45.3247 -23.7586 -23.5480 -23.2797 -20.5644 -12.2328  -2.9933  -2.6534
    -2.5602  -1.7913  -0.7221  -0.1136   3.8718   5.9423   6.6796   7.0557
     7.7919   9.1917  10.2876  11.6063  12.4223  12.7286  13.9600  14.5144
    14.8678  15.9100

          k = 0.1875 0.4691 0.0000 (  5803 PWs)   bands (ev):

   -45.3177 -23.7909 -23.5392 -23.3183 -20.5596 -12.1173  -3.0370  -2.7263
    -2.5248  -2.0024  -0.6945  -0.3568   3.9380   6.2405   6.6785   7.2137
     7.7777  10.0458  10.5045  11.9031  12.3408  12.8419  13.4024  14.1259
    14.9314  15.7258

          k = 0.1875 0.5413 0.0000 (  5779 PWs)   bands (ev):

   -45.3139 -23.8118 -23.5296 -23.3398 -20.5578 -12.0525  -3.0618  -2.7847
    -2.5089  -2.0954  -0.6830  -0.4795   3.9814   6.4940   6.6649   7.3377
     7.6604  10.3807  11.0979  11.9424  12.1422  12.5902  13.3092  14.1801
    14.7378  15.3581

          k = 0.2500 0.4330 0.0000 (  5818 PWs)   bands (ev):

   -45.3177 -23.7734 -23.5376 -23.3406 -20.5570 -12.1177  -3.0156  -2.7223
    -2.5224  -1.8926  -0.7561  -0.4918   4.0398   6.0975   6.7313   7.1238
     7.7933  10.0691  10.5668  11.9578  12.4714  13.0853  13.7077  14.2053
    14.6672  15.2312

          k = 0.2500 0.5052 0.0000 (  5783 PWs)   bands (ev):

   -45.3131 -23.7816 -23.5261 -23.3870 -20.5526 -12.0380  -3.0487  -2.7527
    -2.4954  -1.9279  -0.9465  -0.6032   4.1758   6.3188   6.6484   7.2956
     7.6565  10.4926  11.1169  11.9136  12.7658  13.2442  13.4113  14.0077
    14.6419  15.2094

          k = 0.2500 0.5774 0.0000 (  5778 PWs)   bands (ev):

   -45.3114 -23.7838 -23.5216 -23.4045 -20.5512 -12.0094  -3.0659  -2.7568
    -2.4858  -1.9326  -1.0516  -0.6121   4.2281   6.4657   6.5908   7.3441
     7.5804  10.4682  11.8350  12.0623  12.1074  13.2058  13.6158  14.0649
    14.6573  15.2872

          k = 0.3125 0.5413 0.0000 (  5772 PWs)   bands (ev):

   -45.3105 -23.7683 -23.5190 -23.4328 -20.5487 -11.9942  -3.0780  -2.7278
    -2.4734  -1.7847  -1.3241  -0.6192   4.3361   6.4212   6.5750   7.2754
     7.6283  10.4675  11.8343  12.0173  12.8479  13.0551  13.8318  13.9812
    14.7626  15.3807

     highest occupied, lowest unoccupied level (ev):     4.3361    5.5622

!    total energy              =    -571.23460114 Ry
     total all-electron energy =    -12610.612012 Ry
     estimated scf accuracy    <          7.2E-10 Ry

     The total energy is the sum of the following terms:
     one-electron contribution =    -278.96698674 Ry
     hartree contribution      =     148.01211935 Ry
     xc contribution           =     -36.35570253 Ry
     ewald contribution        =      -7.06850511 Ry
     one-center paw contrib.   =    -396.85552612 Ry

     convergence has been achieved in   9 iterations

     negative rho (up, down):  3.016E-05 0.000E+00

     Forces acting on atoms (cartesian axes, Ry/au):

     atom    1 type  1   force =     0.00000000    0.00000000   -0.00097231
     atom    2 type  2   force =     0.00000000    0.00000000    0.00135758
     atom    3 type  3   force =     0.00000000    0.00000000   -0.00038527
     The non-local contrib.  to forces
     atom    1 type  1   force =     0.00000000   -0.00000000   -0.02428050
     atom    2 type  2   force =     0.00000000   -0.00000000   -0.99510712
     atom    3 type  3   force =     0.00000000    0.00000000    0.21089165
     The ionic contribution  to forces
     atom    1 type  1   force =    -0.00000001    0.00000001   -0.55908741
     atom    2 type  2   force =     0.00000001   -0.00000001   24.64460393
     atom    3 type  3   force =     0.00000000   -0.00000000  -24.08551652
     The local contribution  to forces
     atom    1 type  1   force =    -0.00000000    0.00000000    0.57823473
     atom    2 type  2   force =     0.00000027   -0.00000026  -23.65139588
     atom    3 type  3   force =    -0.00000000    0.00000000   23.87682717
     The core correction contribution to forces
     atom    1 type  1   force =    -0.00000000    0.00000000    0.00409323
     atom    2 type  2   force =     0.00000000   -0.00000000    0.00322152
     atom    3 type  3   force =    -0.00000000    0.00000000   -0.00257976
     The Hubbard contrib.    to forces
     atom    1 type  1   force =     0.00000000    0.00000000    0.00000000
     atom    2 type  2   force =     0.00000000    0.00000000    0.00000000
     atom    3 type  3   force =     0.00000000    0.00000000    0.00000000
     The SCF correction term to forces
     atom    1 type  1   force =    -0.00000000    0.00000000    0.00006302
     atom    2 type  2   force =     0.00000000   -0.00000000    0.00003049
     atom    3 type  3   force =     0.00000000   -0.00000000   -0.00001246

     Total force =     0.001714     Total SCF correction =     0.000071

     BFGS Geometry Optimization
     Energy error            =      0.0E+00 Ry
     Gradient error          =      1.4E-03 Ry/Bohr

     number of scf cycles    =   1
     number of bfgs steps    =   0

     energy             new  =    -571.2346011404 Ry

     new trust radius        =       0.0013575761 bohr
     new conv_thr            =       0.0000000100 Ry


ATOMIC_POSITIONS (angstrom)
Zr            0.0000000000        0.0000000000       10.1032526962
F            -0.0000000020        1.9309038816       11.4071542434
Br           -0.0000000020        1.9309038816        8.2077717735



     Writing config-only to output data dir ./tmp/ZrFBr.save/
     NEW-OLD atomic charge density approx. for the potential

     Check: negative core charge=   -0.000002

     negative rho (up, down):  3.042E-05 0.000E+00

     total cpu time spent up to now is        7.7 secs

     Self-consistent Calculation

     iteration #  1     ecut=    65.00 Ry     beta= 0.70
     Davidson diagonalization with overlap
     ethr =  1.00E-06,  avg # of iterations =  2.0

     Threshold (ethr) on eigenvalues was too large:
     Diagonalizing with lowered threshold

     Davidson diagonalization with overlap
     ethr =  9.85E-10,  avg # of iterations =  4.0

     negative rho (up, down):  3.020E-05 0.000E+00

     total cpu time spent up to now is        9.1 secs

     total energy              =    -571.23460345 Ry
     estimated scf accuracy    <       0.00000028 Ry

     iteration #  2     ecut=    65.00 Ry     beta= 0.70
     Davidson diagonalization with overlap
     ethr =  1.07E-09,  avg # of iterations =  2.0

     negative rho (up, down):  3.023E-05 0.000E+00

     total cpu time spent up to now is        9.7 secs

     total energy              =    -571.23460349 Ry
     estimated scf accuracy    <       0.00000010 Ry

     iteration #  3     ecut=    65.00 Ry     beta= 0.70
     Davidson diagonalization with overlap
     ethr =  3.86E-10,  avg # of iterations =  2.0

     negative rho (up, down):  3.022E-05 0.000E+00

     total cpu time spent up to now is       10.3 secs

     total energy              =    -571.23460352 Ry
     estimated scf accuracy    <       0.00000004 Ry

     iteration #  4     ecut=    65.00 Ry     beta= 0.70
     Davidson diagonalization with overlap
     ethr =  1.68E-10,  avg # of iterations =  2.0

     negative rho (up, down):  3.022E-05 0.000E+00

     total cpu time spent up to now is       10.9 secs

     End of self-consistent calculation

          k = 0.0000 0.0000 0.0000 (  5755 PWs)   bands (ev):

   -45.3799 -23.8609 -23.0898 -23.0898 -20.6704 -12.9886  -3.1572  -2.4669
    -2.4669  -1.1375   1.3937   1.3937   3.7828   5.8336   5.8336   5.9216
     6.8107   6.8107   7.9440   8.8002  11.1541  14.0121  14.7183  14.7183
    15.3282  17.2515

          k = 0.0000 0.0722 0.0000 (  5746 PWs)   bands (ev):

   -45.3777 -23.8522 -23.1212 -23.0946 -20.6618 -12.9602  -3.1229  -2.5037
    -2.4667  -1.1150   1.1674   1.3527   3.7994   5.7681   5.8780   6.0181
     6.7619   6.8618   8.0714   9.0224  11.2917  14.0729  14.3326  14.8532
    15.2031  17.4727

          k = 0.0000 0.1443 0.0000 (  5754 PWs)   bands (ev):

   -45.3712 -23.8279 -23.2075 -23.1084 -20.6401 -12.8778  -3.0312  -2.5971
    -2.4672  -1.0609   0.5986   1.2399   3.8199   5.6658   6.0189   6.1190
     6.8381   6.9956   8.4132   9.5003  11.6886  13.6501  14.0777  15.0449
    15.2540  17.6488

          k = 0.0000 0.2165 0.0000 (  5770 PWs)   bands (ev):

   -45.3614 -23.7930 -23.3283 -23.1290 -20.6143 -12.7496  -2.9218  -2.7017
    -2.4709  -1.0081  -0.1100   1.0815   3.7854   5.6378   6.1700   6.2668
     7.1536   7.1711   8.8837   9.9882  12.0665  13.2840  13.7115  15.4095
    15.9056  17.3220

          k = 0.0000 0.2887 0.0000 (  5784 PWs)   bands (ev):

   -45.3499 -23.7594 -23.4544 -23.1531 -20.5926 -12.5897  -2.9186  -2.7022
    -2.4798  -1.1047  -0.6790   0.9088   3.6816   5.7293   6.3242   6.6114
     7.3558   7.5768   9.3685  10.3897  11.9208  12.9511  14.1886  15.9191
    16.4831  16.7003

          k = 0.0000 0.3608 0.0000 (  5812 PWs)   bands (ev):

   -45.3384 -23.7545 -23.5435 -23.1770 -20.5792 -12.4194  -3.0139  -2.6235
    -2.4932  -1.6297  -0.7377   0.7491   3.5613   5.8995   6.5860   6.9983
     7.5507   8.0742   9.7235  10.6692  11.7969  12.6330  14.8063  15.2756
    16.3890  16.4560

          k = 0.0000 0.4330 0.0000 (  5808 PWs)   bands (ev):

   -45.3286 -23.8011 -23.5622 -23.1972 -20.5735 -12.2653  -3.1076  -2.5800
    -2.5079  -2.1116  -0.6882   0.6226   3.4747   6.1107   6.8136   7.2980
     7.8094   8.6638   9.8732  10.8758  11.9100  12.5640  13.7923  15.1836
    15.6901  15.8741

          k = 0.0000 0.5052 0.0000 (  5790 PWs)   bands (ev):

   -45.3220 -23.8533 -23.5510 -23.2107 -20.5723 -12.1567  -3.1818  -2.6033
    -2.5193  -2.3728  -0.6458   0.5422   3.4324   6.3280   6.8724   7.4356
     8.0967   9.3080   9.9616  11.0367  11.9463  12.5092  13.1682  14.6245
    14.9789  15.4432

          k = 0.0000-0.5774 0.0000 (  5798 PWs)   bands (ev):

   -45.3197 -23.8735 -23.5446 -23.2154 -20.5723 -12.1174  -3.2131  -2.6447
    -2.5236  -2.4265  -0.6301   0.5147   3.4212   6.4479   6.8358   7.4723
     8.2229   9.6678  10.0138  11.1890  11.6147  12.4172  13.3310  14.1501
    14.7947  15.2707

          k = 0.0625 0.1083 0.0000 (  5748 PWs)   bands (ev):

   -45.3733 -23.8357 -23.1792 -23.1048 -20.6467 -12.9048  -3.0596  -2.5680
    -2.4678  -1.0768   0.7819   1.2647   3.8188   5.6820   5.9752   6.1177
     6.7660   6.9659   8.3058   9.3659  11.5674  13.8163  14.1205  14.9539
    15.2151  17.5784

          k = 0.0625 0.1804 0.0000 (  5758 PWs)   bands (ev):

   -45.3652 -23.8059 -23.2807 -23.1241 -20.6231 -12.7994  -2.9538  -2.6685
    -2.4728  -1.0219   0.1684   1.1031   3.8171   5.6001   6.1754   6.2015
     6.9395   7.1560   8.7130   9.8349  12.0539  13.2846  13.8102  15.1162
    15.7844  17.1749

          k = 0.0625 0.2526 0.0000 (  5779 PWs)   bands (ev):

   -45.3545 -23.7707 -23.4019 -23.1494 -20.5997 -12.6550  -2.8793  -2.7340
    -2.4836  -1.0060  -0.4823   0.9080   3.7573   5.6308   6.2465   6.5388
     7.1984   7.4486   9.1944  10.2811  12.1897  13.1148  13.6376  15.5874
    16.4760  16.7512

          k = 0.0625 0.3248 0.0000 (  5792 PWs)   bands (ev):

   -45.3430 -23.7479 -23.5095 -23.1767 -20.5825 -12.4891  -2.9518  -2.6621
    -2.5009  -1.3460  -0.7463   0.7143   3.6587   5.7904   6.3992   6.9231
     7.4267   7.8895   9.6282  10.6487  11.9414  12.7659  14.4495  15.5145
    16.1321  16.5524

          k = 0.0625 0.3969 0.0000 (  5799 PWs)   bands (ev):

   -45.3323 -23.7701 -23.5587 -23.2018 -20.5733 -12.3256  -3.0474  -2.5934
    -2.5244  -1.8690  -0.7144   0.5482   3.5726   6.0212   6.6146   7.2155
     7.6651   8.4760   9.8932  10.9104  11.9097  12.5803  14.3508  15.0475
    15.6904  16.4902

          k = 0.0625 0.4691 0.0000 (  5793 PWs)   bands (ev):

   -45.3241 -23.8243 -23.5551 -23.2209 -20.5701 -12.1929  -3.1275  -2.6034
    -2.5333  -2.2233  -0.6655   0.4278   3.5248   6.2620   6.7890   7.3597
     7.8993   9.1796  10.0187  11.0839  12.0250  12.6035  13.3488  14.7306
    15.1425  15.8295

          k = 0.0625 0.5413 0.0000 (  5785 PWs)   bands (ev):

   -45.3197 -23.8612 -23.5443 -23.2313 -20.5697 -12.1179  -3.1787  -2.6752
    -2.5279  -2.3531  -0.6359   0.3648   3.5086   6.4470   6.8352   7.4074
     8.0611   9.7793  10.1420  11.2207  11.7960  12.4539  13.2461  14.2317
    14.8273  15.2934

          k = 0.1250 0.2165 0.0000 (  5762 PWs)   bands (ev):

   -45.3562 -23.7751 -23.3791 -23.1519 -20.6022 -12.6775  -2.8577  -2.7493
    -2.4896  -0.9898  -0.3610   0.8628   3.7991   5.5590   6.2735   6.5299
     7.0870   7.4278   9.1340  10.2536  12.6150  12.8705  13.4050  15.3970
    16.4258  16.7173

          k = 0.1250 0.2887 0.0000 (  5772 PWs)   bands (ev):

   -45.3455 -23.7471 -23.4787 -23.1866 -20.5839 -12.5261  -2.8856  -2.7067
    -2.5164  -1.1438  -0.7303   0.5890   3.7634   5.6371   6.3831   6.8785
     7.3268   7.8228   9.5788  10.6850  12.4182  12.8921  13.5955  15.3993
    16.1923  16.6547

          k = 0.1250 0.3608 0.0000 (  5786 PWs)   bands (ev):

   -45.3348 -23.7465 -23.5440 -23.2220 -20.5716 -12.3654  -2.9735  -2.6201
    -2.5524  -1.6054  -0.7396   0.3358   3.7276   5.8534   6.5061   7.0964
     7.6103   8.4156   9.9451  11.0829  12.1817  12.6598  14.3892  14.7878
    15.4671  16.5034

          k = 0.1250 0.4330 0.0000 (  5797 PWs)   bands (ev):

   -45.3258 -23.7863 -23.5543 -23.2523 -20.5654 -12.2206  -3.0483  -2.6271
    -2.5496  -1.9936  -0.6926   0.1349   3.7122   6.1584   6.6162   7.2393
     7.7829   9.1850  10.1748  11.3741  12.1484  12.6285  13.7899  14.4756
    15.2462  16.3285

          k = 0.1250 0.5052 0.0000 (  5784 PWs)   bands (ev):

   -45.3197 -23.8287 -23.5432 -23.2727 -20.5633 -12.1190  -3.0995  -2.7141
    -2.5261  -2.1959  -0.6539   0.0059   3.7157   6.4347   6.7122   7.3219
     7.8316   9.9510  10.3579  11.5007  12.1221  12.5968  13.1558  14.2303
    14.8815  15.6351

          k = 0.1250 0.5774 0.0000 (  5794 PWs)   bands (ev):

   -45.3176 -23.8452 -23.5372 -23.2799 -20.5630 -12.0823  -3.1186  -2.7610
    -2.5202  -2.2478  -0.6394  -0.0387   3.7203   6.5278   6.7893   7.3255
     7.8404  10.1701  10.7148  11.6043  11.7083  12.4608  13.2906  14.0782
    14.8553  15.1256

          k = 0.1875 0.3248 0.0000 (  5784 PWs)   bands (ev):

   -45.3357 -23.7385 -23.5342 -23.2338 -20.5706 -12.3792  -2.9350  -2.6422
    -2.5613  -1.4771  -0.7538   0.2181   3.8054   5.7300   6.5556   6.9881
     7.6128   8.4006   9.9653  11.1511  12.5216  12.7405  13.8583  14.6740
    15.7957  16.2693

          k = 0.1875 0.3969 0.0000 (  5803 PWs)   bands (ev):

   -45.3267 -23.7589 -23.5498 -23.2816 -20.5618 -12.2357  -2.9890  -2.6493
    -2.5570  -1.7937  -0.7247  -0.1166   3.8695   5.9397   6.6780   7.0529
     7.7901   9.1917  10.2859  11.6064  12.4219  12.7273  13.9582  14.5129
    14.8686  15.9107

          k = 0.1875 0.4691 0.0000 (  5803 PWs)   bands (ev):

   -45.3197 -23.7912 -23.5410 -23.3201 -20.5570 -12.1202  -3.0329  -2.7232
    -2.5214  -2.0040  -0.6973  -0.3596   3.9358   6.2387   6.6765   7.2111
     7.7761  10.0459  10.5023  11.9020  12.3399  12.8410  13.4030  14.1259
    14.9308  15.7266

          k = 0.1875 0.5413 0.0000 (  5779 PWs)   bands (ev):

   -45.3159 -23.8121 -23.5314 -23.3416 -20.5552 -12.0554  -3.0577  -2.7825
    -2.5056  -2.0961  -0.6860  -0.4823   3.9791   6.4931   6.6627   7.3356
     7.6579  10.3787  11.0974  11.9417  12.1411  12.5893  13.3095  14.1807
    14.7377  15.3582

          k = 0.2500 0.4330 0.0000 (  5818 PWs)   bands (ev):

   -45.3197 -23.7736 -23.5394 -23.3425 -20.5544 -12.1207  -3.0113  -2.7189
    -2.5191  -1.8946  -0.7589  -0.4945   4.0378   6.0951   6.7296   7.1209
     7.7920  10.0696  10.5644  11.9558  12.4720  13.0837  13.7065  14.2067
    14.6658  15.2323

          k = 0.2500 0.5052 0.0000 (  5783 PWs)   bands (ev):

   -45.3151 -23.7819 -23.5279 -23.3888 -20.5501 -12.0409  -3.0445  -2.7497
    -2.4921  -1.9297  -0.9494  -0.6060   4.1739   6.3172   6.6463   7.2923
     7.6553  10.4910  11.1169  11.9108  12.7663  13.2441  13.4104  14.0082
    14.6418  15.2098

          k = 0.2500 0.5774 0.0000 (  5778 PWs)   bands (ev):

   -45.3134 -23.7840 -23.5233 -23.4063 -20.5487 -12.0124  -3.0618  -2.7538
    -2.4825  -1.9342  -1.0544  -0.6149   4.2263   6.4649   6.5883   7.3397
     7.5797  10.4660  11.8327  12.0631  12.1080  13.2045  13.6157  14.0651
    14.6576  15.2866

          k = 0.3125 0.5413 0.0000 (  5772 PWs)   bands (ev):

   -45.3125 -23.7685 -23.5207 -23.4346 -20.5462 -11.9972  -3.0739  -2.7243
    -2.4701  -1.7870  -1.3267  -0.6220   4.3345   6.4204   6.5727   7.2704
     7.6278  10.4652  11.8314  12.0186  12.8491  13.0566  13.8298  13.9802
    14.7621  15.3814

     highest occupied, lowest unoccupied level (ev):     4.3345    5.5590

!    total energy              =    -571.23460353 Ry
     total all-electron energy =    -12610.612015 Ry
     estimated scf accuracy    <          1.2E-09 Ry

     The total energy is the sum of the following terms:
     one-electron contribution =    -278.87965248 Ry
     hartree contribution      =     147.96767884 Ry
     xc contribution           =     -36.35532424 Ry
     ewald contribution        =      -7.11178495 Ry
     one-center paw contrib.   =    -396.85552070 Ry

     convergence has been achieved in   4 iterations

     negative rho (up, down):  3.022E-05 0.000E+00

     Forces acting on atoms (cartesian axes, Ry/au):

     atom    1 type  1   force =     0.00000000    0.00000000   -0.00040287
     atom    2 type  2   force =     0.00000000    0.00000000    0.00091692
     atom    3 type  3   force =     0.00000000   -0.00000000   -0.00051406
     The non-local contrib.  to forces
     atom    1 type  1   force =     0.00000000   -0.00000000   -0.02441802
     atom    2 type  2   force =     0.00000000   -0.00000000   -0.99660123
     atom    3 type  3   force =     0.00000000    0.00000000    0.21090427
     The ionic contribution  to forces
     atom    1 type  1   force =    -0.00000001    0.00000001   -0.56082003
     atom    2 type  2   force =     0.00000001   -0.00000001   24.64386425
     atom    3 type  3   force =     0.00000000   -0.00000000  -24.08304423
     The local contribution  to forces
     atom    1 type  1   force =    -0.00000000    0.00000000    0.58082239
     atom    2 type  2   force =     0.00000027   -0.00000026  -23.64957250
     atom    3 type  3   force =    -0.00000000    0.00000000   23.87421782
     The core correction contribution to forces
     atom    1 type  1   force =    -0.00000000    0.00000000    0.00410563
     atom    2 type  2   force =     0.00000000   -0.00000000    0.00322833
     atom    3 type  3   force =    -0.00000000    0.00000000   -0.00257595
     The Hubbard contrib.    to forces
     atom    1 type  1   force =     0.00000000    0.00000000    0.00000000
     atom    2 type  2   force =     0.00000000    0.00000000    0.00000000
     atom    3 type  3   force =     0.00000000    0.00000000    0.00000000
     The SCF correction term to forces
     atom    1 type  1   force =    -0.00000000    0.00000000   -0.00008196
     atom    2 type  2   force =     0.00000000   -0.00000000    0.00000895
     atom    3 type  3   force =     0.00000000   -0.00000000   -0.00000508

     Total force =     0.001126     Total SCF correction =     0.000083
     Energy error            =      2.4E-06 Ry
     Gradient error          =      9.2E-04 Ry/Bohr

     number of scf cycles    =   2
     number of bfgs steps    =   1

     energy             old  =    -571.2346011404 Ry
     energy             new  =    -571.2346035288 Ry

     CASE: energy            _new < energy            _old

     new trust radius        =       0.0014933337 bohr
     new conv_thr            =            1.0E-10 Ry


ATOMIC_POSITIONS (angstrom)
Zr            0.0000000000        0.0000000000       10.1028748390
F            -0.0000000020        1.9309038816       11.4079444815
Br           -0.0000000020        1.9309038816        8.2073593924



     Writing config-only to output data dir ./tmp/ZrFBr.save/
     NEW-OLD atomic charge density approx. for the potential

     Check: negative core charge=   -0.000002

     negative rho (up, down):  3.040E-05 0.000E+00

     total cpu time spent up to now is       11.2 secs

     Self-consistent Calculation

     iteration #  1     ecut=    65.00 Ry     beta= 0.70
     Davidson diagonalization with overlap
     ethr =  1.00E-06,  avg # of iterations =  2.0

     Threshold (ethr) on eigenvalues was too large:
     Diagonalizing with lowered threshold

     Davidson diagonalization with overlap
     ethr =  1.04E-09,  avg # of iterations =  4.0

     negative rho (up, down):  3.023E-05 0.000E+00

     total cpu time spent up to now is       12.6 secs

     total energy              =    -571.23460507 Ry
     estimated scf accuracy    <       0.00000031 Ry

     iteration #  2     ecut=    65.00 Ry     beta= 0.70
     Davidson diagonalization with overlap
     ethr =  1.20E-09,  avg # of iterations =  2.0

     negative rho (up, down):  3.027E-05 0.000E+00

     total cpu time spent up to now is       13.2 secs

     total energy              =    -571.23460508 Ry
     estimated scf accuracy    <       0.00000034 Ry

     iteration #  3     ecut=    65.00 Ry     beta= 0.70
     Davidson diagonalization with overlap
     ethr =  1.20E-09,  avg # of iterations =  2.0

     negative rho (up, down):  3.027E-05 0.000E+00

     total cpu time spent up to now is       13.8 secs

     total energy              =    -571.23460517 Ry
     estimated scf accuracy    <       0.00000007 Ry

     iteration #  4     ecut=    65.00 Ry     beta= 0.70
     Davidson diagonalization with overlap
     ethr =  2.65E-10,  avg # of iterations =  1.0

     negative rho (up, down):  3.027E-05 0.000E+00

     total cpu time spent up to now is       14.3 secs

     total energy              =    -571.23460518 Ry
     estimated scf accuracy    <          9.7E-09 Ry

     iteration #  5     ecut=    65.00 Ry     beta= 0.70
     Davidson diagonalization with overlap
     ethr =  3.75E-11,  avg # of iterations =  1.9

     negative rho (up, down):  3.027E-05 0.000E+00

     total cpu time spent up to now is       14.9 secs

     total energy              =    -571.23460518 Ry
     estimated scf accuracy    <          8.2E-10 Ry

     iteration #  6     ecut=    65.00 Ry     beta= 0.70
     Davidson diagonalization with overlap
     ethr =  3.16E-12,  avg # of iterations =  2.0

     negative rho (up, down):  3.027E-05 0.000E+00

     total cpu time spent up to now is       15.5 secs

     End of self-consistent calculation

          k = 0.0000 0.0000 0.0000 (  5755 PWs)   bands (ev):

   -45.3823 -23.8620 -23.0920 -23.0920 -20.6678 -12.9908  -3.1549  -2.4620
    -2.4620  -1.1390   1.3916   1.3916   3.7787   5.8300   5.8300   5.9217
     6.8083   6.8083   7.9442   8.8004  11.1533  14.0134  14.7160  14.7160
    15.3265  17.2468

          k = 0.0000 0.0722 0.0000 (  5746 PWs)   bands (ev):

   -45.3800 -23.8534 -23.1234 -23.0969 -20.6593 -12.9624  -3.1206  -2.4989
    -2.4618  -1.1165   1.1653   1.3505   3.7954   5.7646   5.8744   6.0182
     6.7596   6.8594   8.0716   9.0227  11.2907  14.0739  14.3303  14.8509
    15.2015  17.4691

          k = 0.0000 0.1443 0.0000 (  5754 PWs)   bands (ev):

   -45.3735 -23.8290 -23.2096 -23.1107 -20.6377 -12.8800  -3.0288  -2.5925
    -2.4624  -1.0625   0.5965   1.2378   3.8162   5.6621   6.0156   6.1186
     6.8365   6.9931   8.4131   9.5008  11.6872  13.6481  14.0770  15.0445
    15.2516  17.6472

          k = 0.0000 0.2165 0.0000 (  5770 PWs)   bands (ev):

   -45.3638 -23.7942 -23.3303 -23.1312 -20.6120 -12.7517  -2.9190  -2.6976
    -2.4663  -1.0100  -0.1121   1.0794   3.7821   5.6344   6.1682   6.2637
     7.1532   7.1682   8.8834   9.9888  12.0648  13.2825  13.7097  15.4100
    15.9031  17.3204

          k = 0.0000 0.2887 0.0000 (  5784 PWs)   bands (ev):

   -45.3523 -23.7605 -23.4563 -23.1553 -20.5904 -12.5919  -2.9148  -2.6992
    -2.4753  -1.1070  -0.6810   0.9067   3.6786   5.7268   6.3209   6.6089
     7.3525   7.5770   9.3677  10.3902  11.9193  12.9498  14.1868  15.9193
    16.4838  16.6980

          k = 0.0000 0.3608 0.0000 (  5812 PWs)   bands (ev):

   -45.3408 -23.7553 -23.5455 -23.1793 -20.5771 -12.4215  -3.0102  -2.6208
    -2.4888  -1.6318  -0.7398   0.7470   3.5584   5.8979   6.5820   6.9963
     7.5469   8.0743   9.7220  10.6694  11.7960  12.6319  14.8060  15.2759
    16.3869  16.4545

          k = 0.0000 0.4330 0.0000 (  5808 PWs)   bands (ev):

   -45.3310 -23.8018 -23.5643 -23.1995 -20.5714 -12.2675  -3.1042  -2.5775
    -2.5036  -2.1133  -0.6905   0.6205   3.4718   6.1094   6.8103   7.2961
     7.8058   8.6627   9.8715  10.8755  11.9092  12.5635  13.7934  15.1835
    15.6886  15.8714

          k = 0.0000 0.5052 0.0000 (  5790 PWs)   bands (ev):

   -45.3244 -23.8539 -23.5531 -23.2129 -20.5702 -12.1589  -3.1789  -2.6019
    -2.5151  -2.3730  -0.6482   0.5401   3.4294   6.3264   6.8703   7.4333
     8.0937   9.3049   9.9606  11.0357  11.9458  12.5096  13.1687  14.6251
    14.9777  15.4400

          k = 0.0000-0.5774 0.0000 (  5798 PWs)   bands (ev):

   -45.3221 -23.8742 -23.5467 -23.2176 -20.5703 -12.1196  -3.2105  -2.6443
    -2.5194  -2.4255  -0.6324   0.5126   3.4182   6.4459   6.8346   7.4698
     8.2201   9.6637  10.0126  11.1878  11.6160  12.4167  13.3314  14.1504
    14.7945  15.2673

          k = 0.0625 0.1083 0.0000 (  5748 PWs)   bands (ev):

   -45.3756 -23.8368 -23.1813 -23.1070 -20.6442 -12.9070  -3.0572  -2.5634
    -2.4630  -1.0784   0.7798   1.2626   3.8150   5.6783   5.9718   6.1176
     6.7639   6.9636   8.3058   9.3663  11.5661  13.8143  14.1205  14.9524
    15.2133  17.5763

          k = 0.0625 0.1804 0.0000 (  5758 PWs)   bands (ev):

   -45.3675 -23.8071 -23.2826 -23.1263 -20.6208 -12.8016  -2.9512  -2.6642
    -2.4682  -1.0237   0.1663   1.1010   3.8137   5.5964   6.1741   6.1987
     6.9378   7.1541   8.7127   9.8355  12.0523  13.2826  13.8088  15.1162
    15.7824  17.1734

          k = 0.0625 0.2526 0.0000 (  5779 PWs)   bands (ev):

   -45.3569 -23.7718 -23.4038 -23.1516 -20.5975 -12.6571  -2.8758  -2.7305
    -2.4791  -1.0080  -0.4843   0.9059   3.7543   5.6274   6.2444   6.5359
     7.1956   7.4482   9.1938  10.2817  12.1879  13.1134  13.6357  15.5876
    16.4742  16.7498

          k = 0.0625 0.3248 0.0000 (  5792 PWs)   bands (ev):

   -45.3454 -23.7488 -23.5114 -23.1789 -20.5804 -12.4913  -2.9479  -2.6593
    -2.4966  -1.3482  -0.7483   0.7122   3.6559   5.7880   6.3960   6.9208
     7.4230   7.8897   9.6270  10.6491  11.9402  12.7647  14.4478  15.5146
    16.1317  16.5517

          k = 0.0625 0.3969 0.0000 (  5799 PWs)   bands (ev):

   -45.3347 -23.7708 -23.5608 -23.2040 -20.5712 -12.3278  -3.0438  -2.5906
    -2.5203  -1.8709  -0.7167   0.5461   3.5697   6.0197   6.6110   7.2136
     7.6615   8.4755   9.8913  10.9104  11.9088  12.5795  14.3516  15.0466
    15.6888  16.4881

          k = 0.0625 0.4691 0.0000 (  5793 PWs)   bands (ev):

   -45.3265 -23.8250 -23.5572 -23.2231 -20.5681 -12.1950  -3.1243  -2.6009
    -2.5298  -2.2241  -0.6678   0.4257   3.5219   6.2606   6.7862   7.3575
     7.8961   9.1779  10.0171  11.0832  12.0241  12.6035  13.3497  14.7299
    15.1414  15.8275

          k = 0.0625 0.5413 0.0000 (  5785 PWs)   bands (ev):

   -45.3221 -23.8618 -23.5464 -23.2335 -20.5676 -12.1200  -3.1759  -2.6739
    -2.5245  -2.3523  -0.6382   0.3627   3.5057   6.4451   6.8336   7.4050
     8.0580   9.7759  10.1407  11.2196  11.7965  12.4535  13.2464  14.2319
    14.8265  15.2911

          k = 0.1250 0.2165 0.0000 (  5762 PWs)   bands (ev):

   -45.3585 -23.7763 -23.3810 -23.1541 -20.6000 -12.6797  -2.8547  -2.7454
    -2.4851  -0.9918  -0.3631   0.8607   3.7961   5.5552   6.2720   6.5269
     7.0841   7.4272   9.1334  10.2542  12.6134  12.8684  13.4034  15.3971
    16.4240  16.7157

          k = 0.1250 0.2887 0.0000 (  5772 PWs)   bands (ev):

   -45.3479 -23.7481 -23.4806 -23.1888 -20.5817 -12.5283  -2.8817  -2.7038
    -2.5122  -1.1460  -0.7323   0.5869   3.7606   5.6336   6.3811   6.8762
     7.3229   7.8230   9.5778  10.6857  12.4168  12.8905  13.5936  15.3984
    16.1916  16.6552

          k = 0.1250 0.3608 0.0000 (  5786 PWs)   bands (ev):

   -45.3372 -23.7473 -23.5461 -23.2241 -20.5695 -12.3675  -2.9697  -2.6170
    -2.5485  -1.6075  -0.7418   0.3337   3.7250   5.8505   6.5036   7.0941
     7.6070   8.4155   9.9434  11.0834  12.1806  12.6587  14.3877  14.7865
    15.4672  16.5023

          k = 0.1250 0.4330 0.0000 (  5797 PWs)   bands (ev):

   -45.3282 -23.7870 -23.5564 -23.2544 -20.5634 -12.2228  -3.0448  -2.6238
    -2.5467  -1.9950  -0.6949   0.1328   3.7095   6.1564   6.6132   7.2367
     7.7802   9.1843  10.1726  11.3740  12.1472  12.6280  13.7902  14.4747
    15.2452  16.3264

          k = 0.1250 0.5052 0.0000 (  5784 PWs)   bands (ev):

   -45.3221 -23.8293 -23.5452 -23.2749 -20.5613 -12.1212  -3.0963  -2.7119
    -2.5232  -2.1961  -0.6563   0.0038   3.7130   6.4332   6.7096   7.3195
     7.8285   9.9493  10.3561  11.4999  12.1207  12.5968  13.1563  14.2298
    14.8809  15.6340

          k = 0.1250 0.5774 0.0000 (  5794 PWs)   bands (ev):

   -45.3199 -23.8458 -23.5393 -23.2821 -20.5609 -12.0845  -3.1156  -2.7594
    -2.5173  -2.2474  -0.6418  -0.0408   3.7176   6.5258   6.7878   7.3232
     7.8368  10.1676  10.7129  11.6028  11.7096  12.4593  13.2908  14.0786
    14.8543  15.1248

          k = 0.1875 0.3248 0.0000 (  5784 PWs)   bands (ev):

   -45.3381 -23.7393 -23.5363 -23.2360 -20.5686 -12.3814  -2.9312  -2.6389
    -2.5577  -1.4792  -0.7559   0.2160   3.8029   5.7265   6.5537   6.9855
     7.6095   8.4006   9.9636  11.1517  12.5209  12.7387  13.8563  14.6720
    15.7965  16.2691

          k = 0.1875 0.3969 0.0000 (  5803 PWs)   bands (ev):

   -45.3290 -23.7595 -23.5519 -23.2837 -20.5598 -12.2378  -2.9853  -2.6457
    -2.5542  -1.7954  -0.7269  -0.1187   3.8672   5.9366   6.6758   7.0500
     7.7878   9.1915  10.2835  11.6066  12.4212  12.7259  13.9562  14.5113
    14.8692  15.9112

          k = 0.1875 0.4691 0.0000 (  5803 PWs)   bands (ev):

   -45.3221 -23.7918 -23.5431 -23.3222 -20.5550 -12.1223  -3.0293  -2.7205
    -2.5186  -2.0050  -0.6996  -0.3618   3.9334   6.2364   6.6739   7.2082
     7.7737  10.0458  10.4997  11.9011  12.3386  12.8399  13.4032  14.1256
    14.9303  15.7272

          k = 0.1875 0.5413 0.0000 (  5779 PWs)   bands (ev):

   -45.3183 -23.8127 -23.5335 -23.3438 -20.5532 -12.0576  -3.0542  -2.7804
    -2.5028  -2.0966  -0.6883  -0.4845   3.9768   6.4915   6.6602   7.3329
     7.6546  10.3765  11.0965  11.9410  12.1399  12.5881  13.3096  14.1809
    14.7374  15.3581

          k = 0.2500 0.4330 0.0000 (  5818 PWs)   bands (ev):

   -45.3221 -23.7742 -23.5415 -23.3446 -20.5525 -12.1228  -3.0077  -2.7159
    -2.5163  -1.8961  -0.7612  -0.4967   4.0357   6.0922   6.7272   7.1178
     7.7898  10.0700  10.5615  11.9542  12.4724  13.0821  13.7051  14.2077
    14.6642  15.2334

          k = 0.2500 0.5052 0.0000 (  5783 PWs)   bands (ev):

   -45.3174 -23.7824 -23.5300 -23.3909 -20.5481 -12.0431  -3.0409  -2.7470
    -2.4893  -1.9309  -0.9515  -0.6083   4.1720   6.3151   6.6436   7.2888
     7.6530  10.4891  11.1166  11.9083  12.7666  13.2439  13.4094  14.0083
    14.6413  15.2105

          k = 0.2500 0.5774 0.0000 (  5778 PWs)   bands (ev):

   -45.3158 -23.7846 -23.5254 -23.4084 -20.5467 -12.0145  -3.0582  -2.7511
    -2.4797  -1.9354  -1.0565  -0.6173   4.2244   6.4638   6.5853   7.3352
     7.5777  10.4636  11.8304  12.0637  12.1084  13.2032  13.6154  14.0649
    14.6579  15.2857

          k = 0.3125 0.5413 0.0000 (  5772 PWs)   bands (ev):

   -45.3149 -23.7690 -23.5228 -23.4368 -20.5443 -11.9993  -3.0704  -2.7213
    -2.4673  -1.7887  -1.3286  -0.6244   4.3329   6.4192   6.5698   7.2653
     7.6261  10.4628  11.8286  12.0195  12.8500  13.0579  13.8277  13.9791
    14.7614  15.3822

     highest occupied, lowest unoccupied level (ev):     4.3329    5.5552

!    total energy              =    -571.23460518 Ry
     total all-electron energy =    -12610.612017 Ry
     estimated scf accuracy    <          5.5E-11 Ry

     The total energy is the sum of the following terms:
     one-electron contribution =    -278.76735641 Ry
     hartree contribution      =     147.91087543 Ry
     xc contribution           =     -36.35486341 Ry
     ewald contribution        =      -7.16775221 Ry
     one-center paw contrib.   =    -396.85550858 Ry

     convergence has been achieved in   6 iterations

     negative rho (up, down):  3.027E-05 0.000E+00

     Forces acting on atoms (cartesian axes, Ry/au):

     atom    1 type  1   force =     0.00000000    0.00000000   -0.00005518
     atom    2 type  2   force =     0.00000000    0.00000000    0.00054036
     atom    3 type  3   force =     0.00000000    0.00000000   -0.00048517
     The non-local contrib.  to forces
     atom    1 type  1   force =     0.00000000   -0.00000000   -0.02453227
     atom    2 type  2   force =     0.00000000   -0.00000000   -0.99798166
     atom    3 type  3   force =     0.00000000   -0.00000000    0.21093686
     The ionic contribution  to forces
     atom    1 type  1   force =    -0.00000001    0.00000001   -0.56352261
     atom    2 type  2   force =     0.00000001   -0.00000001   24.64189910
     atom    3 type  3   force =     0.00000000   -0.00000000  -24.07837649
     The local contribution  to forces
     atom    1 type  1   force =    -0.00000000    0.00000000    0.58386118
     atom    2 type  2   force =     0.00000027   -0.00000026  -23.64661519
     atom    3 type  3   force =    -0.00000000    0.00000000   23.86954161
     The core correction contribution to forces
     atom    1 type  1   force =    -0.00000000    0.00000000    0.00410956
     atom    2 type  2   force =     0.00000000   -0.00000000    0.00323451
     atom    3 type  3   force =    -0.00000000    0.00000000   -0.00257715
     The Hubbard contrib.    to forces
     atom    1 type  1   force =     0.00000000    0.00000000    0.00000000
     atom    2 type  2   force =     0.00000000    0.00000000    0.00000000
     atom    3 type  3   force =     0.00000000    0.00000000    0.00000000
     The SCF correction term to forces
     atom    1 type  1   force =    -0.00000000    0.00000000    0.00002720
     atom    2 type  2   force =    -0.00000000    0.00000000    0.00000183
     atom    3 type  3   force =     0.00000000   -0.00000000   -0.00001177

     Total force =     0.000728     Total SCF correction =     0.000030
     Energy error            =      1.7E-06 Ry
     Gradient error          =      5.4E-04 Ry/Bohr

     number of scf cycles    =   3
     number of bfgs steps    =   2

     energy             old  =    -571.2346035288 Ry
     energy             new  =    -571.2346051813 Ry

     CASE: energy            _new < energy            _old

     new trust radius        =       0.0022400006 bohr
     new conv_thr            =            1.0E-10 Ry


ATOMIC_POSITIONS (angstrom)
Zr            0.0000000000        0.0000000000       10.1024979339
F            -0.0000000020        1.9309038816       11.4091298388
Br           -0.0000000020        1.9309038816        8.2065509403



     Writing config-only to output data dir ./tmp/ZrFBr.save/
     NEW-OLD atomic charge density approx. for the potential

     Check: negative core charge=   -0.000002

     negative rho (up, down):  3.044E-05 0.000E+00

     total cpu time spent up to now is       15.8 secs

     Self-consistent Calculation

     iteration #  1     ecut=    65.00 Ry     beta= 0.70
     Davidson diagonalization with overlap
     ethr =  1.00E-06,  avg # of iterations =  2.0

     Threshold (ethr) on eigenvalues was too large:
     Diagonalizing with lowered threshold

     Davidson diagonalization with overlap
     ethr =  2.25E-09,  avg # of iterations =  3.9

     negative rho (up, down):  3.024E-05 0.000E+00

     total cpu time spent up to now is       17.2 secs

     total energy              =    -571.23460608 Ry
     estimated scf accuracy    <       0.00000068 Ry

     iteration #  2     ecut=    65.00 Ry     beta= 0.70
     Davidson diagonalization with overlap
     ethr =  2.60E-09,  avg # of iterations =  2.0

     negative rho (up, down):  3.031E-05 0.000E+00

     total cpu time spent up to now is       17.8 secs

     total energy              =    -571.23460607 Ry
     estimated scf accuracy    <       0.00000097 Ry

     iteration #  3     ecut=    65.00 Ry     beta= 0.70
     Davidson diagonalization with overlap
     ethr =  2.60E-09,  avg # of iterations =  2.0

     negative rho (up, down):  3.032E-05 0.000E+00

     total cpu time spent up to now is       18.4 secs

     total energy              =    -571.23460630 Ry
     estimated scf accuracy    <       0.00000016 Ry

     iteration #  4     ecut=    65.00 Ry     beta= 0.70
     Davidson diagonalization with overlap
     ethr =  6.05E-10,  avg # of iterations =  1.1

     negative rho (up, down):  3.032E-05 0.000E+00

     total cpu time spent up to now is       18.9 secs

     total energy              =    -571.23460633 Ry
     estimated scf accuracy    <       0.00000001 Ry

     iteration #  5     ecut=    65.00 Ry     beta= 0.70
     Davidson diagonalization with overlap
     ethr =  5.55E-11,  avg # of iterations =  2.0

     negative rho (up, down):  3.032E-05 0.000E+00

     total cpu time spent up to now is       19.5 secs

     total energy              =    -571.23460633 Ry
     estimated scf accuracy    <          1.7E-09 Ry

     iteration #  6     ecut=    65.00 Ry     beta= 0.70
     Davidson diagonalization with overlap
     ethr =  6.70E-12,  avg # of iterations =  2.0

     negative rho (up, down):  3.032E-05 0.000E+00

     total cpu time spent up to now is       20.1 secs

     total energy              =    -571.23460633 Ry
     estimated scf accuracy    <          1.1E-10 Ry

     iteration #  7     ecut=    65.00 Ry     beta= 0.70
     Davidson diagonalization with overlap
     ethr =  4.27E-13,  avg # of iterations =  2.0

     negative rho (up, down):  3.032E-05 0.000E+00

     total cpu time spent up to now is       20.7 secs

     End of self-consistent calculation

          k = 0.0000 0.0000 0.0000 (  5755 PWs)   bands (ev):

   -45.3860 -23.8640 -23.0955 -23.0955 -20.6644 -12.9929  -3.1517  -2.4557
    -2.4557  -1.1408   1.3903   1.3903   3.7725   5.8247   5.8247   5.9215
     6.8052   6.8052   7.9448   8.8007  11.1525  14.0157  14.7131  14.7131
    15.3216  17.2407

          k = 0.0000 0.0722 0.0000 (  5746 PWs)   bands (ev):

   -45.3837 -23.8553 -23.1268 -23.1004 -20.6560 -12.9645  -3.1174  -2.4927
    -2.4555  -1.1183   1.1639   1.3492   3.7893   5.7594   5.8692   6.0179
     6.7565   6.8562   8.0719   9.0231  11.2897  14.0758  14.3273  14.8480
    15.1973  17.4644

          k = 0.0000 0.1443 0.0000 (  5754 PWs)   bands (ev):

   -45.3772 -23.8310 -23.2128 -23.1141 -20.6346 -12.8821  -3.0253  -2.5866
    -2.4562  -1.0645   0.5950   1.2365   3.8107   5.6566   6.0106   6.1179
     6.8343   6.9895   8.4130   9.5014  11.6858  13.6455  14.0762  15.0431
    15.2487  17.6448

          k = 0.0000 0.2165 0.0000 (  5770 PWs)   bands (ev):

   -45.3675 -23.7962 -23.3332 -23.1347 -20.6091 -12.7538  -2.9151  -2.6922
    -2.4602  -1.0121  -0.1138   1.0781   3.7774   5.6292   6.1657   6.2592
     7.1522   7.1642   8.8827   9.9895  12.0627  13.2804  13.7073  15.4104
    15.9003  17.3180

          k = 0.0000 0.2887 0.0000 (  5784 PWs)   bands (ev):

   -45.3560 -23.7623 -23.4592 -23.1587 -20.5877 -12.5939  -2.9098  -2.6952
    -2.4694  -1.1089  -0.6831   0.9053   3.6744   5.7228   6.3163   6.6050
     7.3478   7.5767   9.3661  10.3907  11.9174  12.9475  14.1853  15.9194
    16.4845  16.6958

          k = 0.0000 0.3608 0.0000 (  5812 PWs)   bands (ev):

   -45.3445 -23.7568 -23.5486 -23.1827 -20.5744 -12.4235  -3.0053  -2.6170
    -2.4831  -1.6335  -0.7424   0.7456   3.5544   5.8950   6.5765   6.9932
     7.5415   8.0737   9.7192  10.6697  11.7948  12.6300  14.8057  15.2766
    16.3840  16.4521

          k = 0.0000 0.4330 0.0000 (  5808 PWs)   bands (ev):

   -45.3347 -23.8031 -23.5676 -23.2029 -20.5687 -12.2694  -3.0998  -2.5740
    -2.4980  -2.1147  -0.6931   0.6191   3.4678   6.1068   6.8057   7.2929
     7.8006   8.6604   9.8688  10.8749  11.9080  12.5626  13.7946  15.1835
    15.6860  15.8678

          k = 0.0000 0.5052 0.0000 (  5790 PWs)   bands (ev):

   -45.3281 -23.8552 -23.5564 -23.2163 -20.5676 -12.1608  -3.1750  -2.5999
    -2.5096  -2.3726  -0.6508   0.5386   3.4254   6.3233   6.8672   7.4294
     8.0894   9.3000   9.9592  11.0339  11.9449  12.5099  13.1692  14.6254
    14.9760  15.4359

          k = 0.0000-0.5774 0.0000 (  5798 PWs)   bands (ev):

   -45.3258 -23.8754 -23.5500 -23.2210 -20.5676 -12.1214  -3.2069  -2.6434
    -2.5139  -2.4238  -0.6351   0.5111   3.4142   6.4423   6.8324   7.4656
     8.2162   9.6575  10.0109  11.1858  11.6175  12.4156  13.3319  14.1500
    14.7941  15.2629

          k = 0.0625 0.1083 0.0000 (  5748 PWs)   bands (ev):

   -45.3793 -23.8388 -23.1846 -23.1105 -20.6411 -12.9091  -3.0538  -2.5573
    -2.4568  -1.0803   0.7783   1.2613   3.8093   5.6729   5.9669   6.1171
     6.7611   6.9603   8.3059   9.3669  11.5648  13.8115  14.1207  14.9497
    15.2106  17.5733

          k = 0.0625 0.1804 0.0000 (  5758 PWs)   bands (ev):

   -45.3712 -23.8091 -23.2857 -23.1298 -20.6178 -12.8036  -2.9475  -2.6584
    -2.4621  -1.0258   0.1647   1.0997   3.8087   5.5909   6.1718   6.1946
     6.9353   7.1512   8.7123   9.8363  12.0505  13.2799  13.8067  15.1161
    15.7799  17.1710

          k = 0.0625 0.2526 0.0000 (  5779 PWs)   bands (ev):

   -45.3606 -23.7738 -23.4067 -23.1551 -20.5947 -12.6591  -2.8712  -2.7260
    -2.4732  -1.0102  -0.4862   0.9046   3.7500   5.6223   6.2414   6.5317
     7.1916   7.4471   9.1926  10.2825  12.1857  13.1111  13.6336  15.5878
    16.4720  16.7476

          k = 0.0625 0.3248 0.0000 (  5792 PWs)   bands (ev):

   -45.3491 -23.7505 -23.5144 -23.1823 -20.5777 -12.4932  -2.9429  -2.6554
    -2.4909  -1.3500  -0.7508   0.7108   3.6520   5.7840   6.3916   6.9173
     7.4176   7.8895   9.6248  10.6497  11.9386  12.7625  14.4462  15.5143
    16.1310  16.5508

          k = 0.0625 0.3969 0.0000 (  5799 PWs)   bands (ev):

   -45.3385 -23.7722 -23.5640 -23.2074 -20.5686 -12.3297  -3.0391  -2.5869
    -2.5149  -1.8724  -0.7193   0.5446   3.5659   6.0167   6.6061   7.2104
     7.6563   8.4744   9.8883  10.9105  11.9077  12.5780  14.3524  15.0455
    15.6867  16.4850

          k = 0.0625 0.4691 0.0000 (  5793 PWs)   bands (ev):

   -45.3303 -23.8263 -23.5605 -23.2265 -20.5654 -12.1969  -3.1201  -2.5976
    -2.5252  -2.2245  -0.6704   0.4241   3.5180   6.2579   6.7821   7.3538
     7.8914   9.1749  10.0147  11.0821  12.0225  12.6032  13.3507  14.7288
    15.1399  15.8246

          k = 0.0625 0.5413 0.0000 (  5785 PWs)   bands (ev):

   -45.3258 -23.8631 -23.5497 -23.2369 -20.5650 -12.1219  -3.1721  -2.6719
    -2.5201  -2.3509  -0.6409   0.3611   3.5017   6.4417   6.8312   7.4010
     8.0534   9.7710  10.1391  11.2178  11.7969  12.4526  13.2467  14.2317
    14.8254  15.2879

          k = 0.1250 0.2165 0.0000 (  5762 PWs)   bands (ev):

   -45.3623 -23.7782 -23.3839 -23.1576 -20.5972 -12.6817  -2.8505  -2.7403
    -2.4793  -0.9939  -0.3649   0.8593   3.7918   5.5496   6.2697   6.5227
     7.0803   7.4258   9.1324  10.2552  12.6115  12.8657  13.4010  15.3975
    16.4216  16.7135

          k = 0.1250 0.2887 0.0000 (  5772 PWs)   bands (ev):

   -45.3516 -23.7499 -23.4835 -23.1922 -20.5790 -12.5302  -2.8765  -2.6998
    -2.5067  -1.1478  -0.7346   0.5855   3.7569   5.6282   6.3781   6.8728
     7.3173   7.8228   9.5758  10.6865  12.4149  12.8881  13.5915  15.3969
    16.1909  16.6554

          k = 0.1250 0.3608 0.0000 (  5786 PWs)   bands (ev):

   -45.3410 -23.7487 -23.5492 -23.2275 -20.5669 -12.3694  -2.9648  -2.6129
    -2.5435  -1.6091  -0.7443   0.3322   3.7214   5.8458   6.4998   7.0906
     7.6021   8.4149   9.9404  11.0840  12.1792  12.6568  14.3860  14.7844
    15.4673  16.5008

          k = 0.1250 0.4330 0.0000 (  5797 PWs)   bands (ev):

   -45.3319 -23.7883 -23.5597 -23.2578 -20.5608 -12.2247  -3.0402  -2.6194
    -2.5427  -1.9960  -0.6975   0.1312   3.7060   6.1530   6.6089   7.2328
     7.7760   9.1830  10.1690  11.3739  12.1455  12.6270  13.7903  14.4733
    15.2441  16.3232

          k = 0.1250 0.5052 0.0000 (  5784 PWs)   bands (ev):

   -45.3258 -23.8306 -23.5485 -23.2782 -20.5587 -12.1231  -3.0921  -2.7087
    -2.5193  -2.1957  -0.6589   0.0021   3.7093   6.4302   6.7059   7.3156
     7.8237   9.9468  10.3534  11.4988  12.1185  12.5966  13.1567  14.2289
    14.8802  15.6321

          k = 0.1250 0.5774 0.0000 (  5794 PWs)   bands (ev):

   -45.3237 -23.8471 -23.5426 -23.2854 -20.5584 -12.0864  -3.1115  -2.7568
    -2.5135  -2.2464  -0.6444  -0.0425   3.7139   6.5221   6.7856   7.3193
     7.8314  10.1642  10.7100  11.6006  11.7113  12.4570  13.2911  14.0788
    14.8528  15.1235

          k = 0.1875 0.3248 0.0000 (  5784 PWs)   bands (ev):

   -45.3418 -23.7408 -23.5394 -23.2394 -20.5660 -12.3833  -2.9261  -2.6346
    -2.5529  -1.4809  -0.7584   0.2144   3.7996   5.7211   6.5507   6.9818
     7.6048   8.4001   9.9607  11.1525  12.5198  12.7365  13.8540  14.6689
    15.7972  16.2690

          k = 0.1875 0.3969 0.0000 (  5803 PWs)   bands (ev):

   -45.3328 -23.7608 -23.5552 -23.2870 -20.5572 -12.2397  -2.9805  -2.6409
    -2.5504  -1.7968  -0.7295  -0.1204   3.8640   5.9317   6.6723   7.0457
     7.7839   9.1909  10.2797  11.6072  12.4202  12.7243  13.9532  14.5093
    14.8697  15.9119

          k = 0.1875 0.4691 0.0000 (  5803 PWs)   bands (ev):

   -45.3258 -23.7931 -23.5464 -23.3255 -20.5525 -12.1242  -3.0246  -2.7166
    -2.5148  -2.0057  -0.7021  -0.3636   3.9303   6.2326   6.6698   7.2039
     7.7696  10.0454  10.4956  11.9002  12.3367  12.8385  13.4033  14.1249
    14.9296  15.7280

          k = 0.1875 0.5413 0.0000 (  5779 PWs)   bands (ev):

   -45.3221 -23.8139 -23.5367 -23.3470 -20.5507 -12.0594  -3.0495  -2.7773
    -2.4991  -2.0967  -0.6906  -0.4865   3.9735   6.4885   6.6564   7.3289
     7.6493  10.3736  11.0950  11.9401  12.1381  12.5864  13.3097  14.1809
    14.7369  15.3577

          k = 0.2500 0.4330 0.0000 (  5818 PWs)   bands (ev):

   -45.3259 -23.7754 -23.5448 -23.3479 -20.5500 -12.1247  -3.0029  -2.7118
    -2.5125  -1.8972  -0.7634  -0.4988   4.0328   6.0877   6.7231   7.1135
     7.7860  10.0703  10.5570  11.9525  12.4726  13.0799  13.7028  14.2089
    14.6623  15.2349

          k = 0.2500 0.5052 0.0000 (  5783 PWs)   bands (ev):

   -45.3212 -23.7836 -23.5333 -23.3942 -20.5457 -12.0450  -3.0361  -2.7433
    -2.4855  -1.9318  -0.9533  -0.6109   4.1692   6.3118   6.6392   7.2839
     7.6487  10.4865  11.1159  11.9050  12.7669  13.2434  13.4078  14.0082
    14.6403  15.2116

          k = 0.2500 0.5774 0.0000 (  5778 PWs)   bands (ev):

   -45.3196 -23.7857 -23.5287 -23.4117 -20.5443 -12.0164  -3.0535  -2.7475
    -2.4760  -1.9362  -1.0583  -0.6199   4.2216   6.4617   6.5807   7.3290
     7.5735  10.4604  11.8271  12.0642  12.1089  13.2013  13.6149  14.0643
    14.6581  15.2843

          k = 0.3125 0.5413 0.0000 (  5772 PWs)   bands (ev):

   -45.3187 -23.7701 -23.5261 -23.4401 -20.5418 -12.0012  -3.0658  -2.7173
    -2.4635  -1.7900  -1.3304  -0.6270   4.3304   6.4172   6.5651   7.2583
     7.6223  10.4595  11.8250  12.0206  12.8510  13.0597  13.8248  13.9773
    14.7602  15.3833

     highest occupied, lowest unoccupied level (ev):     4.3304    5.5496

!    total energy              =    -571.23460633 Ry
     total all-electron energy =    -12610.612018 Ry
     estimated scf accuracy    <          1.9E-12 Ry

     The total energy is the sum of the following terms:
     one-electron contribution =    -278.58219475 Ry
     hartree contribution      =     147.81719424 Ry
     xc contribution           =     -36.35400108 Ry
     ewald contribution        =      -7.26012753 Ry
     one-center paw contrib.   =    -396.85547722 Ry

     convergence has been achieved in   7 iterations

     negative rho (up, down):  3.032E-05 0.000E+00

     Forces acting on atoms (cartesian axes, Ry/au):

     atom    1 type  1   force =     0.00000000    0.00000000    0.00032119
     atom    2 type  2   force =     0.00000000    0.00000000    0.00001621
     atom    3 type  3   force =     0.00000000    0.00000000   -0.00033740
     The non-local contrib.  to forces
     atom    1 type  1   force =     0.00000000   -0.00000000   -0.02463393
     atom    2 type  2   force =     0.00000000   -0.00000000   -0.99980271
     atom    3 type  3   force =     0.00000000    0.00000000    0.21104570
     The ionic contribution  to forces
     atom    1 type  1   force =    -0.00000001    0.00000001   -0.56837419
     atom    2 type  2   force =     0.00000001   -0.00000001   24.63778333
     atom    3 type  3   force =     0.00000000   -0.00000000  -24.06940914
     The local contribution  to forces
     atom    1 type  1   force =    -0.00000000    0.00000000    0.58921144
     atom    2 type  2   force =     0.00000027   -0.00000026  -23.64120915
     atom    3 type  3   force =    -0.00000000    0.00000000   23.86061424
     The core correction contribution to forces
     atom    1 type  1   force =    -0.00000000    0.00000000    0.00411387
     atom    2 type  2   force =     0.00000000   -0.00000000    0.00324282
     atom    3 type  3   force =    -0.00000000    0.00000000   -0.00259001
     The Hubbard contrib.    to forces
     atom    1 type  1   force =     0.00000000    0.00000000    0.00000000
     atom    2 type  2   force =     0.00000000    0.00000000    0.00000000
     atom    3 type  3   force =     0.00000000    0.00000000    0.00000000
     The SCF correction term to forces
     atom    1 type  1   force =    -0.00000000    0.00000000    0.00000243
     atom    2 type  2   force =     0.00000000   -0.00000000    0.00000034
     atom    3 type  3   force =     0.00000000   -0.00000000    0.00000023

     Total force =     0.000466     Total SCF correction =     0.000002
     Energy error            =      1.2E-06 Ry
     Gradient error          =      3.4E-04 Ry/Bohr

     number of scf cycles    =   4
     number of bfgs steps    =   3

     energy             old  =    -571.2346051813 Ry
     energy             new  =    -571.2346063340 Ry

     CASE: energy            _new < energy            _old

     new trust radius        =       0.0006564148 bohr
     new conv_thr            =            1.0E-10 Ry


ATOMIC_POSITIONS (angstrom)
Zr            0.0000000000        0.0000000000       10.1025672973
F            -0.0000000020        1.9309038816       11.4094078351
Br           -0.0000000020        1.9309038816        8.2062035806



     Writing config-only to output data dir ./tmp/ZrFBr.save/
     NEW-OLD atomic charge density approx. for the potential

     Check: negative core charge=   -0.000002

     negative rho (up, down):  3.029E-05 0.000E+00

     total cpu time spent up to now is       21.0 secs

     Self-consistent Calculation

     iteration #  1     ecut=    65.00 Ry     beta= 0.70
     Davidson diagonalization with overlap
     ethr =  1.00E-06,  avg # of iterations =  2.0

     Threshold (ethr) on eigenvalues was too large:
     Diagonalizing with lowered threshold

     Davidson diagonalization with overlap
     ethr =  2.56E-10,  avg # of iterations =  4.0

     negative rho (up, down):  3.029E-05 0.000E+00

     total cpu time spent up to now is       22.3 secs

     total energy              =    -571.23460650 Ry
     estimated scf accuracy    <       0.00000008 Ry

     iteration #  2     ecut=    65.00 Ry     beta= 0.70
     Davidson diagonalization with overlap
     ethr =  2.89E-10,  avg # of iterations =  2.0

     negative rho (up, down):  3.031E-05 0.000E+00

     total cpu time spent up to now is       22.9 secs

     total energy              =    -571.23460649 Ry
     estimated scf accuracy    <       0.00000026 Ry

     iteration #  3     ecut=    65.00 Ry     beta= 0.70
     Davidson diagonalization with overlap
     ethr =  2.89E-10,  avg # of iterations =  2.0

     negative rho (up, down):  3.033E-05 0.000E+00

     total cpu time spent up to now is       23.5 secs

     total energy              =    -571.23460653 Ry
     estimated scf accuracy    <          4.3E-09 Ry

     iteration #  4     ecut=    65.00 Ry     beta= 0.70
     Davidson diagonalization with overlap
     ethr =  1.64E-11,  avg # of iterations =  2.0

     negative rho (up, down):  3.033E-05 0.000E+00

     total cpu time spent up to now is       24.1 secs

     total energy              =    -571.23460653 Ry
     estimated scf accuracy    <          9.4E-10 Ry

     iteration #  5     ecut=    65.00 Ry     beta= 0.70
     Davidson diagonalization with overlap
     ethr =  3.60E-12,  avg # of iterations =  2.0

     negative rho (up, down):  3.033E-05 0.000E+00

     total cpu time spent up to now is       24.7 secs

     total energy              =    -571.23460653 Ry
     estimated scf accuracy    <          1.1E-10 Ry

     iteration #  6     ecut=    65.00 Ry     beta= 0.70
     Davidson diagonalization with overlap
     ethr =  4.06E-13,  avg # of iterations =  2.0

     negative rho (up, down):  3.033E-05 0.000E+00

     total cpu time spent up to now is       25.3 secs

     End of self-consistent calculation

          k = 0.0000 0.0000 0.0000 (  5755 PWs)   bands (ev):

   -45.3870 -23.8646 -23.0964 -23.0964 -20.6643 -12.9925  -3.1512  -2.4551
    -2.4551  -1.1410   1.3914   1.3914   3.7710   5.8235   5.8235   5.9213
     6.8047   6.8047   7.9450   8.8008  11.1527  14.0166  14.7127  14.7127
    15.3186  17.2402

          k = 0.0000 0.0722 0.0000 (  5746 PWs)   bands (ev):

   -45.3847 -23.8560 -23.1276 -23.1012 -20.6558 -12.9641  -3.1169  -2.4921
    -2.4550  -1.1185   1.1650   1.3504   3.7879   5.7582   5.8680   6.0176
     6.7561   6.8556   8.0721   9.0232  11.2899  14.0765  14.3269  14.8476
    15.1947  17.4639

          k = 0.0000 0.1443 0.0000 (  5754 PWs)   bands (ev):

   -45.3782 -23.8316 -23.2136 -23.1150 -20.6344 -12.8817  -3.0248  -2.5861
    -2.4557  -1.0647   0.5960   1.2376   3.8095   5.6553   6.0095   6.1175
     6.8339   6.9888   8.4131   9.5015  11.6858  13.6450  14.0761  15.0420
    15.2485  17.6441

          k = 0.0000 0.2165 0.0000 (  5770 PWs)   bands (ev):

   -45.3685 -23.7968 -23.3340 -23.1355 -20.6090 -12.7533  -2.9146  -2.6918
    -2.4597  -1.0122  -0.1130   1.0792   3.7764   5.6278   6.1653   6.2582
     7.1518   7.1633   8.8825   9.9896  12.0624  13.2798  13.7070  15.4103
    15.9002  17.3173

          k = 0.0000 0.2887 0.0000 (  5784 PWs)   bands (ev):

   -45.3570 -23.7630 -23.4600 -23.1596 -20.5876 -12.5934  -2.9093  -2.6948
    -2.4689  -1.1083  -0.6831   0.9064   3.6736   5.7215   6.3157   6.6041
     7.3468   7.5762   9.3655  10.3907  11.9171  12.9465  14.1857  15.9193
    16.4844  16.6959

          k = 0.0000 0.3608 0.0000 (  5812 PWs)   bands (ev):

   -45.3455 -23.7574 -23.5494 -23.1836 -20.5743 -12.4230  -3.0048  -2.6166
    -2.4826  -1.6328  -0.7425   0.7466   3.5538   5.8938   6.5757   6.9922
     7.5405   8.0730   9.7183  10.6696  11.7947  12.6292  14.8057  15.2769
    16.3835  16.4514

          k = 0.0000 0.4330 0.0000 (  5808 PWs)   bands (ev):

   -45.3357 -23.8036 -23.5684 -23.2037 -20.5687 -12.2688  -3.0993  -2.5737
    -2.4976  -2.1141  -0.6932   0.6200   3.4671   6.1056   6.8049   7.2918
     7.7997   8.6595   9.8681  10.8748  11.9076  12.5622  13.7946  15.1836
    15.6853  15.8673

          k = 0.0000 0.5052 0.0000 (  5790 PWs)   bands (ev):

   -45.3291 -23.8557 -23.5572 -23.2171 -20.5675 -12.1602  -3.1746  -2.5996
    -2.5091  -2.3721  -0.6508   0.5395   3.4247   6.3221   6.8664   7.4282
     8.0886   9.2987   9.9589  11.0334  11.9444  12.5097  13.1691  14.6252
    14.9756  15.4353

          k = 0.0000-0.5774 0.0000 (  5798 PWs)   bands (ev):

   -45.3268 -23.8759 -23.5509 -23.2219 -20.5676 -12.1209  -3.2065  -2.6431
    -2.5135  -2.4234  -0.6351   0.5120   3.4135   6.4409   6.8317   7.4644
     8.2155   9.6561  10.0107  11.1850  11.6176  12.4150  13.3320  14.1494
    14.7939  15.2624

          k = 0.0625 0.1083 0.0000 (  5748 PWs)   bands (ev):

   -45.3803 -23.8395 -23.1854 -23.1113 -20.6410 -12.9087  -3.0533  -2.5568
    -2.4563  -1.0805   0.7793   1.2624   3.8081   5.6717   5.9658   6.1168
     6.7607   6.9596   8.3060   9.3670  11.5649  13.8109  14.1210  14.9486
    15.2098  17.5726

          k = 0.0625 0.1804 0.0000 (  5758 PWs)   bands (ev):

   -45.3722 -23.8097 -23.2865 -23.1307 -20.6177 -12.8032  -2.9470  -2.6580
    -2.4616  -1.0259   0.1655   1.1008   3.8077   5.5895   6.1712   6.1938
     6.9349   7.1505   8.7121   9.8364  12.0505  13.2794  13.8061  15.1160
    15.7796  17.1703

          k = 0.0625 0.2526 0.0000 (  5779 PWs)   bands (ev):

   -45.3616 -23.7744 -23.4074 -23.1559 -20.5946 -12.6587  -2.8707  -2.7255
    -2.4727  -1.0100  -0.4857   0.9056   3.7492   5.6209   6.2408   6.5308
     7.1908   7.4466   9.1922  10.2826  12.1854  13.1102  13.6337  15.5880
    16.4719  16.7470

          k = 0.0625 0.3248 0.0000 (  5792 PWs)   bands (ev):

   -45.3501 -23.7511 -23.5151 -23.1831 -20.5777 -12.4927  -2.9424  -2.6550
    -2.4904  -1.3493  -0.7510   0.7118   3.6513   5.7827   6.3909   6.9165
     7.4166   7.8889   9.6239  10.6497  11.9384  12.7616  14.4465  15.5140
    16.1308  16.5507

          k = 0.0625 0.3969 0.0000 (  5799 PWs)   bands (ev):

   -45.3395 -23.7727 -23.5648 -23.2082 -20.5685 -12.3292  -3.0387  -2.5865
    -2.5144  -1.8718  -0.7194   0.5455   3.5653   6.0155   6.6053   7.2094
     7.6553   8.4736   9.8873  10.9105  11.9074  12.5774  14.3522  15.0456
    15.6863  16.4842

          k = 0.0625 0.4691 0.0000 (  5793 PWs)   bands (ev):

   -45.3313 -23.8268 -23.5613 -23.2274 -20.5654 -12.1964  -3.1196  -2.5972
    -2.5248  -2.2240  -0.6704   0.4250   3.5174   6.2566   6.7813   7.3527
     7.8904   9.1740  10.0141  11.0818  12.0220  12.6029  13.3506  14.7285
    15.1397  15.8240

          k = 0.0625 0.5413 0.0000 (  5785 PWs)   bands (ev):

   -45.3268 -23.8636 -23.5505 -23.2377 -20.5650 -12.1213  -3.1717  -2.6715
    -2.5198  -2.3505  -0.6409   0.3620   3.5010   6.4404   6.8304   7.3998
     8.0524   9.7698  10.1388  11.2173  11.7967  12.4522  13.2467  14.2312
    14.8252  15.2874

          k = 0.1250 0.2165 0.0000 (  5762 PWs)   bands (ev):

   -45.3632 -23.7789 -23.3847 -23.1584 -20.5971 -12.6812  -2.8500  -2.7398
    -2.4788  -0.9938  -0.3643   0.8603   3.7910   5.5482   6.2691   6.5219
     7.0796   7.4252   9.1320  10.2553  12.6113  12.8652  13.4004  15.3977
    16.4213  16.7130

          k = 0.1250 0.2887 0.0000 (  5772 PWs)   bands (ev):

   -45.3526 -23.7506 -23.4843 -23.1930 -20.5790 -12.5298  -2.8760  -2.6994
    -2.5062  -1.1471  -0.7347   0.5864   3.7562   5.6268   6.3774   6.8721
     7.3164   7.8222   9.5751  10.6866  12.4146  12.8873  13.5915  15.3965
    16.1910  16.6551

          k = 0.1250 0.3608 0.0000 (  5786 PWs)   bands (ev):

   -45.3420 -23.7493 -23.5500 -23.2284 -20.5668 -12.3689  -2.9643  -2.6125
    -2.5430  -1.6085  -0.7444   0.3330   3.7209   5.8445   6.4990   7.0897
     7.6011   8.4143   9.9393  11.0842  12.1790  12.6562  14.3861  14.7838
    15.4671  16.5006

          k = 0.1250 0.4330 0.0000 (  5797 PWs)   bands (ev):

   -45.3329 -23.7888 -23.5605 -23.2586 -20.5608 -12.2241  -3.0398  -2.6189
    -2.5423  -1.9955  -0.6975   0.1320   3.7054   6.1517   6.6080   7.2318
     7.7749   9.1824  10.1680  11.3740  12.1451  12.6266  13.7901  14.4729
    15.2440  16.3223

          k = 0.1250 0.5052 0.0000 (  5784 PWs)   bands (ev):

   -45.3268 -23.8311 -23.5494 -23.2790 -20.5587 -12.1225  -3.0917  -2.7082
    -2.5190  -2.1953  -0.6588   0.0028   3.7087   6.4289   6.7051   7.3144
     7.8224   9.9462  10.3527  11.4986  12.1179  12.5965  13.1566  14.2285
    14.8800  15.6315

          k = 0.1250 0.5774 0.0000 (  5794 PWs)   bands (ev):

   -45.3247 -23.8476 -23.5435 -23.2862 -20.5583 -12.0858  -3.1111  -2.7562
    -2.5132  -2.2460  -0.6443  -0.0418   3.7133   6.5207   6.7850   7.3181
     7.8300  10.1636  10.7092  11.6001  11.7114  12.4563  13.2912  14.0784
    14.8524  15.1230

          k = 0.1875 0.3248 0.0000 (  5784 PWs)   bands (ev):

   -45.3428 -23.7414 -23.5401 -23.2402 -20.5659 -12.3828  -2.9257  -2.6342
    -2.5524  -1.4802  -0.7585   0.2152   3.7991   5.7197   6.5498   6.9809
     7.6038   8.3996   9.9596  11.1527  12.5194  12.7363  13.8538  14.6682
    15.7969  16.2691

          k = 0.1875 0.3969 0.0000 (  5803 PWs)   bands (ev):

   -45.3338 -23.7614 -23.5560 -23.2879 -20.5572 -12.2392  -2.9801  -2.6405
    -2.5500  -1.7963  -0.7294  -0.1197   3.8635   5.9304   6.6712   7.0448
     7.7828   9.1905  10.2784  11.6074  12.4199  12.7241  13.9525  14.5091
    14.8696  15.9119

          k = 0.1875 0.4691 0.0000 (  5803 PWs)   bands (ev):

   -45.3268 -23.7936 -23.5472 -23.3264 -20.5525 -12.1236  -3.0242  -2.7161
    -2.5145  -2.0053  -0.7019  -0.3631   3.9297   6.2314   6.6686   7.2030
     7.7682  10.0452  10.4945  11.9004  12.3362  12.8382  13.4031  14.1245
    14.9296  15.7280

          k = 0.1875 0.5413 0.0000 (  5779 PWs)   bands (ev):

   -45.3231 -23.8144 -23.5376 -23.3479 -20.5507 -12.0588  -3.0492  -2.7767
    -2.4987  -2.0963  -0.6903  -0.4861   3.9729   6.4874   6.6555   7.3278
     7.6476  10.3730  11.0944  11.9401  12.1378  12.5859  13.3096  14.1806
    14.7366  15.3574

          k = 0.2500 0.4330 0.0000 (  5818 PWs)   bands (ev):

   -45.3269 -23.7760 -23.5457 -23.3487 -20.5499 -12.1241  -3.0025  -2.7114
    -2.5121  -1.8967  -0.7630  -0.4985   4.0324   6.0865   6.7218   7.1126
     7.7846  10.0702  10.5558  11.9527  12.4723  13.0795  13.7022  14.2088
    14.6620  15.2351

          k = 0.2500 0.5052 0.0000 (  5783 PWs)   bands (ev):

   -45.3222 -23.7841 -23.5341 -23.3950 -20.5456 -12.0444  -3.0357  -2.7428
    -2.4851  -1.9314  -0.9527  -0.6108   4.1687   6.3108   6.6379   7.2829
     7.6469  10.4859  11.1156  11.9047  12.7668  13.2433  13.4074  14.0079
    14.6399  15.2119

          k = 0.2500 0.5774 0.0000 (  5778 PWs)   bands (ev):

   -45.3206 -23.7862 -23.5296 -23.4125 -20.5442 -12.0158  -3.0531  -2.7470
    -2.4756  -1.9358  -1.0577  -0.6198   4.2211   6.4609   6.5794   7.3280
     7.5716  10.4598  11.8266  12.0642  12.1089  13.2010  13.6147  14.0639
    14.6579  15.2839

          k = 0.3125 0.5413 0.0000 (  5772 PWs)   bands (ev):

   -45.3197 -23.7706 -23.5270 -23.4410 -20.5418 -12.0006  -3.0653  -2.7169
    -2.4631  -1.7894  -1.3299  -0.6269   4.3299   6.4166   6.5638   7.2571
     7.6204  10.4589  11.8246  12.0206  12.8509  13.0598  13.8243  13.9768
    14.7598  15.3835

     highest occupied, lowest unoccupied level (ev):     4.3299    5.5482

!    total energy              =    -571.23460653 Ry
     total all-electron energy =    -12610.612018 Ry
     estimated scf accuracy    <          4.6E-12 Ry

     The total energy is the sum of the following terms:
     one-electron contribution =    -278.52499982 Ry
     hartree contribution      =     147.78835086 Ry
     xc contribution           =     -36.35370211 Ry
     ewald contribution        =      -7.28879383 Ry
     one-center paw contrib.   =    -396.85546162 Ry

     convergence has been achieved in   6 iterations

     negative rho (up, down):  3.033E-05 0.000E+00

     Forces acting on atoms (cartesian axes, Ry/au):

     atom    1 type  1   force =     0.00000000    0.00000000    0.00024569
     atom    2 type  2   force =     0.00000000    0.00000000   -0.00005308
     atom    3 type  3   force =     0.00000000    0.00000000   -0.00019261
     The non-local contrib.  to forces
     atom    1 type  1   force =     0.00000000   -0.00000000   -0.02461195
     atom    2 type  2   force =     0.00000000   -0.00000000   -1.00001920
     atom    3 type  3   force =     0.00000000    0.00000000    0.21110467
     The ionic contribution  to forces
     atom    1 type  1   force =    -0.00000001    0.00000001   -0.57020074
     atom    2 type  2   force =     0.00000001   -0.00000001   24.63587194
     atom    3 type  3   force =     0.00000000   -0.00000000  -24.06567119
     The local contribution  to forces
     atom    1 type  1   force =    -0.00000000    0.00000000    0.59094212
     atom    2 type  2   force =     0.00000027   -0.00000026  -23.63915003
     atom    3 type  3   force =    -0.00000000    0.00000000   23.85697330
     The core correction contribution to forces
     atom    1 type  1   force =    -0.00000000    0.00000000    0.00411083
     atom    2 type  2   force =     0.00000000   -0.00000000    0.00324383
     atom    3 type  3   force =    -0.00000000    0.00000000   -0.00259959
     The Hubbard contrib.    to forces
     atom    1 type  1   force =     0.00000000    0.00000000    0.00000000
     atom    2 type  2   force =     0.00000000    0.00000000    0.00000000
     atom    3 type  3   force =     0.00000000    0.00000000    0.00000000
     The SCF correction term to forces
     atom    1 type  1   force =    -0.00000000    0.00000000    0.00000384
     atom    2 type  2   force =    -0.00000000    0.00000000   -0.00000120
     atom    3 type  3   force =     0.00000000   -0.00000000   -0.00000139

     Total force =     0.000317     Total SCF correction =     0.000004
     Energy error            =      2.0E-07 Ry
     Gradient error          =      2.5E-04 Ry/Bohr

     number of scf cycles    =   5
     number of bfgs steps    =   4

     energy             old  =    -571.2346063340 Ry
     energy             new  =    -571.2346065347 Ry

     CASE: energy            _new < energy            _old

     new trust radius        =       0.0006004572 bohr
     new conv_thr            =            1.0E-10 Ry


ATOMIC_POSITIONS (angstrom)
Zr            0.0000000000        0.0000000000       10.1027556932
F            -0.0000000020        1.9309038816       11.4095371874
Br           -0.0000000020        1.9309038816        8.2058858323



     Writing config-only to output data dir ./tmp/ZrFBr.save/
     NEW-OLD atomic charge density approx. for the potential

     Check: negative core charge=   -0.000002

     negative rho (up, down):  3.023E-05 0.000E+00

     total cpu time spent up to now is       25.6 secs

     Self-consistent Calculation

     iteration #  1     ecut=    65.00 Ry     beta= 0.70
     Davidson diagonalization with overlap
     ethr =  1.00E-06,  avg # of iterations =  2.0

     Threshold (ethr) on eigenvalues was too large:
     Diagonalizing with lowered threshold

     Davidson diagonalization with overlap
     ethr =  2.56E-10,  avg # of iterations =  3.0

     negative rho (up, down):  3.028E-05 0.000E+00

     total cpu time spent up to now is       26.8 secs

     total energy              =    -571.23460660 Ry
     estimated scf accuracy    <       0.00000007 Ry

     iteration #  2     ecut=    65.00 Ry     beta= 0.70
     Davidson diagonalization with overlap
     ethr =  2.68E-10,  avg # of iterations =  2.0

     negative rho (up, down):  3.031E-05 0.000E+00

     total cpu time spent up to now is       27.4 secs

     total energy              =    -571.23460659 Ry
     estimated scf accuracy    <       0.00000027 Ry

     iteration #  3     ecut=    65.00 Ry     beta= 0.70
     Davidson diagonalization with overlap
     ethr =  2.68E-10,  avg # of iterations =  2.0

     negative rho (up, down):  3.032E-05 0.000E+00

     total cpu time spent up to now is       28.0 secs

     total energy              =    -571.23460664 Ry
     estimated scf accuracy    <          1.9E-09 Ry

     iteration #  4     ecut=    65.00 Ry     beta= 0.70
     Davidson diagonalization with overlap
     ethr =  7.40E-12,  avg # of iterations =  2.0

     negative rho (up, down):  3.032E-05 0.000E+00

     total cpu time spent up to now is       28.6 secs

     total energy              =    -571.23460664 Ry
     estimated scf accuracy    <          6.0E-10 Ry

     iteration #  5     ecut=    65.00 Ry     beta= 0.70
     Davidson diagonalization with overlap
     ethr =  2.29E-12,  avg # of iterations =  2.0

     negative rho (up, down):  3.033E-05 0.000E+00

     total cpu time spent up to now is       29.2 secs

     End of self-consistent calculation

          k = 0.0000 0.0000 0.0000 (  5755 PWs)   bands (ev):

   -45.3876 -23.8651 -23.0969 -23.0969 -20.6648 -12.9914  -3.1512  -2.4557
    -2.4557  -1.1409   1.3934   1.3934   3.7704   5.8230   5.8230   5.9210
     6.8047   6.8047   7.9453   8.8008  11.1531  14.0174  14.7129  14.7129
    15.3153  17.2408

          k = 0.0000 0.0722 0.0000 (  5746 PWs)   bands (ev):

   -45.3853 -23.8565 -23.1281 -23.1017 -20.6563 -12.9630  -3.1168  -2.4927
    -2.4556  -1.1184   1.1670   1.3524   3.7873   5.7578   5.8675   6.0172
     6.7561   6.8556   8.0723   9.0232  11.2903  14.0772  14.3269  14.8478
    15.1920  17.4643

          k = 0.0000 0.1443 0.0000 (  5754 PWs)   bands (ev):

   -45.3788 -23.8321 -23.2140 -23.1155 -20.6349 -12.8806  -3.0249  -2.5866
    -2.4563  -1.0644   0.5977   1.2396   3.8090   5.6548   6.0091   6.1172
     6.8338   6.9887   8.4131   9.5015  11.6863  13.6449  14.0761  15.0407
    15.2488  17.6437

          k = 0.0000 0.2165 0.0000 (  5770 PWs)   bands (ev):

   -45.3691 -23.7973 -23.3344 -23.1360 -20.6095 -12.7522  -2.9147  -2.6923
    -2.4603  -1.0117  -0.1116   1.0811   3.7761   5.6271   6.1652   6.2578
     7.1514   7.1631   8.8823   9.9895  12.0626  13.2796  13.7071  15.4100
    15.9008  17.3168

          k = 0.0000 0.2887 0.0000 (  5784 PWs)   bands (ev):

   -45.3576 -23.7635 -23.4604 -23.1601 -20.5881 -12.5923  -2.9097  -2.6951
    -2.4695  -1.1071  -0.6825   0.9082   3.6735   5.7206   6.3159   6.6036
     7.3465   7.5756   9.3650  10.3905  11.9172  12.9457  14.1867  15.9190
    16.4841  16.6965

          k = 0.0000 0.3608 0.0000 (  5812 PWs)   bands (ev):

   -45.3461 -23.7579 -23.5498 -23.1840 -20.5748 -12.4218  -3.0052  -2.6169
    -2.4832  -1.6314  -0.7421   0.7484   3.5537   5.8928   6.5759   6.9916
     7.5402   8.0722   9.7175  10.6695  11.7947  12.6286  14.8057  15.2772
    16.3834  16.4510

          k = 0.0000 0.4330 0.0000 (  5808 PWs)   bands (ev):

   -45.3363 -23.8041 -23.5689 -23.2042 -20.5692 -12.2676  -3.0997  -2.5739
    -2.4981  -2.1130  -0.6926   0.6218   3.4671   6.1045   6.8048   7.2910
     7.7995   8.6585   9.8676  10.8747  11.9074  12.5617  13.7941  15.1838
    15.6847  15.8674

          k = 0.0000 0.5052 0.0000 (  5790 PWs)   bands (ev):

   -45.3297 -23.8562 -23.5577 -23.2176 -20.5680 -12.1589  -3.1748  -2.5996
    -2.5097  -2.3715  -0.6502   0.5413   3.4247   6.3209   6.8660   7.4273
     8.0884   9.2979   9.9589  11.0331  11.9440  12.5094  13.1688  14.6247
    14.9754  15.4355

          k = 0.0000-0.5774 0.0000 (  5798 PWs)   bands (ev):

   -45.3274 -23.8764 -23.5514 -23.2223 -20.5681 -12.1196  -3.2066  -2.6428
    -2.5140  -2.4232  -0.6344   0.5137   3.4135   6.4397   6.8311   7.4635
     8.2153   9.6555  10.0108  11.1844  11.6174  12.4145  13.3321  14.1485
    14.7938  15.2626

          k = 0.0625 0.1083 0.0000 (  5748 PWs)   bands (ev):

   -45.3809 -23.8400 -23.1859 -23.1118 -20.6414 -12.9076  -3.0533  -2.5574
    -2.4569  -1.0803   0.7811   1.2644   3.8075   5.6711   5.9654   6.1163
     6.7608   6.9595   8.3061   9.3670  11.5654  13.8108  14.1213  14.9476
    15.2094  17.5724

          k = 0.0625 0.1804 0.0000 (  5758 PWs)   bands (ev):

   -45.3728 -23.8102 -23.2869 -23.1311 -20.6182 -12.8021  -2.9471  -2.6585
    -2.4622  -1.0255   0.1671   1.1027   3.8073   5.5889   6.1709   6.1935
     6.9348   7.1501   8.7120   9.8363  12.0509  13.2793  13.8057  15.1158
    15.7798  17.1698

          k = 0.0625 0.2526 0.0000 (  5779 PWs)   bands (ev):

   -45.3622 -23.7749 -23.4078 -23.1564 -20.5951 -12.6576  -2.8710  -2.7259
    -2.4733  -1.0092  -0.4846   0.9074   3.7490   5.6201   6.2407   6.5305
     7.1906   7.4459   9.1918  10.2824  12.1854  13.1095  13.6343  15.5881
    16.4722  16.7467

          k = 0.0625 0.3248 0.0000 (  5792 PWs)   bands (ev):

   -45.3507 -23.7517 -23.5155 -23.1836 -20.5782 -12.4916  -2.9429  -2.6553
    -2.4910  -1.3478  -0.7506   0.7136   3.6512   5.7817   6.3908   6.9160
     7.4164   7.8881   9.6232  10.6495  11.9385  12.7609  14.4474  15.5135
    16.1306  16.5507

          k = 0.0625 0.3969 0.0000 (  5799 PWs)   bands (ev):

   -45.3400 -23.7732 -23.5653 -23.2087 -20.5690 -12.3280  -3.0391  -2.5868
    -2.5149  -1.8705  -0.7189   0.5472   3.5653   6.0145   6.6052   7.2087
     7.6550   8.4728   9.8866  10.9105  11.9074  12.5769  14.3518  15.0459
    15.6863  16.4837

          k = 0.0625 0.4691 0.0000 (  5793 PWs)   bands (ev):

   -45.3319 -23.8273 -23.5618 -23.2278 -20.5659 -12.1951  -3.1199  -2.5973
    -2.5252  -2.2232  -0.6698   0.4267   3.5174   6.2555   6.7811   7.3519
     7.8900   9.1733  10.0138  11.0816  12.0216  12.6027  13.3503  14.7283
    15.1397  15.8237

          k = 0.0625 0.5413 0.0000 (  5785 PWs)   bands (ev):

   -45.3274 -23.8640 -23.5510 -23.2382 -20.5654 -12.1201  -3.1719  -2.6713
    -2.5202  -2.3502  -0.6402   0.3637   3.5010   6.4391   6.8300   7.3989
     8.0520   9.7694  10.1387  11.2169  11.7964  12.4517  13.2466  14.2306
    14.8252  15.2874

          k = 0.1250 0.2165 0.0000 (  5762 PWs)   bands (ev):

   -45.3638 -23.7794 -23.3851 -23.1589 -20.5976 -12.6801  -2.8502  -2.7403
    -2.4794  -0.9932  -0.3630   0.8621   3.7908   5.5475   6.2687   6.5217
     7.0796   7.4245   9.1316  10.2552  12.6114  12.8652  13.4000  15.3980
    16.4214  16.7129

          k = 0.1250 0.2887 0.0000 (  5772 PWs)   bands (ev):

   -45.3532 -23.7511 -23.4847 -23.1935 -20.5795 -12.5286  -2.8765  -2.6996
    -2.5068  -1.1457  -0.7343   0.5881   3.7562   5.6260   6.3770   6.8717
     7.3163   7.8214   9.5744  10.6866  12.4146  12.8868  13.5921  15.3963
    16.1912  16.6546

          k = 0.1250 0.3608 0.0000 (  5786 PWs)   bands (ev):

   -45.3426 -23.7499 -23.5504 -23.2288 -20.5673 -12.3677  -2.9648  -2.6128
    -2.5435  -1.6071  -0.7440   0.3346   3.7209   5.8436   6.4987   7.0892
     7.6007   8.4136   9.9384  11.0842  12.1791  12.6558  14.3865  14.7834
    15.4668  16.5007

          k = 0.1250 0.4330 0.0000 (  5797 PWs)   bands (ev):

   -45.3335 -23.7893 -23.5610 -23.2591 -20.5612 -12.2229  -3.0402  -2.6191
    -2.5427  -1.9945  -0.6969   0.1335   3.7054   6.1507   6.6077   7.2312
     7.7742   9.1819  10.1674  11.3740  12.1450  12.6263  13.7897  14.4727
    15.2442  16.3218

          k = 0.1250 0.5052 0.0000 (  5784 PWs)   bands (ev):

   -45.3274 -23.8316 -23.5499 -23.2795 -20.5592 -12.1212  -3.0920  -2.7081
    -2.5193  -2.1948  -0.6581   0.0043   3.7087   6.4277   6.7048   7.3137
     7.8216   9.9459  10.3523  11.4986  12.1175  12.5963  13.1564  14.2281
    14.8800  15.6311

          k = 0.1250 0.5774 0.0000 (  5794 PWs)   bands (ev):

   -45.3253 -23.8480 -23.5440 -23.2867 -20.5588 -12.0845  -3.1114  -2.7560
    -2.5135  -2.2457  -0.6436  -0.0403   3.7132   6.5195   6.7847   7.3171
     7.8294  10.1635  10.7088  11.5999  11.7112  12.4558  13.2912  14.0779
    14.8523  15.1227

          k = 0.1875 0.3248 0.0000 (  5784 PWs)   bands (ev):

   -45.3434 -23.7419 -23.5405 -23.2407 -20.5664 -12.3816  -2.9262  -2.6345
    -2.5529  -1.4788  -0.7581   0.2168   3.7991   5.7189   6.5492   6.9806
     7.6034   8.3990   9.9587  11.1528  12.5190  12.7365  13.8542  14.6678
    15.7964  16.2693

          k = 0.1875 0.3969 0.0000 (  5803 PWs)   bands (ev):

   -45.3344 -23.7619 -23.5565 -23.2883 -20.5576 -12.2380  -2.9806  -2.6408
    -2.5502  -1.7951  -0.7288  -0.1183   3.8635   5.9296   6.6705   7.0445
     7.7819   9.1901  10.2776  11.6077  12.4196  12.7242  13.9522  14.5092
    14.8694  15.9117

          k = 0.1875 0.4691 0.0000 (  5803 PWs)   bands (ev):

   -45.3274 -23.7940 -23.5477 -23.3268 -20.5530 -12.1224  -3.0247  -2.7162
    -2.5148  -2.0045  -0.7011  -0.3618   3.9297   6.2307   6.6679   7.2025
     7.7671  10.0450  10.4939  11.9008  12.3358  12.8382  13.4027  14.1241
    14.9296  15.7277

          k = 0.1875 0.5413 0.0000 (  5779 PWs)   bands (ev):

   -45.3237 -23.8149 -23.5381 -23.3483 -20.5511 -12.0576  -3.0497  -2.7766
    -2.4991  -2.0957  -0.6893  -0.4850   3.9729   6.4864   6.6550   7.3272
     7.6465  10.3730  11.0939  11.9402  12.1377  12.5856  13.3094  14.1801
    14.7364  15.3571

          k = 0.2500 0.4330 0.0000 (  5818 PWs)   bands (ev):

   -45.3274 -23.7764 -23.5461 -23.3492 -20.5504 -12.1229  -3.0030  -2.7115
    -2.5123  -1.8957  -0.7620  -0.4975   4.0323   6.0859   6.7208   7.1124
     7.7833  10.0700  10.5551  11.9533  12.4719  13.0796  13.7018  14.2084
    14.6621  15.2351

          k = 0.2500 0.5052 0.0000 (  5783 PWs)   bands (ev):

   -45.3228 -23.7846 -23.5347 -23.3955 -20.5461 -12.0431  -3.0362  -2.7429
    -2.4854  -1.9305  -0.9514  -0.6101   4.1686   6.3102   6.6371   7.2827
     7.6453  10.4858  11.1152  11.9050  12.7666  13.2431  13.4072  14.0075
    14.6395  15.2122

          k = 0.2500 0.5774 0.0000 (  5778 PWs)   bands (ev):

   -45.3212 -23.7866 -23.5301 -23.4130 -20.5447 -12.0145  -3.0535  -2.7472
    -2.4759  -1.9349  -1.0564  -0.6191   4.2210   6.4603   6.5787   7.3279
     7.5697  10.4597  11.8265  12.0640  12.1088  13.2010  13.6145  14.0634
    14.6577  15.2836

          k = 0.3125 0.5413 0.0000 (  5772 PWs)   bands (ev):

   -45.3203 -23.7710 -23.5275 -23.4414 -20.5423 -11.9993  -3.0656  -2.7173
    -2.4634  -1.7883  -1.3289  -0.6262   4.3298   6.4161   6.5629   7.2570
     7.6185  10.4588  11.8248  12.0203  12.8506  13.0597  13.8241  13.9765
    14.7595  15.3834

     highest occupied, lowest unoccupied level (ev):     4.3298    5.5475

!    total energy              =    -571.23460664 Ry
     total all-electron energy =    -12610.612018 Ry
     estimated scf accuracy    <          7.8E-11 Ry

     The total energy is the sum of the following terms:
     one-electron contribution =    -278.48471263 Ry
     hartree contribution      =     147.76806824 Ry
     xc contribution           =     -36.35345477 Ry
     ewald contribution        =      -7.30906174 Ry
     one-center paw contrib.   =    -396.85544575 Ry

     convergence has been achieved in   5 iterations

     negative rho (up, down):  3.033E-05 0.000E+00

     Forces acting on atoms (cartesian axes, Ry/au):

     atom    1 type  1   force =     0.00000000   -0.00000000    0.00005143
     atom    2 type  2   force =     0.00000000    0.00000000   -0.00003428
     atom    3 type  3   force =     0.00000000    0.00000000   -0.00001715
     The non-local contrib.  to forces
     atom    1 type  1   force =     0.00000000   -0.00000000   -0.02455686
     atom    2 type  2   force =     0.00000000    0.00000000   -0.99992135
     atom    3 type  3   force =     0.00000000   -0.00000000    0.21116525
     The ionic contribution  to forces
     atom    1 type  1   force =    -0.00000001    0.00000001   -0.57173780
     atom    2 type  2   force =     0.00000001   -0.00000001   24.63405056
     atom    3 type  3   force =     0.00000000   -0.00000000  -24.06231276
     The local contribution  to forces
     atom    1 type  1   force =    -0.00000000    0.00000000    0.59223187
     atom    2 type  2   force =     0.00000027   -0.00000026  -23.63741469
     atom    3 type  3   force =    -0.00000000    0.00000000   23.85373891
     The core correction contribution to forces
     atom    1 type  1   force =    -0.00000000    0.00000000    0.00410562
     atom    2 type  2   force =     0.00000000   -0.00000000    0.00324339
     atom    3 type  3   force =    -0.00000000    0.00000000   -0.00261086
     The Hubbard contrib.    to forces
     atom    1 type  1   force =     0.00000000    0.00000000    0.00000000
     atom    2 type  2   force =     0.00000000    0.00000000    0.00000000
     atom    3 type  3   force =     0.00000000    0.00000000    0.00000000
     The SCF correction term to forces
     atom    1 type  1   force =    -0.00000000    0.00000000    0.00000644
     atom    2 type  2   force =     0.00000000   -0.00000000    0.00000564
     atom    3 type  3   force =     0.00000000   -0.00000000    0.00000013

     Total force =     0.000064     Total SCF correction =     0.000009
     SCF correction compared to forces is large: reduce conv_thr to get better values
     Energy error            =      1.0E-07 Ry
     Gradient error          =      5.1E-05 Ry/Bohr

     bfgs converged in   6 scf cycles and   5 bfgs steps
     (criteria: energy <  1.0E-05 Ry, force <  1.0E-04 Ry/Bohr)

     End of BFGS Geometry Optimization

     Final energy             =    -571.2346066390 Ry

     File ./tmp/ZrFBr.bfgs deleted, as requested
Begin final coordinates

ATOMIC_POSITIONS (angstrom)
Zr            0.0000000000        0.0000000000       10.1027556932
F            -0.0000000020        1.9309038816       11.4095371874
Br           -0.0000000020        1.9309038816        8.2058858323
End final coordinates



     Writing all to output data dir ./tmp/ZrFBr.save/

     init_run     :      0.32s CPU      0.35s WALL (       1 calls)
     electrons    :     26.16s CPU     27.01s WALL (       6 calls)
     update_pot   :      0.58s CPU      0.62s WALL (       5 calls)
     forces       :      0.66s CPU      0.66s WALL (       6 calls)

     Called by init_run:
     wfcinit      :      0.17s CPU      0.17s WALL (       1 calls)
     potinit      :      0.07s CPU      0.08s WALL (       1 calls)
     hinit0       :      0.06s CPU      0.07s WALL (       1 calls)

     Called by electrons:
     c_bands      :     21.24s CPU     21.63s WALL (      43 calls)
     sum_band     :      3.08s CPU      3.17s WALL (      43 calls)
     v_of_rho     :      0.14s CPU      0.15s WALL (      43 calls)
     newd         :      0.24s CPU      0.27s WALL (      43 calls)
     PAW_pot      :      1.92s CPU      2.34s WALL (      48 calls)
     mix_rho      :      0.01s CPU      0.01s WALL (      43 calls)

     Called by c_bands:
     init_us_2    :      0.15s CPU      0.16s WALL (    2940 calls)
     init_us_2:cp :      0.15s CPU      0.15s WALL (    2940 calls)
     cegterg      :     20.88s CPU     21.27s WALL (    1290 calls)

     Called by *egterg:
     cdiaghg      :      3.26s CPU      3.29s WALL (    4045 calls)
     h_psi        :     12.30s CPU     12.63s WALL (    4405 calls)
     s_psi        :      0.62s CPU      0.63s WALL (    4405 calls)
     g_psi        :      0.03s CPU      0.03s WALL (    3085 calls)

     Called by h_psi:
     h_psi:calbec :      1.09s CPU      1.12s WALL (    4405 calls)
     vloc_psi     :     10.56s CPU     10.85s WALL (    4405 calls)
     add_vuspsi   :      0.62s CPU      0.63s WALL (    4405 calls)

     General routines
     calbec       :      1.86s CPU      1.90s WALL (    6565 calls)
     fft          :      0.13s CPU      0.13s WALL (     550 calls)
     ffts         :      0.01s CPU      0.01s WALL (      43 calls)
     fftw         :     11.95s CPU     12.27s WALL (  188844 calls)

     Parallel routines

     PWSCF        :     28.45s CPU     29.82s WALL


   This run was terminated on:   8:46:17  18Sep2026            

=------------------------------------------------------------------------------=
   JOB DONE.
=------------------------------------------------------------------------------=
Note: The following floating-point exceptions are signalling: IEEE_INVALID_FLAG
