
     Program PWSCF v.7.2 starts on 18Aug2026 at  7:37:37 

     This program is part of the open-source Quantum ESPRESSO suite
     for quantum simulation of materials; please cite
         "P. Giannozzi et al., J. Phys.:Condens. Matter 21 395502 (2009);
         "P. Giannozzi et al., J. Phys.:Condens. Matter 29 465901 (2017);
         "P. Giannozzi et al., J. Chem. Phys. 152 154105 (2020);
          URL http://www.quantum-espresso.org", 
     in publications or presentations arising from this work. More details at
     http://www.quantum-espresso.org/quote

     Parallel version (MPI), running on    32 processors

     MPI processes distributed on     1 nodes
     219072 MiB available memory on the printing compute node when the environment starts

     Waiting for input...
     Reading input from standard input

     Current dimensions of program PWSCF are:
     Max number of different atomic species (ntypx) = 10
     Max number of k-points (npk) =  40000
     Max angular momentum in pseudopotentials (lmaxx) =  4
     file Zr.pbe-spn-kjpaw_psl.1.0.0.UPF: wavefunction(s)  4S 4P renormalized
     file F.pbe-n-kjpaw_psl.1.0.0.UPF: wavefunction(s)  2S 2P renormalized
     file Br.pbe-n-kjpaw_psl.1.0.0.UPF: wavefunction(s)  4S 4P renormalized
     Message from routine setup:
     using ibrav=0 with symmetry is DISCOURAGED, use correct ibrav instead

     R & G space division:  proc/nbgrp/npool/nimage =      32
     Subspace diagonalization in iterative solution of the eigenvalue problem:
     a serial algorithm will be used


     Parallelization info
     --------------------
     sticks:   dense  smooth     PW     G-vecs:    dense   smooth      PW
     Min          22      22      6                 1442     1442     220
     Max          23      23      8                 1450     1450     233
     Sum         721     721    211                46261    46261    7127

     Using Slab Decomposition



     bravais-lattice index     =            0
     lattice parameter (alat)  =       6.3200  a.u.
     unit-cell volume          =     653.6869 (a.u.)^3
     number of atoms/cell      =            3
     number of atomic types    =            3
     number of electrons       =        26.00
     number of Kohn-Sham states=           26
     kinetic-energy cutoff     =      65.0000  Ry
     charge density cutoff     =     260.0000  Ry
     scf convergence threshold =      1.0E-06
     mixing beta               =       0.7000
     number of iterations used =            8  plain     mixing
     Exchange-correlation= SLA  PW   PBX  PBC
                           (   1   4   3   4   0   0   0)

     celldm(1)=   6.320045  celldm(2)=   0.000000  celldm(3)=   0.000000
     celldm(4)=   0.000000  celldm(5)=   0.000000  celldm(6)=   0.000000

     crystal axes: (cart. coord. in units of alat)
               a(1) = (   1.000000  -0.000000  -0.000000 )  
               a(2) = (  -0.500000   0.866025  -0.000000 )  
               a(3) = (   0.000000   0.000000   2.990052 )  

     reciprocal axes: (cart. coord. in units 2 pi/alat)
               b(1) = (  1.000000  0.577350 -0.000000 )  
               b(2) = (  0.000000  1.154701 -0.000000 )  
               b(3) = (  0.000000  0.000000  0.334442 )  


     PseudoPot. # 1 for Zr read from file:
     /mgpfs/home/rabdillah/repo/qe/pseudo/Zr.pbe-spn-kjpaw_psl.1.0.0.UPF
     MD5 check sum: 02112c41713a0468aff2bb39ef194e36
     Pseudo is Projector augmented-wave + core cor, Zval = 12.0
     Generated using &quot;atomic&quot; code by A. Dal Corso  v.6.2.2
     Shape of augmentation charge: PSQ
     Using radial grid of 1225 points,  6 beta functions with: 
                l(1) =   0
                l(2) =   0
                l(3) =   1
                l(4) =   1
                l(5) =   2
                l(6) =   2
     Q(r) pseudized with 0 coefficients 


     PseudoPot. # 2 for F  read from file:
     /mgpfs/home/rabdillah/repo/qe/pseudo/F.pbe-n-kjpaw_psl.1.0.0.UPF
     MD5 check sum: 66d718ea72839a4268ab2a9540e8cdd4
     Pseudo is Projector augmented-wave + core cor, Zval =  7.0
     Generated using &quot;atomic&quot; code by A. Dal Corso  v.6.3
     Shape of augmentation charge: PSQ
     Using radial grid of 1105 points,  4 beta functions with: 
                l(1) =   0
                l(2) =   0
                l(3) =   1
                l(4) =   1
     Q(r) pseudized with 0 coefficients 


     PseudoPot. # 3 for Br read from file:
     /mgpfs/home/rabdillah/repo/qe/pseudo/Br.pbe-n-kjpaw_psl.1.0.0.UPF
     MD5 check sum: b00de77caabc69c0a6b76eb37264f235
     Pseudo is Projector augmented-wave + core cor, Zval =  7.0
     Generated using &quot;atomic&quot; code by A. Dal Corso  v.6.3
     Shape of augmentation charge: PSQ
     Using radial grid of 1213 points,  4 beta functions with: 
                l(1) =   0
                l(2) =   0
                l(3) =   1
                l(4) =   1
     Q(r) pseudized with 0 coefficients 


     atomic species   valence    mass     pseudopotential
        Zr            12.00    91.22400     Zr( 1.00)
        F              7.00    18.99800     F ( 1.00)
        Br             7.00    79.90400     Br( 1.00)

      6 Sym. Ops. (no inversion) found



   Cartesian axes

     site n.     atom                  positions (alat units)
         1           Zr  tau(   1) = (   0.0000000   0.0000000   3.0210788  )
         2           F   tau(   2) = (  -0.0000000   0.5773503   3.4105834  )
         3           Br  tau(   3) = (  -0.0000000   0.5773503   2.4542273  )

     number of k points=    14
                       cart. coord. in units 2pi/alat
        k(    1) = (   0.0000000   0.0000000   0.0000000), wk =   0.0200000
        k(    2) = (   0.0000000   0.1154701   0.0000000), wk =   0.1200000
        k(    3) = (   0.0000000   0.2309401   0.0000000), wk =   0.1200000
        k(    4) = (   0.0000000   0.3464102   0.0000000), wk =   0.1200000
        k(    5) = (   0.0000000   0.4618802   0.0000000), wk =   0.1200000
        k(    6) = (   0.0000000  -0.5773503   0.0000000), wk =   0.0600000
        k(    7) = (   0.1000000   0.1732051   0.0000000), wk =   0.1200000
        k(    8) = (   0.1000000   0.2886751   0.0000000), wk =   0.2400000
        k(    9) = (   0.1000000   0.4041452   0.0000000), wk =   0.2400000
        k(   10) = (   0.1000000   0.5196152   0.0000000), wk =   0.2400000
        k(   11) = (   0.2000000   0.3464102   0.0000000), wk =   0.1200000
        k(   12) = (   0.2000000   0.4618802   0.0000000), wk =   0.2400000
        k(   13) = (   0.2000000   0.5773503   0.0000000), wk =   0.1200000
        k(   14) = (   0.3000000   0.5196152   0.0000000), wk =   0.1200000

     Dense  grid:    46261 G-vectors     FFT dimensions: (  36,  36, 100)

     Estimated max dynamical RAM per process >      10.21 MB

     Estimated total dynamical RAM >     326.82 MB

     Check: negative core charge=   -0.000002

     Initial potential from superposition of free atoms

     starting charge      25.9978, renormalised to      26.0000

     negative rho (up, down):  4.247E-07 0.000E+00
     Starting wfcs are   21 randomized atomic wfcs +    5 random wfcs
     Checking if some PAW data can be deallocated... 

     total cpu time spent up to now is        0.8 secs

     Self-consistent Calculation

     iteration #  1     ecut=    65.00 Ry     beta= 0.70
     Davidson diagonalization with overlap
     ethr =  1.00E-02,  avg # of iterations =  5.6

     Threshold (ethr) on eigenvalues was too large:
     Diagonalizing with lowered threshold

     Davidson diagonalization with overlap
     ethr =  9.55E-04,  avg # of iterations =  1.0

     negative rho (up, down):  2.560E-05 0.000E+00

     total cpu time spent up to now is        1.6 secs

     total energy              =    -571.11626918 Ry
     estimated scf accuracy    <       0.24990950 Ry

     iteration #  2     ecut=    65.00 Ry     beta= 0.70
     Davidson diagonalization with overlap
     ethr =  9.61E-04,  avg # of iterations =  3.6

     negative rho (up, down):  1.666E-06 0.000E+00

     total cpu time spent up to now is        2.0 secs

     total energy              =    -571.10618221 Ry
     estimated scf accuracy    <       0.59951829 Ry

     iteration #  3     ecut=    65.00 Ry     beta= 0.70
     Davidson diagonalization with overlap
     ethr =  9.61E-04,  avg # of iterations =  2.4

     negative rho (up, down):  4.623E-06 0.000E+00

     total cpu time spent up to now is        2.3 secs

     total energy              =    -571.22897321 Ry
     estimated scf accuracy    <       0.02410770 Ry

     iteration #  4     ecut=    65.00 Ry     beta= 0.70
     Davidson diagonalization with overlap
     ethr =  9.27E-05,  avg # of iterations =  3.1

     negative rho (up, down):  1.322E-05 0.000E+00

     total cpu time spent up to now is        2.7 secs

     total energy              =    -571.23364164 Ry
     estimated scf accuracy    <       0.00356659 Ry

     iteration #  5     ecut=    65.00 Ry     beta= 0.70
     Davidson diagonalization with overlap
     ethr =  1.37E-05,  avg # of iterations =  3.6

     negative rho (up, down):  2.427E-05 0.000E+00

     total cpu time spent up to now is        3.1 secs

     total energy              =    -571.23435204 Ry
     estimated scf accuracy    <       0.00125798 Ry

     iteration #  6     ecut=    65.00 Ry     beta= 0.70
     Davidson diagonalization with overlap
     ethr =  4.84E-06,  avg # of iterations =  2.1

     negative rho (up, down):  2.857E-05 0.000E+00

     total cpu time spent up to now is        3.4 secs

     total energy              =    -571.23459899 Ry
     estimated scf accuracy    <       0.00001553 Ry

     iteration #  7     ecut=    65.00 Ry     beta= 0.70
     Davidson diagonalization with overlap
     ethr =  5.97E-08,  avg # of iterations =  2.1

     negative rho (up, down):  3.003E-05 0.000E+00

     total cpu time spent up to now is        3.8 secs

     End of self-consistent calculation

          k = 0.0000 0.0000 0.0000 (  5755 PWs)   bands (ev):

   -45.3798 -23.8615 -23.0895 -23.0895 -20.6714 -12.9856  -3.1580  -2.4702
    -2.4702  -1.1355   1.3973   1.3973   3.7864   5.8363   5.8363   5.9202
     6.8118   6.8118   7.9414   8.7995  11.1542  14.0096  14.7205  14.7205
    15.3266  17.2566

          k = 0.0000 0.1155 0.0000 (  5770 PWs)   bands (ev):

   -45.3741 -23.8398 -23.1672 -23.1016 -20.6507 -12.9139  -3.0741  -2.5584
    -2.4700  -1.0824   0.8577   1.2957   3.8184   5.7066   5.9526   6.0903
     6.7745   6.9359   8.2532   9.2967  11.5046  13.8958  14.1464  15.0563
    15.0648  17.7545

          k = 0.0000 0.2309 0.0000 (  5778 PWs)   bands (ev):

   -45.3591 -23.7863 -23.3541 -23.1333 -20.6101 -12.7166  -2.9083  -2.7179
    -2.4753  -1.0011  -0.2470   1.0506   3.7719   5.6493   6.1910   6.3308
     7.2096   7.2308   8.9817  10.0756  12.0740  13.2476  13.7053  15.5172
    16.0655  17.2479

          k = 0.0000 0.3464 0.0000 (  5800 PWs)   bands (ev):

   -45.3405 -23.7520 -23.5311 -23.1721 -20.5817 -12.4500  -2.9963  -2.6391
    -2.4931  -1.5139  -0.7411   0.7823   3.5863   5.8613   6.5342   6.9235
     7.5115   7.9659   9.6690  10.6212  11.7988  12.6780  14.8136  15.3734
    16.4895  16.4942

          k = 0.0000 0.4619 0.0000 (  5782 PWs)   bands (ev):

   -45.3254 -23.8251 -23.5585 -23.2032 -20.5731 -12.2118  -3.1423  -2.5806
    -2.5157  -2.2451  -0.6660   0.5879   3.4556   6.1996   6.8612   7.3700
     7.9336   8.9239   9.9083  10.9446  11.9637  12.5790  13.4142  15.0017
    15.3416  15.6846

          k = 0.0000-0.5774 0.0000 (  5798 PWs)   bands (ev):

   -45.3196 -23.8743 -23.5447 -23.2151 -20.5728 -12.1143  -3.2145  -2.6439
    -2.5262  -2.4262  -0.6272   0.5181   3.4240   6.4480   6.8359   7.4731
     8.2245   9.6711  10.0144  11.1887  11.6119  12.4156  13.3300  14.1480
    14.7926  15.2742

          k = 0.1000 0.1732 0.0000 (  5758 PWs)   bands (ev):

   -45.3637 -23.8019 -23.2946 -23.1286 -20.6204 -12.7791  -2.9375  -2.6857
    -2.4791  -1.0118   0.0963   1.0600   3.8221   5.5808   6.2050   6.2542
     6.9393   7.2023   8.7751   9.9029  12.1695  13.1818  13.7427  15.1230
    15.9363  17.0281

          k = 0.1000 0.2887 0.0000 (  5781 PWs)   bands (ev):

   -45.3469 -23.7517 -23.4695 -23.1761 -20.5872 -12.5454  -2.8936  -2.7101
    -2.5088  -1.1171  -0.7108   0.6848   3.7451   5.6595   6.3458   6.8342
     7.3064   7.7421   9.5072  10.5931  12.2596  12.9154  13.7594  15.5542
    16.1949  16.7101

          k = 0.1000 0.4041 0.0000 (  5796 PWs)   bands (ev):

   -45.3300 -23.7716 -23.5572 -23.2240 -20.5702 -12.2885  -3.0381  -2.5936
    -2.5556  -1.8788  -0.7075   0.3546   3.6522   6.0501   6.5778   7.2241
     7.7092   8.7174  10.0151  11.1219  12.0336  12.5954  14.2225  14.7561
    15.4330  16.4602

          k = 0.1000 0.5196 0.0000 (  5792 PWs)   bands (ev):

   -45.3196 -23.8442 -23.5438 -23.2537 -20.5665 -12.1154  -3.1349  -2.7019
    -2.5289  -2.2646  -0.6421   0.1664   3.6275   6.4470   6.7800   7.3517
     7.9107   9.8894  10.2783  11.3474  11.9996  12.5187  13.1719  14.2600
    14.8413  15.4601

          k = 0.2000 0.3464 0.0000 (  5792 PWs)   bands (ev):

   -45.3318 -23.7438 -23.5448 -23.2538 -20.5669 -12.3174  -2.9579  -2.6313
    -2.5739  -1.6042  -0.7418   0.0734   3.8351   5.7961   6.6236   6.9992
     7.7081   8.6964  10.1066  11.3423  12.5096  12.7233  14.0388  14.4104
    15.4393  16.1088

          k = 0.2000 0.4619 0.0000 (  5803 PWs)   bands (ev):

   -45.3196 -23.7861 -23.5405 -23.3274 -20.5565 -12.1172  -3.0272  -2.7237
    -2.5218  -1.9669  -0.7093  -0.4072   3.9721   6.1927   6.6914   7.1856
     7.7803  10.0533  10.5247  11.9336  12.3856  12.9014  13.4876  14.1272
    14.8862  15.5836

          k = 0.2000 0.5774 0.0000 (  5790 PWs)   bands (ev):

   -45.3149 -23.8092 -23.5285 -23.3575 -20.5539 -12.0365  -3.0590  -2.7886
    -2.5009  -2.0735  -0.7255  -0.5530   4.0398   6.5178   6.6491   7.3631
     7.6052  10.4136  11.4954  11.8520  12.0626  12.6414  13.4253  14.1840
    14.7415  15.2242

          k = 0.3000 0.5196 0.0000 (  5776 PWs)   bands (ev):

   -45.3131 -23.7733 -23.5226 -23.4217 -20.5475 -12.0061  -3.0665  -2.7346
    -2.4777  -1.8391  -1.2033  -0.6170   4.2921   6.3771   6.6004   7.3003
     7.6213  10.4893  11.6540  11.8491  12.9780  13.1704  13.6926  13.8936
    14.6927  15.2532

     highest occupied, lowest unoccupied level (ev):     4.2921    5.5808

!    total energy              =    -571.23460331 Ry
     total all-electron energy =    -12610.612015 Ry
     estimated scf accuracy    <       0.00000058 Ry

     The total energy is the sum of the following terms:
     one-electron contribution =    -278.96621600 Ry
     hartree contribution      =     148.01093434 Ry
     xc contribution           =     -36.35533688 Ry
     ewald contribution        =      -7.06850514 Ry
     one-center paw contrib.   =    -396.85547963 Ry

     convergence has been achieved in   7 iterations

     Writing all to output data dir ./out/ZrFBr.save/

     init_run     :      0.38s CPU      0.44s WALL (       1 calls)
     electrons    :      2.87s CPU      3.02s WALL (       1 calls)

     Called by init_run:
     wfcinit      :      0.19s CPU      0.20s WALL (       1 calls)
     potinit      :      0.07s CPU      0.11s WALL (       1 calls)
     hinit0       :      0.09s CPU      0.10s WALL (       1 calls)

     Called by electrons:
     c_bands      :      2.18s CPU      2.23s WALL (       8 calls)
     sum_band     :      0.33s CPU      0.33s WALL (       8 calls)
     v_of_rho     :      0.03s CPU      0.03s WALL (       8 calls)
     newd         :      0.05s CPU      0.05s WALL (       8 calls)
     PAW_pot      :      0.33s CPU      0.40s WALL (       8 calls)
     mix_rho      :      0.00s CPU      0.00s WALL (       8 calls)

     Called by c_bands:
     init_us_2    :      0.01s CPU      0.01s WALL (     238 calls)
     init_us_2:cp :      0.01s CPU      0.01s WALL (     238 calls)
     cegterg      :      2.15s CPU      2.19s WALL (     112 calls)

     Called by *egterg:
     cdiaghg      :      0.36s CPU      0.36s WALL (     429 calls)
     h_psi        :      1.41s CPU      1.45s WALL (     457 calls)
     s_psi        :      0.06s CPU      0.06s WALL (     457 calls)
     g_psi        :      0.00s CPU      0.00s WALL (     331 calls)

     Called by h_psi:
     h_psi:calbec :      0.12s CPU      0.12s WALL (     457 calls)
     vloc_psi     :      1.23s CPU      1.27s WALL (     457 calls)
     add_vuspsi   :      0.06s CPU      0.06s WALL (     457 calls)

     General routines
     calbec       :      0.16s CPU      0.16s WALL (     569 calls)
     fft          :      0.01s CPU      0.01s WALL (      89 calls)
     ffts         :      0.00s CPU      0.00s WALL (       8 calls)
     fftw         :      1.37s CPU      1.41s WALL (   17836 calls)

     Parallel routines

     PWSCF        :      3.59s CPU      4.26s WALL


   This run was terminated on:   7:37:41  18Aug2026            

=------------------------------------------------------------------------------=
   JOB DONE.
=------------------------------------------------------------------------------=
