
     Program PWSCF v.7.2 starts on 18Sep2026 at  8:40:44 

     This program is part of the open-source Quantum ESPRESSO suite
     for quantum simulation of materials; please cite
         "P. Giannozzi et al., J. Phys.:Condens. Matter 21 395502 (2009);
         "P. Giannozzi et al., J. Phys.:Condens. Matter 29 465901 (2017);
         "P. Giannozzi et al., J. Chem. Phys. 152 154105 (2020);
          URL http://www.quantum-espresso.org", 
     in publications or presentations arising from this work. More details at
     http://www.quantum-espresso.org/quote

     Parallel version (MPI), running on    32 processors

     MPI processes distributed on     1 nodes
     228839 MiB available memory on the printing compute node when the environment starts

     Waiting for input...
     Reading input from standard input

     Current dimensions of program PWSCF are:
     Max number of different atomic species (ntypx) = 10
     Max number of k-points (npk) =  40000
     Max angular momentum in pseudopotentials (lmaxx) =  4
     file Zr.pbe-spn-kjpaw_psl.1.0.0.UPF: wavefunction(s)  4S 4P renormalized
     file Cl.pbe-n-kjpaw_psl.1.0.0.UPF: wavefunction(s)  3S 3P renormalized
     file Br.pbe-n-kjpaw_psl.1.0.0.UPF: wavefunction(s)  4S 4P renormalized
     Message from routine setup:
     using ibrav=0 with symmetry is DISCOURAGED, use correct ibrav instead

     R & G space division:  proc/nbgrp/npool/nimage =      32
     Subspace diagonalization in iterative solution of the eigenvalue problem:
     a serial algorithm will be used


     Parallelization info
     --------------------
     sticks:   dense  smooth     PW     G-vecs:    dense   smooth      PW
     Min          23      23      6                 1547     1547     236
     Max          24      24      7                 1566     1566     253
     Sum         765     765    223                49873    49873    7855

     Using Slab Decomposition



     bravais-lattice index     =            0
     lattice parameter (alat)  =       6.5934  a.u.
     unit-cell volume          =     704.3481 (a.u.)^3
     number of atoms/cell      =            3
     number of atomic types    =            3
     number of electrons       =        26.00
     number of Kohn-Sham states=           26
     kinetic-energy cutoff     =      65.0000  Ry
     charge density cutoff     =     260.0000  Ry
     scf convergence threshold =      1.0E-08
     mixing beta               =       0.7000
     number of iterations used =            8  plain     mixing
     energy convergence thresh.=      1.0E-05
     force convergence thresh. =      1.0E-04
     Exchange-correlation= SLA  PW   PBX  PBC
                           (   1   4   3   4   0   0   0)
     nstep                     =           50


     celldm(1)=   6.593429  celldm(2)=   0.000000  celldm(3)=   0.000000
     celldm(4)=   0.000000  celldm(5)=   0.000000  celldm(6)=   0.000000

     crystal axes: (cart. coord. in units of alat)
               a(1) = (   1.000000   0.000000   0.000000 )  
               a(2) = (  -0.500000   0.857365   0.000000 )  
               a(3) = (   0.000000   0.000000   2.866075 )  

     reciprocal axes: (cart. coord. in units 2 pi/alat)
               b(1) = (  1.000000  0.583182 -0.000000 )  
               b(2) = (  0.000000  1.166364  0.000000 )  
               b(3) = (  0.000000 -0.000000  0.348909 )  


     PseudoPot. # 1 for Zr read from file:
     /mgpfs/home/rabdillah/repo/qe/pseudo/Zr.pbe-spn-kjpaw_psl.1.0.0.UPF
     MD5 check sum: 02112c41713a0468aff2bb39ef194e36
     Pseudo is Projector augmented-wave + core cor, Zval = 12.0
     Generated using &quot;atomic&quot; code by A. Dal Corso  v.6.2.2
     Shape of augmentation charge: PSQ
     Using radial grid of 1225 points,  6 beta functions with: 
                l(1) =   0
                l(2) =   0
                l(3) =   1
                l(4) =   1
                l(5) =   2
                l(6) =   2
     Q(r) pseudized with 0 coefficients 


     PseudoPot. # 2 for Cl read from file:
     /mgpfs/home/rabdillah/repo/qe/pseudo/Cl.pbe-n-kjpaw_psl.1.0.0.UPF
     MD5 check sum: 530da96d25dcb7781b0586ca00827062
     Pseudo is Projector augmented-wave + core cor, Zval =  7.0
     Generated using &quot;atomic&quot; code by A. Dal Corso  v.6.3
     Shape of augmentation charge: PSQ
     Using radial grid of 1157 points,  6 beta functions with: 
                l(1) =   0
                l(2) =   0
                l(3) =   1
                l(4) =   1
                l(5) =   2
                l(6) =   2
     Q(r) pseudized with 0 coefficients 


     PseudoPot. # 3 for Br read from file:
     /mgpfs/home/rabdillah/repo/qe/pseudo/Br.pbe-n-kjpaw_psl.1.0.0.UPF
     MD5 check sum: b00de77caabc69c0a6b76eb37264f235
     Pseudo is Projector augmented-wave + core cor, Zval =  7.0
     Generated using &quot;atomic&quot; code by A. Dal Corso  v.6.3
     Shape of augmentation charge: PSQ
     Using radial grid of 1213 points,  4 beta functions with: 
                l(1) =   0
                l(2) =   0
                l(3) =   1
                l(4) =   1
     Q(r) pseudized with 0 coefficients 


     atomic species   valence    mass     pseudopotential
        Zr            12.00    91.22400     Zr( 1.00)
        Cl             7.00    35.45300     Cl( 1.00)
        Br             7.00    79.90400     Br( 1.00)

      2 Sym. Ops. (no inversion) found



   Cartesian axes

     site n.     atom                  positions (alat units)
         1           Zr  tau(   1) = (   0.0000000   0.0000000   2.9453878  )
         2           Cl  tau(   2) = (  -0.0000000   0.5773503   3.4291986  )
         3           Br  tau(   3) = (  -0.0000000   0.5773503   2.4137016  )

     number of k points=    73
                       cart. coord. in units 2pi/alat
        k(    1) = (   0.0000000   0.0000000   0.0000000), wk =   0.0078125
        k(    2) = (   0.0000000   0.0728978   0.0000000), wk =   0.0156250
        k(    3) = (   0.0000000   0.1457955   0.0000000), wk =   0.0156250
        k(    4) = (   0.0000000   0.2186933   0.0000000), wk =   0.0156250
        k(    5) = (   0.0000000   0.2915910   0.0000000), wk =   0.0156250
        k(    6) = (   0.0000000   0.3644888   0.0000000), wk =   0.0156250
        k(    7) = (   0.0000000   0.4373866   0.0000000), wk =   0.0156250
        k(    8) = (   0.0000000   0.5102843   0.0000000), wk =   0.0156250
        k(    9) = (   0.0000000  -0.5831821   0.0000000), wk =   0.0078125
        k(   10) = (   0.0625000   0.0364489   0.0000000), wk =   0.0312500
        k(   11) = (   0.0625000   0.1093466   0.0000000), wk =   0.0312500
        k(   12) = (   0.0625000   0.1822444   0.0000000), wk =   0.0312500
        k(   13) = (   0.0625000   0.2551422   0.0000000), wk =   0.0312500
        k(   14) = (   0.0625000   0.3280399   0.0000000), wk =   0.0312500
        k(   15) = (   0.0625000   0.4009377   0.0000000), wk =   0.0312500
        k(   16) = (   0.0625000   0.4738354   0.0000000), wk =   0.0312500
        k(   17) = (   0.0625000   0.5467332   0.0000000), wk =   0.0312500
        k(   18) = (   0.1250000   0.0728978   0.0000000), wk =   0.0312500
        k(   19) = (   0.1250000   0.1457955   0.0000000), wk =   0.0312500
        k(   20) = (   0.1250000   0.2186933   0.0000000), wk =   0.0312500
        k(   21) = (   0.1250000   0.2915910   0.0000000), wk =   0.0312500
        k(   22) = (   0.1250000   0.3644888   0.0000000), wk =   0.0312500
        k(   23) = (   0.1250000   0.4373866   0.0000000), wk =   0.0312500
        k(   24) = (   0.1250000   0.5102843   0.0000000), wk =   0.0312500
        k(   25) = (   0.1250000   0.5831821   0.0000000), wk =   0.0156250
        k(   26) = (   0.1250000   0.0000000   0.0000000), wk =   0.0156250
        k(   27) = (   0.1875000   0.1093466   0.0000000), wk =   0.0312500
        k(   28) = (   0.1875000   0.1822444   0.0000000), wk =   0.0312500
        k(   29) = (   0.1875000   0.2551422   0.0000000), wk =   0.0312500
        k(   30) = (   0.1875000   0.3280399   0.0000000), wk =   0.0312500
        k(   31) = (   0.1875000   0.4009377   0.0000000), wk =   0.0312500
        k(   32) = (   0.1875000   0.4738354   0.0000000), wk =   0.0312500
        k(   33) = (   0.1875000   0.5467332   0.0000000), wk =   0.0312500
        k(   34) = (   0.1875000  -0.0364489   0.0000000), wk =   0.0312500
        k(   35) = (   0.2500000   0.1457955   0.0000000), wk =   0.0312500
        k(   36) = (   0.2500000   0.2186933   0.0000000), wk =   0.0312500
        k(   37) = (   0.2500000   0.2915910   0.0000000), wk =   0.0312500
        k(   38) = (   0.2500000   0.3644888   0.0000000), wk =   0.0312500
        k(   39) = (   0.2500000   0.4373866   0.0000000), wk =   0.0312500
        k(   40) = (   0.2500000   0.5102843   0.0000000), wk =   0.0312500
        k(   41) = (   0.2500000   0.5831821   0.0000000), wk =   0.0156250
        k(   42) = (   0.2500000  -0.0728978   0.0000000), wk =   0.0312500
        k(   43) = (   0.2500000   0.0000000   0.0000000), wk =   0.0156250
        k(   44) = (   0.3125000   0.1822444   0.0000000), wk =   0.0312500
        k(   45) = (   0.3125000   0.2551422   0.0000000), wk =   0.0312500
        k(   46) = (   0.3125000   0.3280399   0.0000000), wk =   0.0312500
        k(   47) = (   0.3125000   0.4009377   0.0000000), wk =   0.0312500
        k(   48) = (   0.3125000   0.4738354   0.0000000), wk =   0.0312500
        k(   49) = (   0.3125000   0.5467332   0.0000000), wk =   0.0312500
        k(   50) = (   0.3125000  -0.1093466   0.0000000), wk =   0.0312500
        k(   51) = (   0.3125000  -0.0364489   0.0000000), wk =   0.0312500
        k(   52) = (   0.3750000   0.2186933   0.0000000), wk =   0.0312500
        k(   53) = (   0.3750000   0.2915910   0.0000000), wk =   0.0312500
        k(   54) = (   0.3750000   0.3644888   0.0000000), wk =   0.0312500
        k(   55) = (   0.3750000   0.4373866   0.0000000), wk =   0.0312500
        k(   56) = (   0.3750000   0.5102843   0.0000000), wk =   0.0312500
        k(   57) = (   0.3750000   0.5831821   0.0000000), wk =   0.0156250
        k(   58) = (   0.3750000  -0.1457955   0.0000000), wk =   0.0312500
        k(   59) = (   0.3750000  -0.0728978   0.0000000), wk =   0.0312500
        k(   60) = (   0.3750000   0.0000000   0.0000000), wk =   0.0156250
        k(   61) = (   0.4375000   0.2551422   0.0000000), wk =   0.0312500
        k(   62) = (   0.4375000   0.3280399   0.0000000), wk =   0.0312500
        k(   63) = (   0.4375000   0.4009377   0.0000000), wk =   0.0312500
        k(   64) = (   0.4375000   0.4738354   0.0000000), wk =   0.0312500
        k(   65) = (   0.4375000   0.5467332   0.0000000), wk =   0.0312500
        k(   66) = (   0.4375000  -0.1822444   0.0000000), wk =   0.0312500
        k(   67) = (   0.4375000  -0.1093466   0.0000000), wk =   0.0312500
        k(   68) = (   0.4375000  -0.0364489   0.0000000), wk =   0.0312500
        k(   69) = (  -0.5000000  -0.2915910   0.0000000), wk =   0.0156250
        k(   70) = (  -0.5000000  -0.2186933   0.0000000), wk =   0.0312500
        k(   71) = (  -0.5000000  -0.1457955   0.0000000), wk =   0.0312500
        k(   72) = (  -0.5000000  -0.0728978   0.0000000), wk =   0.0312500
        k(   73) = (  -0.5000000   0.0000000   0.0000000), wk =   0.0156250

     Dense  grid:    49873 G-vectors     FFT dimensions: (  36,  36, 100)

     Estimated max dynamical RAM per process >      15.28 MB

     Estimated total dynamical RAM >     488.84 MB

     Check: negative core charge=   -0.000004

     Initial potential from superposition of free atoms

     starting charge      25.9978, renormalised to      26.0000
     Starting wfcs are   21 randomized atomic wfcs +    5 random wfcs
     Checking if some PAW data can be deallocated... 

     total cpu time spent up to now is        1.0 secs

     Self-consistent Calculation

     iteration #  1     ecut=    65.00 Ry     beta= 0.70
     Davidson diagonalization with overlap
     ethr =  1.00E-02,  avg # of iterations =  6.4

     Threshold (ethr) on eigenvalues was too large:
     Diagonalizing with lowered threshold

     Davidson diagonalization with overlap
     ethr =  4.73E-04,  avg # of iterations =  2.0

     negative rho (up, down):  6.917E-07 0.000E+00

     total cpu time spent up to now is        4.9 secs

     total energy              =    -591.18030661 Ry
     estimated scf accuracy    <       0.12650518 Ry

     iteration #  2     ecut=    65.00 Ry     beta= 0.70
     Davidson diagonalization with overlap
     ethr =  4.87E-04,  avg # of iterations =  4.9

     total cpu time spent up to now is        7.1 secs

     total energy              =    -591.17269413 Ry
     estimated scf accuracy    <       0.36655598 Ry

     iteration #  3     ecut=    65.00 Ry     beta= 0.70
     Davidson diagonalization with overlap
     ethr =  4.87E-04,  avg # of iterations =  2.5

     total cpu time spent up to now is        8.7 secs

     total energy              =    -591.24241102 Ry
     estimated scf accuracy    <       0.00618894 Ry

     iteration #  4     ecut=    65.00 Ry     beta= 0.70
     Davidson diagonalization with overlap
     ethr =  2.38E-05,  avg # of iterations =  6.8

     total cpu time spent up to now is       10.7 secs

     total energy              =    -591.24382125 Ry
     estimated scf accuracy    <       0.00039293 Ry

     iteration #  5     ecut=    65.00 Ry     beta= 0.70
     Davidson diagonalization with overlap
     ethr =  1.51E-06,  avg # of iterations =  4.4

     negative rho (up, down):  1.259E-08 0.000E+00

     total cpu time spent up to now is       12.6 secs

     total energy              =    -591.24388978 Ry
     estimated scf accuracy    <       0.00001518 Ry

     iteration #  6     ecut=    65.00 Ry     beta= 0.70
     Davidson diagonalization with overlap
     ethr =  5.84E-08,  avg # of iterations =  2.0

     negative rho (up, down):  1.486E-08 0.000E+00

     total cpu time spent up to now is       14.1 secs

     total energy              =    -591.24389158 Ry
     estimated scf accuracy    <       0.00000664 Ry

     iteration #  7     ecut=    65.00 Ry     beta= 0.70
     Davidson diagonalization with overlap
     ethr =  2.55E-08,  avg # of iterations =  2.0

     negative rho (up, down):  1.682E-08 0.000E+00

     total cpu time spent up to now is       15.6 secs

     total energy              =    -591.24389356 Ry
     estimated scf accuracy    <       0.00000201 Ry

     iteration #  8     ecut=    65.00 Ry     beta= 0.70
     Davidson diagonalization with overlap
     ethr =  7.71E-09,  avg # of iterations =  1.2

     negative rho (up, down):  1.733E-08 0.000E+00

     total cpu time spent up to now is       16.9 secs

     End of self-consistent calculation

          k = 0.0000 0.0000 0.0000 (  6283 PWs)   bands (ev):

   -44.6680 -22.9183 -22.5077 -22.4927 -12.6043 -12.0327  -1.9655   0.0985
     0.3792   0.4462   1.5721   1.6660   4.3944   6.1005   6.2381   6.8780
     6.9090   7.0501   8.5602   9.7060  11.4921  13.8148  13.9117  14.1502
    14.8804  15.3697

          k = 0.0000 0.0729 0.0000 (  6265 PWs)   bands (ev):

   -44.6666 -22.9140 -22.5114 -22.5094 -12.5770 -12.0202  -1.9192   0.0481
     0.3645   0.3697   1.4963   1.5353   4.4048   6.1379   6.1603   6.8411
     6.9691   7.2311   8.6987   9.9419  11.5637  13.4165  13.9462  14.5484
    14.9138  15.1360

          k = 0.0000 0.1458 0.0000 (  6275 PWs)   bands (ev):

   -44.6624 -22.9017 -22.5567 -22.5217 -12.4997 -11.9830  -1.7893  -0.1492
     0.2093   0.3182   1.0761   1.4392   4.4093   6.0183   6.2581   6.8026
     7.1284   7.6616   9.0857  10.4920  11.7813  12.8437  14.3205  14.3259
    14.7604  15.1649

          k = 0.0000 0.2187 0.0000 (  6263 PWs)   bands (ev):

   -44.6562 -22.8833 -22.6266 -22.5370 -12.3865 -11.9216  -1.6030  -0.5093
     0.0028   0.2379   0.6140   1.3156   4.3469   5.9900   6.4774   6.8398
     7.3368   8.1519   9.6228  11.0392  12.0448  12.4569  13.8327  14.5691
    14.8645  15.4466

          k = 0.0000 0.2916 0.0000 (  6245 PWs)   bands (ev):

   -44.6489 -22.8615 -22.7075 -22.5551 -12.2591 -11.8370  -1.4159  -0.9172
    -0.3821   0.1300   0.3530   1.1936   4.2101   6.1714   6.8029   6.9470
     7.5416   8.6121  10.0618  11.3826  12.0020  12.3401  14.0410  14.2976
    15.3415  15.3549

          k = 0.0000 0.3645 0.0000 (  6224 PWs)   bands (ev):

   -44.6415 -22.8396 -22.7868 -22.5730 -12.1423 -11.7346  -1.4639  -1.1072
    -0.8316   0.0128   0.2608   1.0895   4.0742   6.5196   7.0830   7.2167
     7.7077   9.0291  10.1823  11.4422  11.9293  12.3149  14.0120  14.5711
    15.0158  15.1989

          k = 0.0000 0.4374 0.0000 (  6218 PWs)   bands (ev):

   -44.6352 -22.8537 -22.8204 -22.5881 -12.0538 -11.6308  -1.7704  -1.2524
    -0.9667  -0.0905   0.2281   1.0108   3.9962   6.9108   7.2358   7.6572
     7.8267   9.3830  10.1058  11.2813  11.9662  12.2963  13.5336  14.5380
    14.5980  14.9148

          k = 0.0000 0.5103 0.0000 (  6216 PWs)   bands (ev):

   -44.6311 -22.8973 -22.8081 -22.5982 -12.0000 -11.5523  -1.9973  -1.4813
    -0.9034  -0.1604   0.2187   0.9614   3.9736   7.1179   7.4834   7.8702
     8.0469   9.5986  10.0484  11.1454  11.9527  12.3005  12.9794  14.0759
    14.3965  14.6137

          k = 0.0000-0.5832 0.0000 (  6246 PWs)   bands (ev):

   -44.6296 -22.9125 -22.8037 -22.6018 -11.9820 -11.5230  -2.0784  -1.5611
    -0.8808  -0.1850   0.2172   0.9446   3.9723   7.1579   7.6300   7.8938
     8.1925   9.6307  10.0809  11.1027  11.8667  12.3463  12.7818  13.8694
    14.2957  14.4566

          k = 0.0625 0.0364 0.0000 (  6281 PWs)   bands (ev):

   -44.6666 -22.9141 -22.5222 -22.4981 -12.5773 -12.0211  -1.9194   0.0352
     0.3281   0.4229   1.4236   1.6135   4.3998   6.0510   6.2553   6.8605
     6.9511   7.2293   8.6934   9.9404  11.5634  13.3844  14.0183  14.5215
    14.8737  15.0032

          k = 0.0625 0.1093 0.0000 (  6270 PWs)   bands (ev):

   -44.6638 -22.9058 -22.5462 -22.5131 -12.5250 -11.9963  -1.8311  -0.0857
     0.2364   0.3623   1.1793   1.4981   4.4079   6.0084   6.2675   6.8098
     7.0769   7.5343   8.9567  10.3312  11.7116  12.9846  14.1682  14.4795
    14.8385  15.0253

          k = 0.0625 0.1822 0.0000 (  6274 PWs)   bands (ev):

   -44.6586 -22.8904 -22.6003 -22.5304 -12.4297 -11.9469  -1.6716  -0.3614
     0.0746   0.2758   0.7666   1.3601   4.3850   5.9286   6.4350   6.8220
     7.2582   7.9881   9.4268  10.8685  12.0125  12.5519  13.8851  14.4151
    14.8976  15.3735

          k = 0.0625 0.2551 0.0000 (  6250 PWs)   bands (ev):

   -44.6519 -22.8703 -22.6728 -22.5498 -12.3094 -11.8736  -1.4774  -0.7438
    -0.1835   0.1025   0.4624   1.2126   4.2938   5.9872   6.7324   6.9167
     7.4545   8.4568   9.9370  11.2847  12.1509  12.4059  13.6859  14.3127
    15.1635  15.3686

          k = 0.0625 0.3280 0.0000 (  6226 PWs)   bands (ev):

   -44.6445 -22.8484 -22.7506 -22.5702 -12.1879 -11.7790  -1.3527  -1.0820
    -0.6195  -0.0375   0.3386   1.0718   4.1697   6.2350   7.0299   7.1590
     7.6258   8.9010  10.2035  11.4984  12.0530  12.3538  14.0322  14.2865
    14.9756  15.2571

          k = 0.0625 0.4009 0.0000 (  6218 PWs)   bands (ev):

   -44.6377 -22.8293 -22.8202 -22.5887 -12.0869 -11.6734  -1.5970  -1.1137
    -0.9756  -0.1308   0.2719   0.9527   4.0809   6.6208   7.1777   7.5869
     7.7538   9.3144  10.1784  11.4589  12.0176  12.3434  13.8032  14.3801
    14.6895  15.0750

          k = 0.0625 0.4738 0.0000 (  6225 PWs)   bands (ev):

   -44.6325 -22.8753 -22.8122 -22.6028 -12.0174 -11.5795  -1.8687  -1.3774
    -0.9248  -0.1951   0.2346   0.8670   4.0496   7.0285   7.3218   7.8011
     7.9687   9.6589  10.0743  11.3296  12.0342  12.3112  13.1943  13.9968
    14.5726  14.9161

          k = 0.0625 0.5467 0.0000 (  6224 PWs)   bands (ev):

   -44.6297 -22.9040 -22.8038 -22.6104 -11.9824 -11.5240  -2.0205  -1.5346
    -0.8793  -0.2291   0.2186   0.8224   4.0503   7.2098   7.5575   7.8342
     8.1153   9.7287  10.1794  11.2565  11.9686  12.3371  12.7649  13.6989
    14.4711  14.5989

          k = 0.1250 0.0729 0.0000 (  6272 PWs)   bands (ev):

   -44.6626 -22.9020 -22.5675 -22.5090 -12.5010 -11.9865  -1.7898  -0.1830
     0.1957   0.3764   1.0245   1.5130   4.3884   5.9484   6.3560   6.8255
     7.1106   7.6593   9.0683  10.4902  11.7804  12.8277  14.2081  14.3850
    14.7800  15.0856

          k = 0.1250 0.1458 0.0000 (  6271 PWs)   bands (ev):

   -44.6588 -22.8906 -22.6054 -22.5238 -12.4306 -11.9495  -1.6717  -0.3806
     0.0710   0.3013   0.7487   1.3994   4.3678   5.9136   6.4705   6.8265
     7.2571   7.9880   9.4158  10.8682  12.0134  12.5381  13.8314  14.4334
    14.9157  15.3473

          k = 0.1250 0.2187 0.0000 (  6243 PWs)   bands (ev):

   -44.6531 -22.8735 -22.6616 -22.5458 -12.3282 -11.8882  -1.4999  -0.6748
    -0.1162   0.0835   0.5114   1.2264   4.3252   5.8896   6.7537   6.9168
     7.4178   8.4115   9.8809  11.2463  12.2934  12.4470  13.4064  14.2553
    15.1181  15.2559

          k = 0.1250 0.2916 0.0000 (  6231 PWs)   bands (ev):

   -44.6463 -22.8533 -22.7269 -22.5717 -12.2143 -11.8037  -1.3202  -1.0081
    -0.4434  -0.1510   0.3964   1.0247   4.2650   5.9916   7.0466   7.1867
     7.5662   8.8612  10.2335  11.5125  12.2680  12.5988  13.4761  14.0601
    14.8809  15.1613

          k = 0.1250 0.3645 0.0000 (  6222 PWs)   bands (ev):

   -44.6395 -22.8332 -22.7912 -22.5973 -12.1107 -11.7024  -1.4057  -1.0910
    -0.8595  -0.2591   0.3148   0.8238   4.2197   6.2578   7.2134   7.5968
     7.7255   9.3207  10.2910  11.6541  12.2815  12.4747  13.8418  14.0465
    14.3142  15.0705

          k = 0.1250 0.4374 0.0000 (  6229 PWs)   bands (ev):

   -44.6337 -22.8456 -22.8153 -22.6190 -12.0319 -11.6017  -1.6760  -1.2370
    -0.9487  -0.3152   0.2509   0.6528   4.2167   6.6573   7.3389   7.7351
     8.0256   9.8029  10.1633  11.6618  12.2143  12.3916  13.3163  13.9223
    14.6431  14.9926

          k = 0.1250 0.5103 0.0000 (  6231 PWs)   bands (ev):

   -44.6298 -22.8811 -22.8040 -22.6334 -11.9835 -11.5269  -1.8633  -1.4615
    -0.8784  -0.3400   0.2099   0.5378   4.2426   7.0954   7.4345   7.7771
     8.1158   9.9386  10.3641  11.6416  12.1503  12.3246  12.7886  13.6703
    14.5776  14.9100

          k = 0.1250 0.5832 0.0000 (  6220 PWs)   bands (ev):

   -44.6285 -22.8935 -22.7999 -22.6384 -11.9672 -11.4992  -1.9297  -1.5393
    -0.8554  -0.3464   0.1958   0.4973   4.2583   7.2907   7.5521   7.7783
     8.0302   9.8520  10.6578  11.6409  12.0902  12.3922  12.4435  13.5783
    14.5253  14.7689

          k = 0.1250 0.0000 0.0000 (  6265 PWs)   bands (ev):

   -44.6640 -22.9060 -22.5541 -22.5037 -12.5259 -11.9988  -1.8316  -0.1098
     0.2267   0.4058   1.1407   1.5495   4.3945   5.9479   6.3479   6.8584
     7.0329   7.5315   8.9430  10.3300  11.7119  12.9791  14.2228  14.3934
    14.8022  15.0011

          k = 0.1875 0.1093 0.0000 (  6262 PWs)   bands (ev):

   -44.6567 -22.8838 -22.6358 -22.5237 -12.3891 -11.9291  -1.6032  -0.5412
    -0.0206   0.3033   0.5899   1.3906   4.3045   5.9580   6.5573   6.8668
     7.3230   8.1529   9.5949  11.0410  12.0505  12.4363  13.7319  14.5821
    14.9202  15.3574

          k = 0.1875 0.1822 0.0000 (  6256 PWs)   bands (ev):

   -44.6523 -22.8707 -22.6795 -22.5397 -12.3118 -11.8803  -1.4766  -0.7676
    -0.2112   0.1487   0.4613   1.2719   4.2550   5.9869   6.7739   6.9301
     7.4524   8.4597   9.9182  11.2825  12.1536  12.3887  13.6136  14.3211
    15.1573  15.3619

          k = 0.1875 0.2551 0.0000 (  6241 PWs)   bands (ev):

   -44.6465 -22.8536 -22.7302 -22.5663 -12.2159 -11.8076  -1.3195  -1.0196
    -0.4630  -0.1229   0.3997   1.0538   4.2427   5.9989   7.0609   7.1998
     7.5617   8.8636  10.2256  11.5077  12.2567  12.6278  13.4267  14.0531
    14.8881  15.1477

          k = 0.1875 0.3280 0.0000 (  6218 PWs)   bands (ev):

   -44.6403 -22.8350 -22.7799 -22.5995 -12.1206 -11.7153  -1.3081  -1.1167
    -0.7824  -0.3177   0.3143   0.7843   4.2776   6.1061   7.2498   7.5828
     7.7455   9.3274  10.3500  11.7084  12.5067  12.6831  13.5571  13.9063
    13.9732  15.0865

          k = 0.1875 0.4009 0.0000 (  6228 PWs)   bands (ev):

   -44.6345 -22.8239 -22.8163 -22.6331 -12.0411 -11.6160  -1.5133  -1.1137
    -0.9810  -0.4158   0.2043   0.5283   4.3552   6.3556   7.3507   7.7567
     8.0926   9.8565  10.2991  11.8625  12.4643  12.5833  13.3458  13.7809
    14.3490  14.9238

          k = 0.1875 0.4738 0.0000 (  6226 PWs)   bands (ev):

   -44.6301 -22.8535 -22.8042 -22.6603 -11.9854 -11.5309  -1.6691  -1.3677
    -0.8854  -0.4574   0.0974   0.3384   4.4533   6.7286   7.3653   7.9117
     8.1793  10.1563  10.4987  11.9494  12.0904  12.5318  13.1040  13.8760
    14.6080  14.8667

          k = 0.1875 0.5467 0.0000 (  6227 PWs)   bands (ev):

   -44.6277 -22.8694 -22.7971 -22.6756 -11.9568 -11.4818  -1.7507  -1.5059
    -0.8390  -0.4692   0.0303   0.2402   4.5246   7.1077   7.3749   7.9691
     8.0176  10.0358  11.1012  11.8538  12.1143  12.5000  12.6956  13.7625
    14.6149  14.8439

          k = 0.1875-0.0364 0.0000 (  6260 PWs)   bands (ev):

   -44.6591 -22.8908 -22.6090 -22.5181 -12.4321 -11.9534  -1.6724  -0.3905
     0.0638   0.3318   0.7408   1.4189   4.3528   5.8870   6.5157   6.8823
     7.2115   7.9872   9.3987  10.8715  12.0177  12.5610  13.7914  14.4371
    14.9375  15.3085

          k = 0.2500 0.1458 0.0000 (  6239 PWs)   bands (ev):

   -44.6496 -22.8622 -22.7153 -22.5407 -12.2639 -11.8492  -1.4148  -0.9407
    -0.4115   0.2042   0.3416   1.2716   4.1536   6.1663   6.8611   6.9816
     7.5348   8.6178  10.0337  11.3769  12.0175  12.3161  13.9624  14.2814
    15.2305  15.4240

          k = 0.2500 0.2187 0.0000 (  6230 PWs)   bands (ev):

   -44.6452 -22.8491 -22.7574 -22.5574 -12.1927 -11.7901  -1.3562  -1.0983
    -0.6456   0.0195   0.3393   1.1429   4.1166   6.2451   7.0659   7.1942
     7.6186   8.9075  10.1818  11.4822  12.0793  12.3363  13.9831  14.2264
    14.9440  15.2397

          k = 0.2500 0.2916 0.0000 (  6223 PWs)   bands (ev):

   -44.6400 -22.8337 -22.7961 -22.5878 -12.1148 -11.7107  -1.4204  -1.0910
    -0.8746  -0.2178   0.3154   0.8713   4.1805   6.2693   7.2574   7.5973
     7.7265   9.3244  10.2756  11.6425  12.3195  12.4730  13.8027  14.0503
    14.2623  15.0176

          k = 0.2500 0.3645 0.0000 (  6228 PWs)   bands (ev):

   -44.6348 -22.8262 -22.8170 -22.6280 -12.0436 -11.6202  -1.5232  -1.1172
    -0.9784  -0.3956   0.2080   0.5443   4.3358   6.3599   7.3776   7.7471
     8.1019   9.8552  10.2934  11.8583  12.4638  12.6177  13.3856  13.7283
    14.3053  14.8830

          k = 0.2500 0.4374 0.0000 (  6223 PWs)   bands (ev):

   -44.6304 -22.8413 -22.8045 -22.6708 -11.9880 -11.5353  -1.5759  -1.3177
    -0.8913  -0.5003  -0.0107   0.3120   4.5433   6.5560   7.3330   8.0047
     8.2128  10.2510  10.5439  11.9069  12.1285  12.7896  13.4118  13.9002
    14.5357  14.6701

          k = 0.2500 0.5103 0.0000 (  6234 PWs)   bands (ev):

   -44.6275 -22.8452 -22.7957 -22.7059 -11.9528 -11.4746  -1.5885  -1.4479
    -0.8316  -0.5689  -0.2273   0.1978   4.7324   6.8401   7.2687   7.9994
     8.2143  10.2448  11.1201  11.7188  12.3025  12.8615  13.2621  13.9914
    14.5240  14.7462

          k = 0.2500 0.5832 0.0000 (  6222 PWs)   bands (ev):

   -44.6264 -22.8445 -22.7927 -22.7202 -11.9408 -11.4526  -1.5977  -1.4781
    -0.8135  -0.6031  -0.3034   0.1602   4.8111   7.0380   7.2465   7.7889
     8.2904  10.2279  11.1999  12.0394  12.4261  12.8524  12.9242  13.8554
    14.7105  14.8023

          k = 0.2500-0.0729 0.0000 (  6244 PWs)   bands (ev):

   -44.6526 -22.8710 -22.6801 -22.5366 -12.3137 -11.8849  -1.4775  -0.7630
    -0.2097   0.1618   0.4626   1.2727   4.2471   5.9770   6.7875   6.9759
     7.4243   8.4599   9.9045  11.2909  12.1724  12.4079  13.6144  14.3104
    15.1906  15.3322

          k = 0.2500 0.0000 0.0000 (  6245 PWs)   bands (ev):

   -44.6536 -22.8740 -22.6656 -22.5372 -12.3316 -11.8968  -1.5009  -0.6799
    -0.1315   0.1257   0.5135   1.2507   4.2987   5.8771   6.7912   6.9942
     7.3660   8.4123   9.8531  11.2562  12.3341  12.4761  13.3553  14.2431
    15.1381  15.2313

          k = 0.3125 0.1822 0.0000 (  6225 PWs)   bands (ev):

   -44.6426 -22.8406 -22.7933 -22.5576 -12.1501 -11.7510  -1.4755  -1.1112
    -0.8450   0.0944   0.2404   1.1713   4.0121   6.5311   7.1269   7.2497
     7.7097   9.0391  10.1518  11.4273  11.9649  12.3002  13.9455  14.5068
    14.9163  15.2756

          k = 0.3125 0.2551 0.0000 (  6225 PWs)   bands (ev):

   -44.6387 -22.8314 -22.8253 -22.5741 -12.0949 -11.6884  -1.6159  -1.1172
    -0.9786  -0.0629   0.2594   1.0310   4.0207   6.6331   7.2327   7.6182
     7.7431   9.3221  10.1477  11.4597  12.0457  12.3341  13.7303  14.3652
    14.6710  15.0092

          k = 0.3125 0.3280 0.0000 (  6230 PWs)   bands (ev):

   -44.6346 -22.8510 -22.8162 -22.6066 -12.0393 -11.6139  -1.6959  -1.2391
    -0.9428  -0.2616   0.2401   0.7103   4.1684   6.6642   7.4122   7.7075
     8.0493   9.8057  10.1399  11.6745  12.2357  12.3929  13.3174  13.8887
    14.5954  14.9108

          k = 0.3125 0.4009 0.0000 (  6217 PWs)   bands (ev):

   -44.6307 -22.8577 -22.8048 -22.6513 -11.9911 -11.5392  -1.6848  -1.3640
    -0.8790  -0.4225   0.1108   0.3491   4.4228   6.7267   7.3958   7.9227
     8.1933  10.1405  10.4992  11.9502  12.1055  12.5682  13.1059  13.8513
    14.5580  14.8168

          k = 0.3125 0.4738 0.0000 (  6228 PWs)   bands (ev):

   -44.6278 -22.8477 -22.7961 -22.7009 -11.9559 -11.4787  -1.5940  -1.4454
    -0.8280  -0.5542  -0.2094   0.1885   4.7212   6.8334   7.2749   8.0037
     8.2343  10.2323  11.1273  11.7261  12.3027  12.8848  13.2370  14.0180
    14.5029  14.7420

          k = 0.3125 0.5467 0.0000 (  6219 PWs)   bands (ev):

   -44.6262 -22.8279 -22.7913 -22.7422 -11.9373 -11.4449  -1.5666  -1.3694
    -0.8036  -0.7312  -0.4020   0.1289   4.9450   6.9552   7.1916   7.7190
     8.4330  10.3726  10.9730  12.3464  12.5161  13.0949  13.2675  13.5758
    14.6635  14.8408

          k = 0.3125-0.1093 0.0000 (  6238 PWs)   bands (ev):

   -44.6455 -22.8494 -22.7565 -22.5560 -12.1949 -11.7948  -1.3534  -1.0917
    -0.6313   0.0158   0.3416   1.1352   4.1178   6.2461   7.0782   7.1857
     7.6224   8.9082  10.1768  11.4925  12.0863  12.3534  13.9952  14.2578
    14.8843  15.2454

          k = 0.3125-0.0364 0.0000 (  6235 PWs)   bands (ev):

   -44.6471 -22.8541 -22.7304 -22.5613 -12.2201 -11.8169  -1.3200  -1.0074
    -0.4446  -0.1175   0.4029   1.0530   4.2337   5.9963   7.1102   7.1990
     7.5463   8.8632  10.2099  11.5249  12.3148  12.6386  13.4368  14.0494
    14.8006  15.1293

          k = 0.3750 0.2187 0.0000 (  6223 PWs)   bands (ev):

   -44.6366 -22.8590 -22.8217 -22.5718 -12.0651 -11.6501  -1.7879  -1.2472
    -0.9611  -0.0031   0.1963   1.0963   3.9315   6.9417   7.2824   7.6641
     7.8358   9.3946  10.0632  11.3028  11.9717  12.2916  13.4480  14.4578
    14.6785  14.8339

          k = 0.3750 0.2916 0.0000 (  6226 PWs)   bands (ev):

   -44.6338 -22.8807 -22.8134 -22.5870 -12.0289 -11.5975  -1.8899  -1.3699
    -0.9161  -0.1161   0.2059   0.9490   3.9867   7.0551   7.3725   7.7989
     7.9871   9.6694  10.0300  11.3746  12.0228  12.2931  13.1256  14.0528
    14.5201  14.8298

          k = 0.3750 0.3645 0.0000 (  6223 PWs)   bands (ev):

   -44.6310 -22.8861 -22.8050 -22.6194 -11.9941 -11.5422  -1.8837  -1.4499
    -0.8687  -0.2755   0.1850   0.5992   4.1919   7.1017   7.4919   7.7778
     8.1343   9.9300  10.3431  11.6961  12.1510  12.3035  12.7515  13.6897
    14.5266  14.8494

          k = 0.3750 0.4374 0.0000 (  6228 PWs)   bands (ev):

   -44.6286 -22.8738 -22.7979 -22.6644 -11.9655 -11.4935  -1.7660  -1.4908
    -0.8306  -0.4259   0.0578   0.2312   4.4930   7.0998   7.3869   7.9913
     8.0513  10.0158  11.0942  11.8804  12.1579  12.4940  12.6569  13.7798
    14.5687  14.8247

          k = 0.3750 0.5103 0.0000 (  6225 PWs)   bands (ev):

   -44.6270 -22.8479 -22.7932 -22.7124 -11.9466 -11.4602  -1.5953  -1.4712
    -0.8103  -0.5817  -0.2770   0.1399   4.8017   7.0258   7.2474   7.7768
     8.3413  10.2012  11.2364  12.0137  12.4454  12.8586  12.9080  13.9239
    14.6788  14.7956

          k = 0.3750 0.5832 0.0000 (  6232 PWs)   bands (ev):

   -44.6264 -22.8289 -22.7915 -22.7393 -11.9401 -11.4484  -1.5573  -1.3632
    -0.8147  -0.7164  -0.3963   0.1199   4.9487   6.9504   7.1910   7.6964
     8.4624  10.3501  11.0049  12.2908  12.5390  13.0995  13.3062  13.6022
    14.5843  14.8823

          k = 0.3750-0.1458 0.0000 (  6211 PWs)   bands (ev):

   -44.6390 -22.8311 -22.8245 -22.5736 -12.0971 -11.6923  -1.6064  -1.1085
    -0.9719  -0.0706   0.2613   1.0214   4.0271   6.6464   7.2263   7.5755
     7.7752   9.3264  10.1447  11.4583  12.0530  12.3498  13.7333  14.3171
    14.6742  15.0692

          k = 0.3750-0.0729 0.0000 (  6231 PWs)   bands (ev):

   -44.6406 -22.8342 -22.7942 -22.5854 -12.1193 -11.7191  -1.4034  -1.0892
    -0.8436  -0.2275   0.3152   0.8584   4.1872   6.2731   7.2583   7.5826
     7.7404   9.3241  10.2733  11.6633  12.3283  12.5051  13.8158  13.9908
    14.3089  15.0110

          k = 0.3750 0.0000 0.0000 (  6227 PWs)   bands (ev):

   -44.6412 -22.8358 -22.7799 -22.5928 -12.1273 -11.7282  -1.2929  -1.1158
    -0.7474  -0.3165   0.3142   0.7858   4.2702   6.1095   7.2794   7.5729
     7.7504   9.3247  10.3430  11.7351  12.5787  12.7015  13.5563  13.8722
    13.9359  15.0667

          k = 0.4375 0.2551 0.0000 (  6218 PWs)   bands (ev):

   -44.6326 -22.9020 -22.8095 -22.5813 -12.0141 -11.5733  -2.0168  -1.4643
    -0.8926  -0.0694   0.1789   1.0498   3.9071   7.1790   7.5166   7.8883
     8.0263   9.6089   9.9958  11.2031  11.9262  12.2631  12.9188  14.1687
    14.3266  14.5505

          k = 0.4375 0.3280 0.0000 (  6223 PWs)   bands (ev):

   -44.6311 -22.9087 -22.8052 -22.5940 -11.9964 -11.5440  -2.0410  -1.5160
    -0.8675  -0.1443   0.1800   0.9048   3.9877   7.2777   7.5712   7.8488
     8.1092   9.7334  10.1317  11.3264  11.9382  12.2842  12.7206  13.7609
    14.4263  14.5457

          k = 0.4375 0.4009 0.0000 (  6216 PWs)   bands (ev):

   -44.6298 -22.8978 -22.8011 -22.6239 -11.9800 -11.5168  -1.9466  -1.5173
    -0.8448  -0.2790   0.1642   0.5568   4.2106   7.3241   7.5647   7.8261
     8.0140   9.8331  10.6369  11.7136  12.0789  12.3521  12.4293  13.5844
    14.4807  14.7450

          k = 0.4375 0.4738 0.0000 (  6222 PWs)   bands (ev):

   -44.6287 -22.8728 -22.7981 -22.6641 -11.9673 -11.4960  -1.7586  -1.4800
    -0.8319  -0.4278   0.0564   0.2253   4.4999   7.1123   7.3798   7.9440
     8.0822  10.0097  11.0891  11.8705  12.1853  12.4721  12.6993  13.7596
    14.5691  14.8418

          k = 0.4375 0.5467 0.0000 (  6216 PWs)   bands (ev):

   -44.6282 -22.8465 -22.7965 -22.6988 -11.9604 -11.4848  -1.5786  -1.4226
    -0.8325  -0.5508  -0.2119   0.1770   4.7333   6.8361   7.2659   7.9393
     8.2918  10.2144  11.1448  11.6938  12.3626  12.8467  13.3157  14.0047
    14.4712  14.7203

          k = 0.4375-0.1822 0.0000 (  6223 PWs)   bands (ev):

   -44.6340 -22.8796 -22.8136 -22.5869 -12.0306 -11.6000  -1.8826  -1.3593
    -0.9165  -0.1223   0.2071   0.9417   3.9931   7.0678   7.3717   7.8291
     7.9347   9.6718  10.0265  11.3654  12.0360  12.3038  13.1415  13.9737
    14.5386  14.9018

          k = 0.4375-0.1093 0.0000 (  6227 PWs)   bands (ev):

   -44.6350 -22.8486 -22.8166 -22.6057 -12.0433 -11.6202  -1.6790  -1.2132
    -0.9428  -0.2718   0.2393   0.6957   4.1810   6.6792   7.3629   7.7944
     7.9802   9.8096  10.1322  11.6826  12.2493  12.4130  13.3017  13.8690
    14.6169  14.9692

          k = 0.4375-0.0364 0.0000 (  6215 PWs)   bands (ev):

   -44.6356 -22.8244 -22.8173 -22.6246 -12.0502 -11.6310  -1.5003  -1.0781
    -0.9777  -0.4033   0.2029   0.5324   4.3466   6.3623   7.3462   7.8306
     8.0394   9.8476  10.2932  11.9019  12.4927  12.6076  13.3798  13.7439
    14.3293  14.8691

          k =-0.5000-0.2916 0.0000 (  6224 PWs)   bands (ev):

   -44.6312 -22.9170 -22.8052 -22.5846 -11.9972 -11.5445  -2.0986  -1.5399
    -0.8683  -0.0928   0.1747   1.0340   3.9052   7.2268   7.6621   7.9150
     8.1598   9.6412  10.0230  11.1726  11.8271  12.2865  12.7377  13.9769
    14.2156  14.4157

          k =-0.5000-0.2187 0.0000 (  6219 PWs)   bands (ev):

   -44.6312 -22.9083 -22.8052 -22.5940 -11.9970 -11.5448  -2.0384  -1.5122
    -0.8678  -0.1466   0.1804   0.9022   3.9903   7.2689   7.6008   7.8602
     8.0723   9.7222  10.1414  11.3212  11.9388  12.2899  12.7402  13.7177
    14.4344  14.5761

          k =-0.5000-0.1458 0.0000 (  6219 PWs)   bands (ev):

   -44.6312 -22.8846 -22.8053 -22.6192 -11.9965 -11.5456  -1.8737  -1.4350
    -0.8697  -0.2815   0.1847   0.5901   4.2011   7.1209   7.4586   7.8501
     8.0599   9.9175  10.3458  11.6939  12.1640  12.3068  12.7885  13.6362
    14.5358  14.9023

          k =-0.5000-0.0729 0.0000 (  6219 PWs)   bands (ev):

   -44.6312 -22.8553 -22.8053 -22.6500 -11.9960 -11.5463  -1.6657  -1.3341
    -0.8813  -0.4284   0.1060   0.3358   4.4381   6.7369   7.3612   8.0051
     8.1122  10.1305  10.4892  11.9897  12.1310  12.5285  13.1568  13.8276
    14.5622  14.8603

          k =-0.5000 0.0000 0.0000 (  6228 PWs)   bands (ev):

   -44.6312 -22.8402 -22.8053 -22.6657 -11.9958 -11.5466  -1.5567  -1.2795
    -0.8929  -0.4954  -0.0118   0.2980   4.5527   6.5555   7.3153   8.0789
     8.1485  10.2289  10.5389  11.9358  12.1819  12.7609  13.5154  13.8566
    14.5099  14.6479

     highest occupied, lowest unoccupied level (ev):     4.9487    5.8771

!    total energy              =    -591.24389393 Ry
     total all-electron energy =    -13333.877170 Ry
     estimated scf accuracy    <          9.3E-09 Ry

     The total energy is the sum of the following terms:
     one-electron contribution =    -206.15367098 Ry
     hartree contribution      =     111.08507970 Ry
     xc contribution           =     -37.62198072 Ry
     ewald contribution        =     -27.43549505 Ry
     one-center paw contrib.   =    -431.11782688 Ry

     convergence has been achieved in   8 iterations

     negative rho (up, down):  1.733E-08 0.000E+00

     Forces acting on atoms (cartesian axes, Ry/au):

     atom    1 type  1   force =     0.00000000    0.00560230   -0.00009414
     atom    2 type  2   force =     0.00000000   -0.00288392    0.00269960
     atom    3 type  3   force =     0.00000000   -0.00271838   -0.00260547
     The non-local contrib.  to forces
     atom    1 type  1   force =     0.00000000    0.00091062   -0.00058820
     atom    2 type  2   force =     0.00000000   -0.00216941   -0.21189671
     atom    3 type  3   force =     0.00000000   -0.00219819    0.20836346
     The ionic contribution  to forces
     atom    1 type  1   force =    -0.00000001   -0.01067351   -0.33899009
     atom    2 type  2   force =     0.00000000    0.00529756   21.43063942
     atom    3 type  3   force =     0.00000000    0.00537595  -21.09164933
     The local contribution  to forces
     atom    1 type  1   force =     0.00000000    0.01523962    0.33908051
     atom    2 type  2   force =     0.00000003   -0.00603735  -21.22367212
     atom    3 type  3   force =    -0.00000000   -0.00606981   20.88389963
     The core correction contribution to forces
     atom    1 type  1   force =    -0.00000000    0.00008383    0.00034702
     atom    2 type  2   force =    -0.00000000   -0.00001592    0.00778785
     atom    3 type  3   force =    -0.00000000    0.00013204   -0.00328875
     The Hubbard contrib.    to forces
     atom    1 type  1   force =     0.00000000    0.00000000    0.00000000
     atom    2 type  2   force =     0.00000000    0.00000000    0.00000000
     atom    3 type  3   force =     0.00000000    0.00000000    0.00000000
     The SCF correction term to forces
     atom    1 type  1   force =    -0.00000000    0.00000018    0.00012319
     atom    2 type  2   force =     0.00000000   -0.00000038   -0.00009226
     atom    3 type  3   force =     0.00000000    0.00000006    0.00013609

     Total force =     0.007822     Total SCF correction =     0.000205

     BFGS Geometry Optimization
     Energy error            =      0.0E+00 Ry
     Gradient error          =      5.6E-03 Ry/Bohr

     number of scf cycles    =   1
     number of bfgs steps    =   0

     energy             new  =    -591.2438939301 Ry

     new trust radius        =       0.0056030884 bohr
     new conv_thr            =       0.0000000100 Ry


ATOMIC_POSITIONS (angstrom)
Zr            0.0000000000        0.0029646082       10.2766803078
Cl           -0.0000000017        2.0129023190       11.9662192388
Br           -0.0000000017        2.0129899173        8.4202492278



     Writing config-only to output data dir ./tmp/ZrClBr.save/
     NEW-OLD atomic charge density approx. for the potential

     Check: negative core charge=   -0.000004

     negative rho (up, down):  1.677E-08 0.000E+00

     total cpu time spent up to now is       17.4 secs

     Self-consistent Calculation

     iteration #  1     ecut=    65.00 Ry     beta= 0.70
     Davidson diagonalization with overlap
     ethr =  1.00E-06,  avg # of iterations =  3.0

     Threshold (ethr) on eigenvalues was too large:
     Diagonalizing with lowered threshold

     Davidson diagonalization with overlap
     ethr =  7.54E-09,  avg # of iterations =  3.4

     negative rho (up, down):  1.671E-08 0.000E+00

     total cpu time spent up to now is       21.1 secs

     total energy              =    -591.24394650 Ry
     estimated scf accuracy    <       0.00000216 Ry

     iteration #  2     ecut=    65.00 Ry     beta= 0.70
     Davidson diagonalization with overlap
     ethr =  8.30E-09,  avg # of iterations =  2.0

     negative rho (up, down):  1.691E-08 0.000E+00

     total cpu time spent up to now is       22.6 secs

     total energy              =    -591.24394630 Ry
     estimated scf accuracy    <       0.00000380 Ry

     iteration #  3     ecut=    65.00 Ry     beta= 0.70
     Davidson diagonalization with overlap
     ethr =  8.30E-09,  avg # of iterations =  2.0

     negative rho (up, down):  1.689E-08 0.000E+00

     total cpu time spent up to now is       24.1 secs

     total energy              =    -591.24394722 Ry
     estimated scf accuracy    <       0.00000037 Ry

     iteration #  4     ecut=    65.00 Ry     beta= 0.70
     Davidson diagonalization with overlap
     ethr =  1.42E-09,  avg # of iterations =  1.0

     negative rho (up, down):  1.690E-08 0.000E+00

     total cpu time spent up to now is       25.4 secs

     total energy              =    -591.24394727 Ry
     estimated scf accuracy    <       0.00000003 Ry

     iteration #  5     ecut=    65.00 Ry     beta= 0.70
     Davidson diagonalization with overlap
     ethr =  1.04E-10,  avg # of iterations =  2.0

     negative rho (up, down):  1.691E-08 0.000E+00

     total cpu time spent up to now is       26.8 secs

     total energy              =    -591.24394728 Ry
     estimated scf accuracy    <       0.00000001 Ry

     iteration #  6     ecut=    65.00 Ry     beta= 0.70
     Davidson diagonalization with overlap
     ethr =  3.94E-11,  avg # of iterations =  1.2

     negative rho (up, down):  1.690E-08 0.000E+00

     total cpu time spent up to now is       28.1 secs

     End of self-consistent calculation

          k = 0.0000 0.0000 0.0000 (  6283 PWs)   bands (ev):

   -44.6713 -22.9207 -22.5103 -22.4956 -12.6015 -12.0319  -1.9629   0.0974
     0.3862   0.4483   1.5799   1.6654   4.3893   6.1017   6.2319   6.8864
     6.8981   7.0481   8.5609   9.7064  11.4949  13.8098  13.9203  14.1435
    14.8810  15.3793

          k = 0.0000 0.0729 0.0000 (  6265 PWs)   bands (ev):

   -44.6698 -22.9164 -22.5139 -22.5123 -12.5741 -12.0194  -1.9165   0.0468
     0.3716   0.3721   1.4957   1.5429   4.3997   6.1389   6.1541   6.8484
     6.9585   7.2294   8.6993   9.9432  11.5665  13.4184  13.9414  14.5484
    14.9131  15.1242

          k = 0.0000 0.1458 0.0000 (  6275 PWs)   bands (ev):

   -44.6657 -22.9041 -22.5596 -22.5242 -12.4968 -11.9822  -1.7862  -0.1497
     0.2110   0.3256   1.0759   1.4460   4.4039   6.0125   6.2587   6.8079
     7.1184   7.6607   9.0854  10.4954  11.7841  12.8441  14.3136  14.3162
    14.7643  15.1620

          k = 0.0000 0.2187 0.0000 (  6263 PWs)   bands (ev):

   -44.6595 -22.8857 -22.6295 -22.5396 -12.3835 -11.9208  -1.5994  -0.5081
     0.0024   0.2457   0.6142   1.3215   4.3410   5.9853   6.4774   6.8435
     7.3276   8.1517   9.6206  11.0443  12.0480  12.4561  13.8208  14.5741
    14.8610  15.4431

          k = 0.0000 0.2916 0.0000 (  6245 PWs)   bands (ev):

   -44.6521 -22.8638 -22.7104 -22.5576 -12.2562 -11.8362  -1.4115  -0.9155
    -0.3823   0.1380   0.3522   1.1988   4.2037   6.1682   6.8023   6.9500
     7.5332   8.6124  10.0569  11.3868  12.0050  12.3385  14.0340  14.3029
    15.3367  15.3516

          k = 0.0000 0.3645 0.0000 (  6224 PWs)   bands (ev):

   -44.6448 -22.8420 -22.7897 -22.5755 -12.1397 -11.7335  -1.4608  -1.1040
    -0.8302   0.0209   0.2583   1.0943   4.0674   6.5181   7.0860   7.2154
     7.6999   9.0288  10.1765  11.4416  11.9343  12.3147  14.0128  14.5704
    15.0110  15.1950

          k = 0.0000 0.4374 0.0000 (  6218 PWs)   bands (ev):

   -44.6385 -22.8566 -22.8228 -22.5907 -12.0514 -11.6293  -1.7687  -1.2501
    -0.9617  -0.0824   0.2244   1.0152   3.9891   6.9120   7.2380   7.6552
     7.8196   9.3801  10.1032  11.2803  11.9682  12.2979  13.5299  14.5370
    14.5941  14.9076

          k = 0.0000 0.5103 0.0000 (  6216 PWs)   bands (ev):

   -44.6343 -22.9001 -22.8104 -22.6007 -11.9978 -11.5505  -1.9963  -1.4783
    -0.8978  -0.1523   0.2143   0.9658   3.9663   7.1221   7.4832   7.8634
     8.0446   9.5963  10.0470  11.1457  11.9516  12.3004  12.9767  14.0720
    14.3890  14.6099

          k = 0.0000-0.5832 0.0000 (  6246 PWs)   bands (ev):

   -44.6329 -22.9154 -22.8061 -22.6043 -11.9799 -11.5211  -2.0777  -1.5578
    -0.8751  -0.1770   0.2126   0.9489   3.9650   7.1627   7.6289   7.8870
     8.1902   9.6341  10.0745  11.1035  11.8649  12.3452  12.7801  13.8655
    14.2805  14.4598

          k = 0.0625 0.0364 0.0000 (  6281 PWs)   bands (ev):

   -44.6699 -22.9165 -22.5247 -22.5010 -12.5745 -12.0203  -1.9168   0.0361
     0.3326   0.4253   1.4301   1.6140   4.3951   6.0513   6.2495   6.8576
     6.9517   7.2277   8.6939   9.9404  11.5659  13.3808  14.0226  14.5183
    14.8759  15.0072

          k = 0.0625 0.1093 0.0000 (  6270 PWs)   bands (ev):

   -44.6671 -22.9082 -22.5489 -22.5158 -12.5222 -11.9954  -1.8283  -0.0850
     0.2383   0.3680   1.1811   1.5027   4.4031   6.0051   6.2653   6.8131
     7.0699   7.5330   8.9567  10.3330  11.7140  12.9845  14.1660  14.4745
    14.8368  15.0268

          k = 0.0625 0.1822 0.0000 (  6274 PWs)   bands (ev):

   -44.6619 -22.8928 -22.6031 -22.5329 -12.4268 -11.9461  -1.6684  -0.3601
     0.0751   0.2827   0.7670   1.3656   4.3799   5.9244   6.4340   6.8256
     7.2496   7.9875   9.4255  10.8727  12.0150  12.5521  13.8754  14.4133
    14.8987  15.3732

          k = 0.0625 0.2551 0.0000 (  6250 PWs)   bands (ev):

   -44.6551 -22.8727 -22.6757 -22.5524 -12.3065 -11.8728  -1.4735  -0.7420
    -0.1842   0.1098   0.4629   1.2177   4.2882   5.9836   6.7313   6.9197
     7.4461   8.4569   9.9332  11.2897  12.1533  12.4063  13.6763  14.3149
    15.1624  15.3672

          k = 0.0625 0.3280 0.0000 (  6226 PWs)   bands (ev):

   -44.6478 -22.8508 -22.7535 -22.5727 -12.1852 -11.7779  -1.3486  -1.0798
    -0.6188  -0.0313   0.3384   1.0764   4.1636   6.2326   7.0324   7.1580
     7.6180   8.9011  10.1975  11.5007  12.0566  12.3535  14.0313  14.2856
    14.9703  15.2542

          k = 0.0625 0.4009 0.0000 (  6218 PWs)   bands (ev):

   -44.6410 -22.8318 -22.8231 -22.5912 -12.0844 -11.6720  -1.5948  -1.1111
    -0.9718  -0.1242   0.2700   0.9570   4.0743   6.6198   7.1808   7.5849
     7.7470   9.3131  10.1737  11.4578  12.0216  12.3445  13.8006  14.3761
    14.6901  15.0708

          k = 0.0625 0.4738 0.0000 (  6225 PWs)   bands (ev):

   -44.6357 -22.8782 -22.8146 -22.6053 -12.0152 -11.5778  -1.8675  -1.3746
    -0.9195  -0.1879   0.2310   0.8711   4.0428   7.0297   7.3239   7.7948
     7.9661   9.6553  10.0735  11.3289  12.0346  12.3123  13.1900  13.9925
    14.5735  14.9076

          k = 0.0625 0.5467 0.0000 (  6224 PWs)   bands (ev):

   -44.6329 -22.9069 -22.8062 -22.6129 -11.9803 -11.5222  -2.0198  -1.5313
    -0.8737  -0.2215   0.2142   0.8265   4.0434   7.2140   7.5571   7.8279
     8.1120   9.7313  10.1739  11.2567  11.9672  12.3365  12.7622  13.6945
    14.4708  14.5893

          k = 0.1250 0.0729 0.0000 (  6272 PWs)   bands (ev):

   -44.6659 -22.9044 -22.5699 -22.5118 -12.4983 -11.9854  -1.7873  -0.1789
     0.1966   0.3791   1.0287   1.5147   4.3853   5.9465   6.3515   6.8222
     7.1116   7.6580   9.0679  10.4899  11.7815  12.8250  14.2126  14.3886
    14.7736  15.0895

          k = 0.1250 0.1458 0.0000 (  6271 PWs)   bands (ev):

   -44.6621 -22.8930 -22.6080 -22.5265 -12.4279 -11.9485  -1.6689  -0.3773
     0.0712   0.3067   0.7499   1.4029   4.3643   5.9102   6.4677   6.8273
     7.2526   7.9869   9.4146  10.8705  12.0136  12.5385  13.8305  14.4281
    14.9186  15.3479

          k = 0.1250 0.2187 0.0000 (  6243 PWs)   bands (ev):

   -44.6563 -22.8759 -22.6643 -22.5484 -12.3255 -11.8871  -1.4967  -0.6719
    -0.1160   0.0892   0.5120   1.2306   4.3213   5.8859   6.7515   6.9185
     7.4113   8.4109   9.8778  11.2507  12.2951  12.4484  13.4004  14.2505
    15.1203  15.2548

          k = 0.1250 0.2916 0.0000 (  6231 PWs)   bands (ev):

   -44.6495 -22.8558 -22.7297 -22.5742 -12.2117 -11.8025  -1.3164  -1.0057
    -0.4421  -0.1468   0.3972   1.0288   4.2606   5.9883   7.0482   7.1843
     7.5598   8.8612  10.2279  11.5167  12.2711  12.6016  13.4680  14.0580
    14.8779  15.1598

          k = 0.1250 0.3645 0.0000 (  6222 PWs)   bands (ev):

   -44.6427 -22.8356 -22.7940 -22.5998 -12.1082 -11.7010  -1.4031  -1.0874
    -0.8571  -0.2548   0.3147   0.8275   4.2148   6.2552   7.2152   7.5924
     7.7215   9.3204  10.2849  11.6560  12.2845  12.4765  13.8394  14.0417
    14.3118  15.0680

          k = 0.1250 0.4374 0.0000 (  6229 PWs)   bands (ev):

   -44.6370 -22.8485 -22.8178 -22.6214 -12.0296 -11.6001  -1.6744  -1.2341
    -0.9439  -0.3101   0.2493   0.6561   4.2112   6.6556   7.3402   7.7307
     8.0228   9.8010  10.1604  11.6611  12.2162  12.3930  13.3114  13.9205
    14.6439  14.9885

          k = 0.1250 0.5103 0.0000 (  6231 PWs)   bands (ev):

   -44.6331 -22.8840 -22.8064 -22.6358 -11.9813 -11.5250  -1.8624  -1.4580
    -0.8733  -0.3339   0.2070   0.5409   4.2368   7.0949   7.4349   7.7742
     8.1117   9.9398  10.3601  11.6406  12.1493  12.3246  12.7857  13.6680
    14.5785  14.9013

          k = 0.1250 0.5832 0.0000 (  6220 PWs)   bands (ev):

   -44.6317 -22.8964 -22.8024 -22.6408 -11.9651 -11.4973  -1.9291  -1.5356
    -0.8501  -0.3399   0.1923   0.5004   4.2523   7.2917   7.5517   7.7761
     8.0249   9.8550  10.6520  11.6401  12.0895  12.3913  12.4410  13.5762
    14.5270  14.7574

          k = 0.1250 0.0000 0.0000 (  6265 PWs)   bands (ev):

   -44.6672 -22.9084 -22.5565 -22.5067 -12.5233 -11.9977  -1.8292  -0.1053
     0.2285   0.4066   1.1470   1.5496   4.3915   5.9470   6.3423   6.8487
     7.0410   7.5302   8.9428  10.3287  11.7133  12.9739  14.2309  14.4004
    14.7968  15.0031

          k = 0.1875 0.1093 0.0000 (  6262 PWs)   bands (ev):

   -44.6600 -22.8863 -22.6382 -22.5266 -12.3867 -11.9277  -1.6008  -0.5367
    -0.0185   0.3056   0.5910   1.3928   4.3034   5.9542   6.5539   6.8636
     7.3229   8.1515   9.5929  11.0416  12.0483  12.4352  13.7376  14.5756
    14.9239  15.3602

          k = 0.1875 0.1822 0.0000 (  6256 PWs)   bands (ev):

   -44.6556 -22.8732 -22.6820 -22.5424 -12.3093 -11.8789  -1.4740  -0.7637
    -0.2085   0.1510   0.4617   1.2750   4.2532   5.9829   6.7707   6.9286
     7.4494   8.4585   9.9150  11.2855  12.1528  12.3875  13.6169  14.3126
    15.1651  15.3577

          k = 0.1875 0.2551 0.0000 (  6241 PWs)   bands (ev):

   -44.6498 -22.8561 -22.7328 -22.5689 -12.2134 -11.8062  -1.3163  -1.0165
    -0.4594  -0.1223   0.4009   1.0572   4.2405   5.9947   7.0592   7.1965
     7.5585   8.8629  10.2204  11.5116  12.2605  12.6251  13.4257  14.0464
    14.8856  15.1464

          k = 0.1875 0.3280 0.0000 (  6218 PWs)   bands (ev):

   -44.6436 -22.8375 -22.7826 -22.6020 -12.1182 -11.7137  -1.3048  -1.1137
    -0.7786  -0.3167   0.3153   0.7873   4.2750   6.1021   7.2472   7.5797
     7.7430   9.3273  10.3438  11.7120  12.5121  12.6827  13.5523  13.9025
    13.9689  15.0855

          k = 0.1875 0.4009 0.0000 (  6228 PWs)   bands (ev):

   -44.6378 -22.8266 -22.8189 -22.6355 -12.0388 -11.6142  -1.5112  -1.1100
    -0.9771  -0.4135   0.2051   0.5302   4.3519   6.3521   7.3470   7.7561
     8.0893   9.8563  10.2939  11.8654  12.4659  12.5830  13.3444  13.7775
    14.3446  14.9213

          k = 0.1875 0.4738 0.0000 (  6226 PWs)   bands (ev):

   -44.6334 -22.8563 -22.8067 -22.6627 -11.9832 -11.5291  -1.6677  -1.3638
    -0.8811  -0.4538   0.0991   0.3380   4.4493   6.7260   7.3613   7.9124
     8.1752  10.1557  10.4960  11.9496  12.0896  12.5309  13.1036  13.8743
    14.6056  14.8641

          k = 0.1875 0.5467 0.0000 (  6227 PWs)   bands (ev):

   -44.6310 -22.8723 -22.7996 -22.6779 -11.9546 -11.4799  -1.7499  -1.5019
    -0.8343  -0.4647   0.0333   0.2375   4.5201   7.1063   7.3711   7.9672
     8.0156  10.0368  11.0965  11.8519  12.1140  12.4994  12.6956  13.7614
    14.6142  14.8366

          k = 0.1875-0.0364 0.0000 (  6260 PWs)   bands (ev):

   -44.6623 -22.8933 -22.6112 -22.5210 -12.4296 -11.9520  -1.6702  -0.3852
     0.0659   0.3316   0.7447   1.4198   4.3522   5.8835   6.5117   6.8750
     7.2164   7.9858   9.3973  10.8703  12.0167  12.5567  13.7991  14.4434
    14.9264  15.3163

          k = 0.2500 0.1458 0.0000 (  6239 PWs)   bands (ev):

   -44.6529 -22.8648 -22.7175 -22.5435 -12.2616 -11.8475  -1.4125  -0.9370
    -0.4080   0.2060   0.3410   1.2740   4.1539   6.1614   6.8587   6.9778
     7.5332   8.6160  10.0297  11.3787  12.0141  12.3154  13.9670  14.2775
    15.2339  15.4230

          k = 0.2500 0.2187 0.0000 (  6230 PWs)   bands (ev):

   -44.6485 -22.8517 -22.7597 -22.5601 -12.1904 -11.7884  -1.3531  -1.0955
    -0.6421   0.0192   0.3408   1.1459   4.1161   6.2406   7.0615   7.1906
     7.6175   8.9060  10.1773  11.4846  12.0763  12.3369  13.9816  14.2267
    14.9417  15.2408

          k = 0.2500 0.2916 0.0000 (  6223 PWs)   bands (ev):

   -44.6433 -22.8363 -22.7986 -22.5904 -12.1125 -11.7089  -1.4167  -1.0887
    -0.8708  -0.2184   0.3170   0.8743   4.1798   6.2648   7.2500   7.5962
     7.7252   9.3238  10.2704  11.6446  12.3178  12.4750  13.7993  14.0483
    14.2612  15.0168

          k = 0.2500 0.3645 0.0000 (  6228 PWs)   bands (ev):

   -44.6381 -22.8287 -22.8196 -22.6305 -12.0413 -11.6184  -1.5200  -1.1131
    -0.9758  -0.3956   0.2095   0.5467   4.3347   6.3553   7.3686   7.7501
     8.0980   9.8555  10.2877  11.8613  12.4675  12.6145  13.3846  13.7242
    14.3021  14.8815

          k = 0.2500 0.4374 0.0000 (  6223 PWs)   bands (ev):

   -44.6337 -22.8438 -22.8071 -22.6732 -11.9857 -11.5334  -1.5735  -1.3136
    -0.8883  -0.4990  -0.0084   0.3121   4.5417   6.5519   7.3265   8.0055
     8.2085  10.2480  10.5427  11.9080  12.1312  12.7858  13.4132  13.8969
    14.5317  14.6672

          k = 0.2500 0.5103 0.0000 (  6234 PWs)   bands (ev):

   -44.6307 -22.8479 -22.7983 -22.7081 -11.9506 -11.4726  -1.5863  -1.4443
    -0.8281  -0.5663  -0.2243   0.1960   4.7301   6.8375   7.2634   7.9945
     8.2145  10.2427  11.1191  11.7171  12.3054  12.8587  13.2622  13.9910
    14.5187  14.7433

          k = 0.2500 0.5832 0.0000 (  6222 PWs)   bands (ev):

   -44.6297 -22.8473 -22.7952 -22.7224 -11.9385 -11.4506  -1.5951  -1.4755
    -0.8098  -0.5998  -0.3002   0.1578   4.8083   7.0367   7.2417   7.7830
     8.2905  10.2263  11.1978  12.0375  12.4286  12.8504  12.9241  13.8548
    14.7087  14.7969

          k = 0.2500-0.0729 0.0000 (  6244 PWs)   bands (ev):

   -44.6559 -22.8735 -22.6823 -22.5394 -12.3115 -11.8832  -1.4754  -0.7587
    -0.2058   0.1623   0.4630   1.2742   4.2484   5.9715   6.7855   6.9709
     7.4244   8.4583   9.9009  11.2908  12.1692  12.4048  13.6205  14.3114
    15.1854  15.3339

          k = 0.2500 0.0000 0.0000 (  6245 PWs)   bands (ev):

   -44.6569 -22.8766 -22.6677 -22.5402 -12.3294 -11.8950  -1.4990  -0.6752
    -0.1269   0.1247   0.5150   1.2515   4.3004   5.8714   6.7891   6.9877
     7.3680   8.4107   9.8496  11.2554  12.3297  12.4713  13.3635  14.2475
    15.1315  15.2307

          k = 0.3125 0.1822 0.0000 (  6225 PWs)   bands (ev):

   -44.6459 -22.8433 -22.7954 -22.5604 -12.1479 -11.7490  -1.4719  -1.1093
    -0.8423   0.0962   0.2402   1.1737   4.0130   6.5259   7.1224   7.2481
     7.7065   9.0365  10.1478  11.4281  11.9610  12.2996  13.9449  14.5079
    14.9169  15.2748

          k = 0.3125 0.2551 0.0000 (  6225 PWs)   bands (ev):

   -44.6420 -22.8339 -22.8277 -22.5768 -12.0926 -11.6865  -1.6122  -1.1149
    -0.9765  -0.0635   0.2615   1.0339   4.0210   6.6287   7.2254   7.6141
     7.7434   9.3201  10.1442  11.4584  12.0434  12.3345  13.7292  14.3645
    14.6708  15.0106

          k = 0.3125 0.3280 0.0000 (  6230 PWs)   bands (ev):

   -44.6378 -22.8532 -22.8189 -22.6092 -12.0370 -11.6119  -1.6923  -1.2360
    -0.9409  -0.2623   0.2421   0.7131   4.1685   6.6597   7.3989   7.7132
     8.0446   9.8049  10.1361  11.6733  12.2354  12.3934  13.3156  13.8860
    14.5961  14.9118

          k = 0.3125 0.4009 0.0000 (  6217 PWs)   bands (ev):

   -44.6340 -22.8600 -22.8075 -22.6539 -11.9888 -11.5373  -1.6815  -1.3605
    -0.8770  -0.4224   0.1123   0.3512   4.4227   6.7223   7.3864   7.9241
     8.1886  10.1361  10.4996  11.9523  12.1064  12.5646  13.1050  13.8485
    14.5570  14.8170

          k = 0.3125 0.4738 0.0000 (  6228 PWs)   bands (ev):

   -44.6310 -22.8500 -22.7987 -22.7034 -11.9535 -11.4767  -1.5910  -1.4419
    -0.8258  -0.5528  -0.2077   0.1888   4.7206   6.8301   7.2686   7.9990
     8.2324  10.2282  11.1287  11.7246  12.3060  12.8816  13.2356  14.0183
    14.4992  14.7383

          k = 0.3125 0.5467 0.0000 (  6219 PWs)   bands (ev):

   -44.6294 -22.8303 -22.7940 -22.7447 -11.9350 -11.4429  -1.5629  -1.3671
    -0.8017  -0.7278  -0.4008   0.1282   4.9437   6.9542   7.1861   7.7130
     8.4299  10.3687  10.9733  12.3460  12.5181  13.0937  13.2664  13.5756
    14.6592  14.8391

          k = 0.3125-0.1093 0.0000 (  6238 PWs)   bands (ev):

   -44.6488 -22.8520 -22.7585 -22.5588 -12.1928 -11.7927  -1.3506  -1.0889
    -0.6285   0.0185   0.3405   1.1368   4.1196   6.2401   7.0761   7.1846
     7.6173   8.9059  10.1718  11.4938  12.0827  12.3515  13.9962  14.2588
    14.8873  15.2445

          k = 0.3125-0.0364 0.0000 (  6235 PWs)   bands (ev):

   -44.6504 -22.8568 -22.7324 -22.5642 -12.2180 -11.8149  -1.3179  -1.0037
    -0.4414  -0.1158   0.4026   1.0537   4.2364   5.9900   7.1078   7.1986
     7.5409   8.8615  10.2042  11.5248  12.3106  12.6364  13.4403  14.0528
    14.8034  15.1279

          k = 0.3750 0.2187 0.0000 (  6223 PWs)   bands (ev):

   -44.6399 -22.8610 -22.8245 -22.5746 -12.0628 -11.6481  -1.7842  -1.2457
    -0.9596  -0.0013   0.1968   1.0986   3.9324   6.9365   7.2775   7.6628
     7.8314   9.3901  10.0617  11.3009  11.9692  12.2897  13.4482  14.4594
    14.6794  14.8319

          k = 0.3750 0.2916 0.0000 (  6226 PWs)   bands (ev):

   -44.6371 -22.8828 -22.8162 -22.5897 -12.0265 -11.5955  -1.8862  -1.3682
    -0.9146  -0.1163   0.2083   0.9515   3.9872   7.0499   7.3658   7.7978
     7.9830   9.6651  10.0299  11.3704  12.0218  12.2922  13.1271  14.0475
    14.5217  14.8331

          k = 0.3750 0.3645 0.0000 (  6223 PWs)   bands (ev):

   -44.6343 -22.8882 -22.8078 -22.6220 -11.9917 -11.5402  -1.8801  -1.4478
    -0.8671  -0.2756   0.1869   0.6016   4.1923   7.0971   7.4814   7.7796
     8.1293   9.9251  10.3447  11.6925  12.1489  12.3036  12.7543  13.6838
    14.5282  14.8518

          k = 0.3750 0.4374 0.0000 (  6228 PWs)   bands (ev):

   -44.6319 -22.8759 -22.8007 -22.6670 -11.9630 -11.4915  -1.7625  -1.4884
    -0.8288  -0.4253   0.0588   0.2332   4.4933   7.0963   7.3806   7.9863
     8.0479  10.0123  11.0944  11.8788  12.1578  12.4929  12.6562  13.7771
    14.5698  14.8242

          k = 0.3750 0.5103 0.0000 (  6225 PWs)   bands (ev):

   -44.6303 -22.8499 -22.7959 -22.7152 -11.9442 -11.4582  -1.5920  -1.4684
    -0.8079  -0.5805  -0.2762   0.1405   4.8015   7.0243   7.2420   7.7722
     8.3350  10.1986  11.2337  12.0138  12.4463  12.8580  12.9073  13.9226
    14.6805  14.7937

          k = 0.3750 0.5832 0.0000 (  6232 PWs)   bands (ev):

   -44.6297 -22.8307 -22.7943 -22.7421 -11.9376 -11.4464  -1.5543  -1.3600
    -0.8105  -0.7167  -0.3957   0.1201   4.9481   6.9502   7.1855   7.6914
     8.4553  10.3483  11.0012  12.2909  12.5387  13.1030  13.3048  13.5999
    14.5887  14.8773

          k = 0.3750-0.1458 0.0000 (  6211 PWs)   bands (ev):

   -44.6423 -22.8336 -22.8266 -22.5764 -12.0949 -11.6902  -1.6027  -1.1071
    -0.9703  -0.0669   0.2600   1.0230   4.0287   6.6405   7.2244   7.5764
     7.7663   9.3224  10.1413  11.4597  12.0491  12.3467  13.7343  14.3192
    14.6736  15.0680

          k = 0.3750-0.0729 0.0000 (  6231 PWs)   bands (ev):

   -44.6439 -22.8369 -22.7961 -22.5883 -12.1171 -11.7170  -1.3996  -1.0876
    -0.8423  -0.2236   0.3144   0.8591   4.1895   6.2672   7.2594   7.5814
     7.7306   9.3216  10.2674  11.6642  12.3263  12.5010  13.8180  13.9925
    14.3093  15.0125

          k = 0.3750 0.0000 0.0000 (  6227 PWs)   bands (ev):

   -44.6444 -22.8386 -22.7817 -22.5958 -12.1251 -11.7261  -1.2887  -1.1144
    -0.7465  -0.3124   0.3138   0.7859   4.2729   6.1035   7.2815   7.5692
     7.7419   9.3229  10.3359  11.7345  12.5714  12.7053  13.5558  13.8740
    13.9404  15.0659

          k = 0.4375 0.2551 0.0000 (  6218 PWs)   bands (ev):

   -44.6359 -22.9039 -22.8123 -22.5840 -12.0117 -11.5712  -2.0131  -1.4635
    -0.8912  -0.0676   0.1800   1.0520   3.9080   7.1732   7.5121   7.8826
     8.0255   9.6013   9.9976  11.1994  11.9249  12.2614  12.9184  14.1711
    14.3253  14.5512

          k = 0.4375 0.3280 0.0000 (  6223 PWs)   bands (ev):

   -44.6344 -22.9106 -22.8079 -22.5967 -11.9939 -11.5419  -2.0373  -1.5151
    -0.8661  -0.1434   0.1818   0.9070   3.9883   7.2703   7.5690   7.8439
     8.1061   9.7271  10.1336  11.3219  11.9362  12.2836  12.7225  13.7565
    14.4285  14.5482

          k = 0.4375 0.4009 0.0000 (  6216 PWs)   bands (ev):

   -44.6331 -22.8997 -22.8039 -22.6266 -11.9774 -11.5147  -1.9429  -1.5162
    -0.8432  -0.2778   0.1654   0.5586   4.2112   7.3188   7.5614   7.8191
     8.0112   9.8297  10.6354  11.7112  12.0778  12.3514  12.4290  13.5827
    14.4828  14.7454

          k = 0.4375 0.4738 0.0000 (  6222 PWs)   bands (ev):

   -44.6320 -22.8746 -22.8009 -22.6669 -11.9648 -11.4940  -1.7549  -1.4787
    -0.8299  -0.4261   0.0572   0.2263   4.5003   7.1090   7.3757   7.9424
     8.0727  10.0074  11.0848  11.8699  12.1852  12.4726  12.6970  13.7594
    14.5715  14.8411

          k = 0.4375 0.5467 0.0000 (  6216 PWs)   bands (ev):

   -44.6315 -22.8482 -22.7992 -22.7017 -11.9578 -11.4827  -1.5752  -1.4208
    -0.8296  -0.5494  -0.2112   0.1771   4.7335   6.8336   7.2617   7.9382
     8.2811  10.2134  11.1384  11.6925  12.3606  12.8526  13.3132  14.0024
    14.4762  14.7227

          k = 0.4375-0.1822 0.0000 (  6223 PWs)   bands (ev):

   -44.6372 -22.8814 -22.8164 -22.5897 -12.0281 -11.5980  -1.8788  -1.3586
    -0.9150  -0.1188   0.2066   0.9434   3.9943   7.0629   7.3684   7.8213
     7.9344   9.6640  10.0274  11.3650  12.0332  12.3007  13.1401  13.9791
    14.5387  14.8981

          k = 0.4375-0.1093 0.0000 (  6227 PWs)   bands (ev):

   -44.6383 -22.8504 -22.8194 -22.6086 -12.0409 -11.6181  -1.6752  -1.2127
    -0.9411  -0.2678   0.2386   0.6966   4.1827   6.6740   7.3650   7.7809
     7.9802   9.8048  10.1294  11.6845  12.2459  12.4077  13.3034  13.8713
    14.6169  14.9682

          k = 0.4375-0.0364 0.0000 (  6215 PWs)   bands (ev):

   -44.6388 -22.8263 -22.8199 -22.6275 -12.0479 -11.6288  -1.4964  -1.0778
    -0.9759  -0.3989   0.2029   0.5321   4.3485   6.3572   7.3486   7.8171
     8.0386   9.8461  10.2866  11.9009  12.4867  12.6098  13.3800  13.7466
    14.3302  14.8722

          k =-0.5000-0.2916 0.0000 (  6224 PWs)   bands (ev):

   -44.6345 -22.9189 -22.8080 -22.5874 -11.9947 -11.5425  -2.0948  -1.5394
    -0.8670  -0.0911   0.1760   1.0361   3.9060   7.2209   7.6579   7.9088
     8.1593   9.6331  10.0251  11.1686  11.8263  12.2856  12.7366  13.9779
    14.2150  14.4176

          k =-0.5000-0.2187 0.0000 (  6219 PWs)   bands (ev):

   -44.6345 -22.9101 -22.8080 -22.5967 -11.9945 -11.5428  -2.0346  -1.5117
    -0.8664  -0.1443   0.1812   0.9040   3.9911   7.2643   7.5955   7.8526
     8.0726   9.7159  10.1413  11.3185  11.9387  12.2882  12.7371  13.7210
    14.4356  14.5746

          k =-0.5000-0.1458 0.0000 (  6219 PWs)   bands (ev):

   -44.6345 -22.8864 -22.8081 -22.6220 -11.9940 -11.5435  -1.8699  -1.4345
    -0.8681  -0.2786   0.1848   0.5913   4.2021   7.1165   7.4576   7.8372
     8.0606   9.9133  10.3431  11.6945  12.1617  12.3045  12.7853  13.6402
    14.5371  14.8999

          k =-0.5000-0.0729 0.0000 (  6219 PWs)   bands (ev):

   -44.6345 -22.8570 -22.8081 -22.6529 -11.9935 -11.5442  -1.6619  -1.3336
    -0.8792  -0.4252   0.1065   0.3358   4.4391   6.7328   7.3604   7.9923
     8.1122  10.1287  10.4845  11.9872  12.1272  12.5316  13.1546  13.8299
    14.5649  14.8592

          k =-0.5000 0.0000 0.0000 (  6228 PWs)   bands (ev):

   -44.6345 -22.8418 -22.8081 -22.6687 -11.9933 -11.5445  -1.5529  -1.2789
    -0.8906  -0.4922  -0.0113   0.2974   4.5537   6.5516   7.3140   8.0704
     8.1443  10.2289  10.5324  11.9299  12.1791  12.7697  13.5079  13.8614
    14.5119  14.6509

     highest occupied, lowest unoccupied level (ev):     4.9481    5.8714

!    total energy              =    -591.24394728 Ry
     total all-electron energy =    -13333.877223 Ry
     estimated scf accuracy    <          8.1E-11 Ry

     The total energy is the sum of the following terms:
     one-electron contribution =    -205.93019551 Ry
     hartree contribution      =     110.97270430 Ry
     xc contribution           =     -37.62057830 Ry
     ewald contribution        =     -27.54814637 Ry
     one-center paw contrib.   =    -431.11773140 Ry

     convergence has been achieved in   6 iterations

     negative rho (up, down):  1.690E-08 0.000E+00

     Forces acting on atoms (cartesian axes, Ry/au):

     atom    1 type  1   force =     0.00000000    0.00405188   -0.00011565
     atom    2 type  2   force =     0.00000000   -0.00210209    0.00223260
     atom    3 type  3   force =     0.00000000   -0.00194979   -0.00211695
     The non-local contrib.  to forces
     atom    1 type  1   force =     0.00000000    0.00033212   -0.00057972
     atom    2 type  2   force =     0.00000000   -0.00182854   -0.21214635
     atom    3 type  3   force =     0.00000000   -0.00183836    0.20859103
     The ionic contribution  to forces
     atom    1 type  1   force =    -0.00000001   -0.02634207   -0.34023191
     atom    2 type  2   force =     0.00000000    0.01438493   21.41887776
     atom    3 type  3   force =     0.00000000    0.01195714  -21.07864585
     The local contribution  to forces
     atom    1 type  1   force =    -0.00000000    0.02994043    0.34044085
     atom    2 type  2   force =     0.00000003   -0.01465582  -21.21226813
     atom    3 type  3   force =    -0.00000000   -0.01219501   20.87131288
     The core correction contribution to forces
     atom    1 type  1   force =    -0.00000000    0.00007194    0.00034767
     atom    2 type  2   force =    -0.00000000   -0.00005162    0.00782906
     atom    3 type  3   force =    -0.00000000    0.00008172   -0.00331497
     The Hubbard contrib.    to forces
     atom    1 type  1   force =     0.00000000    0.00000000    0.00000000
     atom    2 type  2   force =     0.00000000    0.00000000    0.00000000
     atom    3 type  3   force =     0.00000000    0.00000000    0.00000000
     The SCF correction term to forces
     atom    1 type  1   force =    -0.00000000    0.00000566   -0.00003163
     atom    2 type  2   force =     0.00000000    0.00000517    0.00000116
     atom    3 type  3   force =     0.00000000    0.00000094    0.00000087

     Total force =     0.005841     Total SCF correction =     0.000033
     Energy error            =      5.3E-05 Ry
     Gradient error          =      4.1E-03 Ry/Bohr

     number of scf cycles    =   2
     number of bfgs steps    =   1

     energy             old  =    -591.2438939301 Ry
     energy             new  =    -591.2439472837 Ry

     CASE: energy            _new < energy            _old

     new trust radius        =       0.0061633973 bohr
     new conv_thr            =       0.0000000005 Ry


ATOMIC_POSITIONS (angstrom)
Zr            0.0000000000        0.0062248199       10.2765876053
Cl           -0.0000000017        2.0112110603       11.9680135530
Br           -0.0000000017        2.0114209644        8.4185476161



     Writing config-only to output data dir ./tmp/ZrClBr.save/
     NEW-OLD atomic charge density approx. for the potential

     Check: negative core charge=   -0.000004

     negative rho (up, down):  1.596E-08 0.000E+00

     total cpu time spent up to now is       28.6 secs

     Self-consistent Calculation

     iteration #  1     ecut=    65.00 Ry     beta= 0.70
     Davidson diagonalization with overlap
     ethr =  1.00E-06,  avg # of iterations =  3.0

     Threshold (ethr) on eigenvalues was too large:
     Diagonalizing with lowered threshold

     Davidson diagonalization with overlap
     ethr =  1.16E-08,  avg # of iterations =  3.2

     negative rho (up, down):  1.586E-08 0.000E+00

     total cpu time spent up to now is       32.4 secs

     total energy              =    -591.24398812 Ry
     estimated scf accuracy    <       0.00000330 Ry

     iteration #  2     ecut=    65.00 Ry     beta= 0.70
     Davidson diagonalization with overlap
     ethr =  1.27E-08,  avg # of iterations =  2.0

     negative rho (up, down):  1.611E-08 0.000E+00

     total cpu time spent up to now is       33.9 secs

     total energy              =    -591.24398775 Ry
     estimated scf accuracy    <       0.00000766 Ry

     iteration #  3     ecut=    65.00 Ry     beta= 0.70
     Davidson diagonalization with overlap
     ethr =  1.27E-08,  avg # of iterations =  2.0

     negative rho (up, down):  1.609E-08 0.000E+00

     total cpu time spent up to now is       35.3 secs

     total energy              =    -591.24398941 Ry
     estimated scf accuracy    <       0.00000034 Ry

     iteration #  4     ecut=    65.00 Ry     beta= 0.70
     Davidson diagonalization with overlap
     ethr =  1.32E-09,  avg # of iterations =  1.0

     negative rho (up, down):  1.610E-08 0.000E+00

     total cpu time spent up to now is       36.7 secs

     total energy              =    -591.24398947 Ry
     estimated scf accuracy    <       0.00000004 Ry

     iteration #  5     ecut=    65.00 Ry     beta= 0.70
     Davidson diagonalization with overlap
     ethr =  1.39E-10,  avg # of iterations =  2.0

     negative rho (up, down):  1.611E-08 0.000E+00

     total cpu time spent up to now is       38.1 secs

     total energy              =    -591.24398948 Ry
     estimated scf accuracy    <       0.00000001 Ry

     iteration #  6     ecut=    65.00 Ry     beta= 0.70
     Davidson diagonalization with overlap
     ethr =  4.57E-11,  avg # of iterations =  1.3

     negative rho (up, down):  1.610E-08 0.000E+00

     total cpu time spent up to now is       39.4 secs

     End of self-consistent calculation

          k = 0.0000 0.0000 0.0000 (  6283 PWs)   bands (ev):

   -44.6756 -22.9241 -22.5138 -22.4995 -12.5979 -12.0312  -1.9596   0.0959
     0.3947   0.4516   1.5887   1.6648   4.3827   6.1022   6.2238   6.8859
     6.8952   7.0459   8.5618   9.7066  11.4983  13.8045  13.9294  14.1355
    14.8814  15.3895

          k = 0.0000 0.0729 0.0000 (  6265 PWs)   bands (ev):

   -44.6742 -22.9197 -22.5174 -22.5162 -12.5706 -12.0187  -1.9131   0.0453
     0.3755   0.3803   1.4952   1.5512   4.3930   6.1393   6.1462   6.8560
     6.9465   7.2275   8.6999   9.9445  11.5699  13.4200  13.9362  14.5481
    14.9120  15.1110

          k = 0.0000 0.1458 0.0000 (  6275 PWs)   bands (ev):

   -44.6700 -22.9075 -22.5635 -22.5277 -12.4932 -11.9815  -1.7825  -0.1499
     0.2130   0.3347   1.0756   1.4536   4.3971   6.0052   6.2587   6.8133
     7.1069   7.6593   9.0850  10.4992  11.7874  12.8440  14.2996  14.3116
    14.7681  15.1590

          k = 0.0000 0.2187 0.0000 (  6263 PWs)   bands (ev):

   -44.6638 -22.8890 -22.6333 -22.5430 -12.3799 -11.9201  -1.5951  -0.5063
     0.0020   0.2551   0.6144   1.3281   4.3340   5.9792   6.4768   6.8471
     7.3168   8.1511   9.6178  11.0502  12.0511  12.4550  13.8075  14.5790
    14.8572  15.4394

          k = 0.0000 0.2916 0.0000 (  6245 PWs)   bands (ev):

   -44.6565 -22.8672 -22.7142 -22.5611 -12.2526 -11.8354  -1.4063  -0.9130
    -0.3826   0.1477   0.3510   1.2046   4.1962   6.1638   6.8010   6.9529
     7.5231   8.6123  10.0506  11.3917  12.0079  12.3365  14.0262  14.3083
    15.3312  15.3480

          k = 0.0000 0.3645 0.0000 (  6224 PWs)   bands (ev):

   -44.6491 -22.8454 -22.7935 -22.5790 -12.1363 -11.7324  -1.4568  -1.1001
    -0.8288   0.0306   0.2553   1.0995   4.0595   6.5157   7.0886   7.2136
     7.6905   9.0279  10.1693  11.4409  11.9395  12.3143  14.0134  14.5695
    15.0054  15.1905

          k = 0.0000 0.4374 0.0000 (  6218 PWs)   bands (ev):

   -44.6429 -22.8603 -22.8262 -22.5941 -12.0483 -11.6279  -1.7665  -1.2476
    -0.9560  -0.0727   0.2200   1.0201   3.9809   6.9125   7.2397   7.6526
     7.8109   9.3761  10.0998  11.2788  11.9700  12.2994  13.5255  14.5359
    14.5896  14.8992

          k = 0.0000 0.5103 0.0000 (  6216 PWs)   bands (ev):

   -44.6387 -22.9039 -22.8138 -22.6042 -11.9949 -11.5488  -1.9950  -1.4749
    -0.8913  -0.1427   0.2091   0.9705   3.9579   7.1261   7.4821   7.8550
     8.0416   9.5926  10.0454  11.1455  11.9500  12.2999  12.9732  14.0676
    14.3797  14.6063

          k = 0.0000-0.5832 0.0000 (  6246 PWs)   bands (ev):

   -44.6373 -22.9192 -22.8095 -22.6077 -11.9771 -11.5193  -2.0766  -1.5542
    -0.8685  -0.1674   0.2072   0.9536   3.9565   7.1674   7.6267   7.8784
     8.1873   9.6370  10.0673  11.1039  11.8625  12.3436  12.7777  13.8611
    14.2630  14.4637

          k = 0.0625 0.0364 0.0000 (  6281 PWs)   bands (ev):

   -44.6742 -22.9198 -22.5282 -22.5049 -12.5710 -12.0195  -1.9136   0.0369
     0.3382   0.4290   1.4372   1.6147   4.3891   6.0508   6.2421   6.8521
     6.9539   7.2258   8.6944   9.9402  11.5689  13.3765  14.0272  14.5143
    14.8779  15.0112

          k = 0.0625 0.1093 0.0000 (  6270 PWs)   bands (ev):

   -44.6714 -22.9115 -22.5526 -22.5194 -12.5187 -11.9946  -1.8249  -0.0839
     0.2408   0.3750   1.1831   1.5079   4.3970   6.0006   6.2621   6.8159
     7.0623   7.5314   8.9566  10.3350  11.7168  12.9840  14.1635  14.4684
    14.8343  15.0287

          k = 0.0625 0.1822 0.0000 (  6274 PWs)   bands (ev):

   -44.6663 -22.8962 -22.6069 -22.5365 -12.4233 -11.9453  -1.6645  -0.3580
     0.0756   0.2911   0.7673   1.3717   4.3735   5.9188   6.4322   6.8292
     7.2397   7.9864   9.4238  10.8774  12.0176  12.5519  13.8643  14.4109
    14.8996  15.3731

          k = 0.0625 0.2551 0.0000 (  6250 PWs)   bands (ev):

   -44.6595 -22.8760 -22.6795 -22.5559 -12.3030 -11.8719  -1.4689  -0.7393
    -0.1850   0.1183   0.4633   1.2234   4.2815   5.9789   6.7295   6.9225
     7.4362   8.4565   9.9284  11.2956  12.1557  12.4063  13.6655  14.3166
    15.1613  15.3654

          k = 0.0625 0.3280 0.0000 (  6226 PWs)   bands (ev):

   -44.6521 -22.8542 -22.7573 -22.5762 -12.1818 -11.7769  -1.3435  -1.0769
    -0.6181  -0.0239   0.3380   1.0816   4.1565   6.2292   7.0345   7.1564
     7.6085   8.9008  10.1900  11.5035  12.0602  12.3530  14.0299  14.2844
    14.9642  15.2509

          k = 0.0625 0.4009 0.0000 (  6218 PWs)   bands (ev):

   -44.6453 -22.8352 -22.8268 -22.5947 -12.0812 -11.6707  -1.5920  -1.1081
    -0.9675  -0.1164   0.2677   0.9617   4.0668   6.6178   7.1835   7.5821
     7.7386   9.3110  10.1677  11.4563  12.0257  12.3455  13.7973  14.3715
    14.6907  15.0658

          k = 0.0625 0.4738 0.0000 (  6225 PWs)   bands (ev):

   -44.6401 -22.8819 -22.8180 -22.6087 -12.0122 -11.5762  -1.8658  -1.3714
    -0.9134  -0.1794   0.2269   0.8757   4.0349   7.0303   7.3255   7.7868
     7.9627   9.6504  10.0725  11.3277  12.0346  12.3133  13.1849  13.9874
    14.5745  14.8978

          k = 0.0625 0.5467 0.0000 (  6224 PWs)   bands (ev):

   -44.6373 -22.9106 -22.8096 -22.6163 -11.9774 -11.5203  -2.0187  -1.5276
    -0.8672  -0.2125   0.2091   0.8310   4.0353   7.2178   7.5560   7.8201
     8.1078   9.7334  10.1676  11.2563  11.9653  12.3353  12.7588  13.6894
    14.4696  14.5791

          k = 0.1250 0.0729 0.0000 (  6272 PWs)   bands (ev):

   -44.6703 -22.9078 -22.5734 -22.5157 -12.4950 -11.9844  -1.7842  -0.1741
     0.1977   0.3830   1.0333   1.5167   4.3810   5.9437   6.3456   6.8176
     7.1128   7.6562   9.0673  10.4897  11.7829  12.8218  14.2170  14.3923
    14.7661  15.0941

          k = 0.1250 0.1458 0.0000 (  6271 PWs)   bands (ev):

   -44.6664 -22.8964 -22.6115 -22.5302 -12.4246 -11.9474  -1.6655  -0.3730
     0.0714   0.3134   0.7511   1.4069   4.3598   5.9056   6.4638   6.8274
     7.2473   7.9853   9.4129  10.8732  12.0137  12.5386  13.8290  14.4216
    14.9216  15.3490

          k = 0.1250 0.2187 0.0000 (  6243 PWs)   bands (ev):

   -44.6607 -22.8794 -22.6679 -22.5520 -12.3221 -11.8861  -1.4928  -0.6681
    -0.1161   0.0960   0.5126   1.2352   4.3164   5.8809   6.7484   6.9196
     7.4036   8.4099   9.8737  11.2558  12.2968  12.4495  13.3935  14.2447
    15.1226  15.2535

          k = 0.1250 0.2916 0.0000 (  6231 PWs)   bands (ev):

   -44.6539 -22.8592 -22.7334 -22.5776 -12.2083 -11.8014  -1.3117  -1.0025
    -0.4408  -0.1417   0.3981   1.0332   4.2553   5.9838   7.0494   7.1812
     7.5519   8.8608  10.2206  11.5218  12.2744  12.6043  13.4585  14.0552
    14.8743  15.1580

          k = 0.1250 0.3645 0.0000 (  6222 PWs)   bands (ev):

   -44.6471 -22.8390 -22.7977 -22.6032 -12.1050 -11.6997  -1.3997  -1.0832
    -0.8544  -0.2498   0.3145   0.8315   4.2090   6.2515   7.2165   7.5870
     7.7165   9.3197  10.2771  11.6581  12.2876  12.4783  13.8364  14.0361
    14.3089  15.0652

          k = 0.1250 0.4374 0.0000 (  6229 PWs)   bands (ev):

   -44.6414 -22.8522 -22.8213 -22.6247 -12.0265 -11.5984  -1.6723  -1.2308
    -0.9384  -0.3041   0.2474   0.6597   4.2049   6.6529   7.3407   7.7250
     8.0193   9.7981  10.1566  11.6603  12.2180  12.3942  13.3055  13.9184
    14.6448  14.9836

          k = 0.1250 0.5103 0.0000 (  6231 PWs)   bands (ev):

   -44.6375 -22.8877 -22.8099 -22.6391 -11.9784 -11.5232  -1.8611  -1.4541
    -0.8672  -0.3267   0.2035   0.5443   4.2300   7.0937   7.4342   7.7703
     8.1067   9.9405  10.3553  11.6391  12.1476  12.3244  12.7822  13.6651
    14.5795  14.8912

          k = 0.1250 0.5832 0.0000 (  6220 PWs)   bands (ev):

   -44.6361 -22.9001 -22.8058 -22.6441 -11.9623 -11.4953  -1.9281  -1.5314
    -0.8439  -0.3322   0.1882   0.5037   4.2453   7.2919   7.5503   7.7731
     8.0183   9.8580  10.6449  11.6387  12.0883  12.3898  12.4380  13.5735
    14.5291  14.7441

          k = 0.1250 0.0000 0.0000 (  6265 PWs)   bands (ev):

   -44.6716 -22.9118 -22.5598 -22.5106 -12.5200 -11.9967  -1.8262  -0.1002
     0.2308   0.4084   1.1539   1.5498   4.3874   5.9452   6.3351   6.8377
     7.0495   7.5285   8.9425  10.3272  11.7151  12.9678  14.2396  14.4076
    14.7899  15.0060

          k = 0.1875 0.1093 0.0000 (  6262 PWs)   bands (ev):

   -44.6643 -22.8898 -22.6414 -22.5303 -12.3836 -11.9263  -1.5979  -0.5311
    -0.0163   0.3090   0.5920   1.3953   4.3016   5.9492   6.5493   6.8592
     7.3224   8.1495   9.5903  11.0424  12.0457  12.4336  13.7436  14.5676
    14.9280  15.3636

          k = 0.1875 0.1822 0.0000 (  6256 PWs)   bands (ev):

   -44.6599 -22.8767 -22.6853 -22.5460 -12.3062 -11.8775  -1.4707  -0.7589
    -0.2057   0.1541   0.4621   1.2786   4.2508   5.9775   6.7665   6.9262
     7.4458   8.4567   9.9108  11.2892  12.1516  12.3860  13.6204  14.3026
    15.1737  15.3530

          k = 0.1875 0.2551 0.0000 (  6241 PWs)   bands (ev):

   -44.6542 -22.8596 -22.7362 -22.5724 -12.2103 -11.8048  -1.3123  -1.0124
    -0.4556  -0.1211   0.4022   1.0610   4.2377   5.9892   7.0566   7.1923
     7.5544   8.8618  10.2138  11.5162  12.2647  12.6220  13.4243  14.0384
    14.8827  15.1446

          k = 0.1875 0.3280 0.0000 (  6218 PWs)   bands (ev):

   -44.6479 -22.8410 -22.7861 -22.6055 -12.1150 -11.7122  -1.3006  -1.1102
    -0.7745  -0.3152   0.3164   0.7906   4.2718   6.0967   7.2435   7.5759
     7.7396   9.3268  10.3358  11.7163  12.5179  12.6823  13.5464  13.8978
    13.9638  15.0842

          k = 0.1875 0.4009 0.0000 (  6228 PWs)   bands (ev):

   -44.6422 -22.8302 -22.8225 -22.6389 -12.0357 -11.6125  -1.5083  -1.1059
    -0.9725  -0.4106   0.2060   0.5322   4.3482   6.3474   7.3418   7.7548
     8.0852   9.8557  10.2872  11.8686  12.4674  12.5826  13.3425  13.7734
    14.3392  14.9183

          k = 0.1875 0.4738 0.0000 (  6226 PWs)   bands (ev):

   -44.6378 -22.8600 -22.8103 -22.6659 -11.9802 -11.5272  -1.6658  -1.3594
    -0.8759  -0.4495   0.1008   0.3374   4.4447   6.7225   7.3558   7.9124
     8.1701  10.1544  10.4925  11.9495  12.0884  12.5299  13.1026  13.8722
    14.6027  14.8609

          k = 0.1875 0.5467 0.0000 (  6227 PWs)   bands (ev):

   -44.6354 -22.8760 -22.8032 -22.6811 -11.9518 -11.4779  -1.7486  -1.4973
    -0.8287  -0.4594   0.0364   0.2343   4.5149   7.1041   7.3658   7.9638
     8.0132  10.0374  11.0908  11.8496  12.1134  12.4986  12.6951  13.7596
    14.6135  14.8280

          k = 0.1875-0.0364 0.0000 (  6260 PWs)   bands (ev):

   -44.6667 -22.8968 -22.6144 -22.5249 -12.4266 -11.9506  -1.6675  -0.3787
     0.0682   0.3322   0.7488   1.4209   4.3509   5.8788   6.5065   6.8662
     7.2215   7.9840   9.3954  10.8690  12.0154  12.5516  13.8072  14.4499
    14.9138  15.3252

          k = 0.2500 0.1458 0.0000 (  6239 PWs)   bands (ev):

   -44.6573 -22.8684 -22.7206 -22.5473 -12.2587 -11.8457  -1.4095  -0.9322
    -0.4044   0.2089   0.3400   1.2767   4.1538   6.1551   6.8554   6.9728
     7.5309   8.6135  10.0246  11.3810  12.0099  12.3144  13.9720  14.2727
    15.2372  15.4223

          k = 0.2500 0.2187 0.0000 (  6230 PWs)   bands (ev):

   -44.6529 -22.8553 -22.7629 -22.5638 -12.1874 -11.7866  -1.3491  -1.0919
    -0.6383   0.0194   0.3423   1.1492   4.1153   6.2349   7.0556   7.1861
     7.6157   8.9038  10.1713  11.4876  12.0726  12.3376  13.9796  14.2269
    14.9387  15.2418

          k = 0.2500 0.2916 0.0000 (  6223 PWs)   bands (ev):

   -44.6477 -22.8399 -22.8018 -22.5940 -12.1094 -11.7071  -1.4121  -1.0858
    -0.8667  -0.2187   0.3187   0.8776   4.1787   6.2589   7.2409   7.5944
     7.7232   9.3226  10.2636  11.6472  12.3156  12.4773  13.7952  14.0458
    14.2598  15.0156

          k = 0.2500 0.3645 0.0000 (  6228 PWs)   bands (ev):

   -44.6425 -22.8321 -22.8232 -22.6340 -12.0383 -11.6166  -1.5161  -1.1085
    -0.9726  -0.3953   0.2110   0.5492   4.3334   6.3493   7.3576   7.7526
     8.0930   9.8554  10.2804  11.8648  12.4710  12.6110  13.3832  13.7194
    14.2981  14.8795

          k = 0.2500 0.4374 0.0000 (  6223 PWs)   bands (ev):

   -44.6381 -22.8473 -22.8107 -22.6765 -11.9827 -11.5314  -1.5704  -1.3089
    -0.8846  -0.4973  -0.0059   0.3121   4.5398   6.5467   7.3181   8.0056
     8.2033  10.2440  10.5409  11.9088  12.1342  12.7816  13.4143  13.8930
    14.5267  14.6637

          k = 0.2500 0.5103 0.0000 (  6234 PWs)   bands (ev):

   -44.6351 -22.8514 -22.8020 -22.7113 -11.9476 -11.4706  -1.5835  -1.4402
    -0.8239  -0.5631  -0.2211   0.1938   4.7272   6.8339   7.2563   7.9883
     8.2138  10.2399  11.1176  11.7147  12.3088  12.8556  13.2617  13.9903
    14.5126  14.7399

          k = 0.2500 0.5832 0.0000 (  6222 PWs)   bands (ev):

   -44.6341 -22.8509 -22.7989 -22.7255 -11.9356 -11.4485  -1.5917  -1.4724
    -0.8053  -0.5959  -0.2968   0.1547   4.8049   7.0348   7.2353   7.7754
     8.2897  10.2241  11.1951  12.0352  12.4315  12.8481  12.9235  13.8536
    14.7065  14.7902

          k = 0.2500-0.0729 0.0000 (  6244 PWs)   bands (ev):

   -44.6602 -22.8771 -22.6853 -22.5433 -12.3086 -11.8814  -1.4728  -0.7532
    -0.2017   0.1636   0.4634   1.2758   4.2492   5.9647   6.7826   6.9645
     7.4241   8.4560   9.8963  11.2911  12.1655  12.4010  13.6272  14.3119
    15.1797  15.3355

          k = 0.2500 0.0000 0.0000 (  6245 PWs)   bands (ev):

   -44.6613 -22.8802 -22.6707 -22.5441 -12.3265 -11.8933  -1.4964  -0.6693
    -0.1221   0.1241   0.5166   1.2525   4.3018   5.8644   6.7861   6.9798
     7.3697   8.4087   9.8453  11.2549  12.3247  12.4657  13.3721  14.2519
    15.1242  15.2300

          k = 0.3125 0.1822 0.0000 (  6225 PWs)   bands (ev):

   -44.6503 -22.8470 -22.7984 -22.5641 -12.1450 -11.7470  -1.4674  -1.1067
    -0.8396   0.0989   0.2397   1.1764   4.0136   6.5193   7.1163   7.2457
     7.7024   9.0330  10.1425  11.4292  11.9564  12.2987  13.9440  14.5092
    14.9171  15.2739

          k = 0.3125 0.2551 0.0000 (  6225 PWs)   bands (ev):

   -44.6464 -22.8373 -22.8310 -22.5805 -12.0897 -11.6845  -1.6076  -1.1121
    -0.9740  -0.0637   0.2638   1.0369   4.0210   6.6231   7.2161   7.6092
     7.7431   9.3174  10.1394  11.4570  12.0405  12.3347  13.7278  14.3635
    14.6704  15.0118

          k = 0.3125 0.3280 0.0000 (  6230 PWs)   bands (ev):

   -44.6423 -22.8562 -22.8226 -22.6128 -12.0339 -11.6100  -1.6880  -1.2326
    -0.9385  -0.2626   0.2441   0.7161   4.1683   6.6541   7.3835   7.7186
     8.0390   9.8034  10.1312  11.6718  12.2346  12.3937  13.3132  13.8829
    14.5968  14.9126

          k = 0.3125 0.4009 0.0000 (  6217 PWs)   bands (ev):

   -44.6384 -22.8631 -22.8112 -22.6574 -11.9857 -11.5353  -1.6776  -1.3566
    -0.8744  -0.4220   0.1139   0.3533   4.4224   6.7168   7.3749   7.9249
     8.1828  10.1306  10.4994  11.9544  12.1069  12.5607  13.1034  13.8451
    14.5558  14.8171

          k = 0.3125 0.4738 0.0000 (  6228 PWs)   bands (ev):

   -44.6354 -22.8532 -22.8024 -22.7069 -11.9504 -11.4747  -1.5871  -1.4381
    -0.8230  -0.5510  -0.2059   0.1888   4.7197   6.8258   7.2603   7.9929
     8.2294  10.2232  11.1298  11.7225  12.3098  12.8781  13.2335  14.0182
    14.4950  14.7340

          k = 0.3125 0.5467 0.0000 (  6219 PWs)   bands (ev):

   -44.6338 -22.8335 -22.7977 -22.7480 -11.9318 -11.4408  -1.5582  -1.3643
    -0.7992  -0.7239  -0.3996   0.1272   4.9421   6.9529   7.1789   7.7052
     8.4256  10.3637  10.9734  12.3453  12.5204  13.0922  13.2648  13.5747
    14.6537  14.8371

          k = 0.3125-0.1093 0.0000 (  6238 PWs)   bands (ev):

   -44.6532 -22.8557 -22.7614 -22.5626 -12.1899 -11.7907  -1.3470  -1.0853
    -0.6256   0.0219   0.3393   1.1386   4.1213   6.2327   7.0729   7.1825
     7.6113   8.9029  10.1653  11.4955  12.0784  12.3493  13.9970  14.2597
    14.8902  15.2433

          k = 0.3125-0.0364 0.0000 (  6235 PWs)   bands (ev):

   -44.6548 -22.8605 -22.7351 -22.5681 -12.2152 -11.8128  -1.3151  -0.9991
    -0.4379  -0.1134   0.4023   1.0545   4.2389   5.9821   7.1043   7.1975
     7.5345   8.8591  10.1969  11.5251  12.3059  12.6336  13.4438  14.0561
    14.8062  15.1260

          k = 0.3750 0.2187 0.0000 (  6223 PWs)   bands (ev):

   -44.6443 -22.8638 -22.8283 -22.5783 -12.0597 -11.6460  -1.7797  -1.2440
    -0.9576   0.0013   0.1972   1.1011   3.9332   6.9300   7.2706   7.6609
     7.8260   9.3843  10.0595  11.2987  11.9660  12.2873  13.4482  14.4610
    14.6802  14.8293

          k = 0.3750 0.2916 0.0000 (  6226 PWs)   bands (ev):

   -44.6415 -22.8856 -22.8199 -22.5933 -12.0234 -11.5934  -1.8817  -1.3662
    -0.9126  -0.1159   0.2107   0.9543   3.9876   7.0433   7.3569   7.7962
     7.9781   9.6593  10.0297  11.3655  12.0203  12.2909  13.1284  14.0413
    14.5237  14.8363

          k = 0.3750 0.3645 0.0000 (  6223 PWs)   bands (ev):

   -44.6387 -22.8911 -22.8116 -22.6256 -11.9885 -11.5382  -1.8758  -1.4455
    -0.8649  -0.2752   0.1889   0.6042   4.1925   7.0914   7.4683   7.7812
     8.1233   9.9191  10.3459  11.6884  12.1457  12.3036  12.7570  13.6770
    14.5302  14.8538

          k = 0.3750 0.4374 0.0000 (  6228 PWs)   bands (ev):

   -44.6363 -22.8787 -22.8045 -22.6706 -11.9598 -11.4895  -1.7584  -1.4856
    -0.8263  -0.4242   0.0598   0.2351   4.4933   7.0917   7.3722   7.9801
     8.0435  10.0081  11.0939  11.8766  12.1576  12.4916  12.6551  13.7737
    14.5713  14.8231

          k = 0.3750 0.5103 0.0000 (  6225 PWs)   bands (ev):

   -44.6347 -22.8527 -22.7997 -22.7188 -11.9409 -11.4562  -1.5879  -1.4653
    -0.8048  -0.5789  -0.2755   0.1408   4.8009   7.0221   7.2348   7.7660
     8.3272  10.1953  11.2303  12.0137  12.4474  12.8568  12.9064  13.9206
    14.6823  14.7911

          k = 0.3750 0.5832 0.0000 (  6232 PWs)   bands (ev):

   -44.6341 -22.8334 -22.7981 -22.7459 -11.9343 -11.4444  -1.5504  -1.3562
    -0.8054  -0.7170  -0.3950   0.1199   4.9472   6.9497   7.1783   7.6847
     8.4466  10.3456  10.9969  12.2908  12.5385  13.1068  13.3028  13.5968
    14.5930  14.8715

          k = 0.3750-0.1458 0.0000 (  6211 PWs)   bands (ev):

   -44.6467 -22.8371 -22.8296 -22.5802 -12.0919 -11.6881  -1.5981  -1.1053
    -0.9685  -0.0622   0.2584   1.0248   4.0302   6.6334   7.2211   7.5769
     7.7560   9.3173  10.1367  11.4612  12.0444  12.3431  13.7349  14.3213
    14.6728  15.0665

          k = 0.3750-0.0729 0.0000 (  6231 PWs)   bands (ev):

   -44.6483 -22.8407 -22.7987 -22.5922 -12.1142 -11.7148  -1.3948  -1.0855
    -0.8409  -0.2189   0.3134   0.8598   4.1918   6.2599   7.2596   7.5790
     7.7196   9.3183  10.2598  11.6654  12.3239  12.4964  13.8201  13.9942
    14.3093  15.0141

          k = 0.3750 0.0000 0.0000 (  6227 PWs)   bands (ev):

   -44.6488 -22.8423 -22.7843 -22.5997 -12.1222 -11.7239  -1.2836  -1.1125
    -0.7455  -0.3075   0.3133   0.7859   4.2756   6.0961   7.2829   7.5639
     7.7326   9.3205  10.3271  11.7342  12.5633  12.7096  13.5546  13.8757
    13.9447  15.0647

          k = 0.4375 0.2551 0.0000 (  6218 PWs)   bands (ev):

   -44.6403 -22.9066 -22.8161 -22.5877 -12.0084 -11.5692  -2.0086  -1.4626
    -0.8893  -0.0651   0.1810   1.0543   3.9086   7.1658   7.5060   7.8761
     8.0241   9.5918   9.9996  11.1949  11.9230  12.2592  12.9176  14.1734
    14.3238  14.5517

          k = 0.4375 0.3280 0.0000 (  6223 PWs)   bands (ev):

   -44.6388 -22.9134 -22.8118 -22.6004 -11.9906 -11.5399  -2.0329  -1.5141
    -0.8642  -0.1419   0.1837   0.9093   3.9888   7.2609   7.5653   7.8382
     8.1021   9.7194  10.1352  11.3167  11.9335  12.2827  12.7240  13.7513
    14.4311  14.5505

          k = 0.4375 0.4009 0.0000 (  6216 PWs)   bands (ev):

   -44.6375 -22.9025 -22.8078 -22.6303 -11.9741 -11.5127  -1.9386  -1.5148
    -0.8410  -0.2759   0.1665   0.5605   4.2116   7.3120   7.5562   7.8115
     8.0075   9.8256  10.6330  11.7082  12.0760  12.3504  12.4280  13.5805
    14.4854  14.7453

          k = 0.4375 0.4738 0.0000 (  6222 PWs)   bands (ev):

   -44.6364 -22.8773 -22.8047 -22.6706 -11.9614 -11.4919  -1.7505  -1.4771
    -0.8272  -0.4239   0.0580   0.2270   4.5006   7.1048   7.3698   7.9398
     8.0618  10.0046  11.0794  11.8687  12.1850  12.4729  12.6939  13.7588
    14.5744  14.8399

          k = 0.4375 0.5467 0.0000 (  6216 PWs)   bands (ev):

   -44.6359 -22.8508 -22.8031 -22.7056 -11.9545 -11.4807  -1.5708  -1.4187
    -0.8260  -0.5476  -0.2106   0.1769   4.7334   6.8303   7.2558   7.9362
     8.2685  10.2118  11.1308  11.6907  12.3586  12.8591  13.3099  13.9994
    14.4814  14.7250

          k = 0.4375-0.1822 0.0000 (  6223 PWs)   bands (ev):

   -44.6417 -22.8841 -22.8202 -22.5934 -12.0250 -11.5959  -1.8743  -1.3578
    -0.9130  -0.1145   0.2058   0.9453   3.9954   7.0568   7.3633   7.8119
     7.9339   9.6542  10.0282  11.3642  12.0296  12.2969  13.1382  13.9848
    14.5390  14.8934

          k = 0.4375-0.1093 0.0000 (  6227 PWs)   bands (ev):

   -44.6427 -22.8530 -22.8232 -22.6124 -12.0378 -11.6160  -1.6705  -1.2120
    -0.9390  -0.2629   0.2376   0.6975   4.1842   6.6675   7.3661   7.7650
     7.9801   9.7986  10.1258  11.6866  12.2416  12.4017  13.3047  13.8737
    14.6170  14.9668

          k = 0.4375-0.0364 0.0000 (  6215 PWs)   bands (ev):

   -44.6433 -22.8291 -22.8234 -22.6314 -12.0448 -11.6267  -1.4916  -1.0774
    -0.9736  -0.3937   0.2027   0.5316   4.3504   6.3508   7.3503   7.8011
     8.0376   9.8440  10.2783  11.9000  12.4791  12.6128  13.3797  13.7494
    14.3307  14.8753

          k =-0.5000-0.2916 0.0000 (  6224 PWs)   bands (ev):

   -44.6389 -22.9216 -22.8118 -22.5910 -11.9914 -11.5405  -2.0904  -1.5388
    -0.8651  -0.0885   0.1772   1.0384   3.9065   7.2130   7.6521   7.9016
     8.1583   9.6232  10.0270  11.1637  11.8249  12.2842  12.7346  13.9788
    14.2138  14.4200

          k =-0.5000-0.2187 0.0000 (  6219 PWs)   bands (ev):

   -44.6389 -22.9128 -22.8119 -22.6004 -11.9912 -11.5407  -2.0302  -1.5111
    -0.8644  -0.1412   0.1817   0.9060   3.9918   7.2579   7.5885   7.8442
     8.0724   9.7082  10.1409  11.3152  11.9380  12.2861  12.7330  13.7243
    14.4372  14.5727

          k =-0.5000-0.1458 0.0000 (  6219 PWs)   bands (ev):

   -44.6389 -22.8890 -22.8119 -22.6257 -11.9907 -11.5414  -1.8654  -1.4338
    -0.8658  -0.2748   0.1847   0.5926   4.2028   7.1110   7.4549   7.8227
     8.0608   9.9081  10.3399  11.6948  12.1583  12.3018  12.7814  13.6444
    14.5387  14.8967

          k =-0.5000-0.0729 0.0000 (  6219 PWs)   bands (ev):

   -44.6389 -22.8595 -22.8119 -22.6567 -11.9902 -11.5421  -1.6573  -1.3328
    -0.8765  -0.4213   0.1069   0.3354   4.4400   6.7275   7.3582   7.9772
     8.1118  10.1260  10.4789  11.9840  12.1229  12.5350  13.1515  13.8324
    14.5678  14.8577

          k =-0.5000 0.0000 0.0000 (  6228 PWs)   bands (ev):

   -44.6389 -22.8443 -22.8119 -22.6726 -11.9900 -11.5424  -1.5483  -1.2782
    -0.8876  -0.4883  -0.0108   0.2965   4.5545   6.5465   7.3114   8.0586
     8.1408  10.2283  10.5248  11.9229  12.1761  12.7794  13.4989  13.8665
    14.5134  14.6539

     highest occupied, lowest unoccupied level (ev):     4.9472    5.8644

!    total energy              =    -591.24398948 Ry
     total all-electron energy =    -13333.877266 Ry
     estimated scf accuracy    <          1.0E-10 Ry

     The total energy is the sum of the following terms:
     one-electron contribution =    -205.65190174 Ry
     hartree contribution      =     110.83268156 Ry
     xc contribution           =     -37.61889725 Ry
     ewald contribution        =     -27.68823808 Ry
     one-center paw contrib.   =    -431.11763398 Ry

     convergence has been achieved in   6 iterations

     negative rho (up, down):  1.610E-08 0.000E+00

     Forces acting on atoms (cartesian axes, Ry/au):

     atom    1 type  1   force =     0.00000000    0.00235457   -0.00005003
     atom    2 type  2   force =     0.00000000   -0.00124284    0.00164593
     atom    3 type  3   force =     0.00000000   -0.00111173   -0.00159591
     The non-local contrib.  to forces
     atom    1 type  1   force =     0.00000000   -0.00029849   -0.00060776
     atom    2 type  2   force =     0.00000000   -0.00145645   -0.21248692
     atom    3 type  3   force =     0.00000000   -0.00144749    0.20882258
     The ionic contribution  to forces
     atom    1 type  1   force =    -0.00000001   -0.04364205   -0.34160693
     atom    2 type  2   force =     0.00000000    0.02443815   21.40422411
     atom    3 type  3   force =     0.00000000    0.01920390  -21.06261718
     The local contribution  to forces
     atom    1 type  1   force =     0.00000000    0.04618860    0.34191907
     atom    2 type  2   force =     0.00000003   -0.02418202  -21.19790558
     atom    3 type  3   force =    -0.00000000   -0.01893776   20.85561124
     The core correction contribution to forces
     atom    1 type  1   force =    -0.00000000    0.00005868    0.00035156
     atom    2 type  2   force =    -0.00000000   -0.00008935    0.00788316
     atom    3 type  3   force =    -0.00000000    0.00002663   -0.00334916
     The Hubbard contrib.    to forces
     atom    1 type  1   force =     0.00000000    0.00000000    0.00000000
     atom    2 type  2   force =     0.00000000    0.00000000    0.00000000
     atom    3 type  3   force =     0.00000000    0.00000000    0.00000000
     The SCF correction term to forces
     atom    1 type  1   force =    -0.00000000    0.00000617   -0.00003855
     atom    2 type  2   force =     0.00000000    0.00000517   -0.00000141
     atom    3 type  3   force =     0.00000000    0.00000132    0.00000404

     Total force =     0.003686     Total SCF correction =     0.000040
     Energy error            =      4.2E-05 Ry
     Gradient error          =      2.4E-03 Ry/Bohr

     number of scf cycles    =   3
     number of bfgs steps    =   2

     energy             old  =    -591.2439472837 Ry
     energy             new  =    -591.2439894798 Ry

     CASE: energy            _new < energy            _old

     new trust radius        =       0.0092450959 bohr
     new conv_thr            =       0.0000000004 Ry


ATOMIC_POSITIONS (angstrom)
Zr            0.0000000000        0.0111157430       10.2764717919
Cl           -0.0000000017        2.0086462298       11.9711571228
Br           -0.0000000017        2.0090948718        8.4155198596



     Writing config-only to output data dir ./tmp/ZrClBr.save/
     NEW-OLD atomic charge density approx. for the potential

     Check: negative core charge=   -0.000004

     negative rho (up, down):  1.428E-08 0.000E+00

     total cpu time spent up to now is       39.9 secs

     Self-consistent Calculation

     iteration #  1     ecut=    65.00 Ry     beta= 0.70
     Davidson diagonalization with overlap
     ethr =  1.00E-06,  avg # of iterations =  3.3

     Threshold (ethr) on eigenvalues was too large:
     Diagonalizing with lowered threshold

     Davidson diagonalization with overlap
     ethr =  3.27E-08,  avg # of iterations =  2.6

     negative rho (up, down):  1.410E-08 0.000E+00

     total cpu time spent up to now is       43.7 secs

     total energy              =    -591.24401391 Ry
     estimated scf accuracy    <       0.00000913 Ry

     iteration #  2     ecut=    65.00 Ry     beta= 0.70
     Davidson diagonalization with overlap
     ethr =  3.51E-08,  avg # of iterations =  2.0

     negative rho (up, down):  1.452E-08 0.000E+00

     total cpu time spent up to now is       45.2 secs

     total energy              =    -591.24401282 Ry
     estimated scf accuracy    <       0.00002412 Ry

     iteration #  3     ecut=    65.00 Ry     beta= 0.70
     Davidson diagonalization with overlap
     ethr =  3.51E-08,  avg # of iterations =  2.0

     negative rho (up, down):  1.451E-08 0.000E+00

     total cpu time spent up to now is       46.7 secs

     total energy              =    -591.24401780 Ry
     estimated scf accuracy    <       0.00000071 Ry

     iteration #  4     ecut=    65.00 Ry     beta= 0.70
     Davidson diagonalization with overlap
     ethr =  2.72E-09,  avg # of iterations =  1.3

     negative rho (up, down):  1.453E-08 0.000E+00

     total cpu time spent up to now is       48.0 secs

     total energy              =    -591.24401791 Ry
     estimated scf accuracy    <       0.00000011 Ry

     iteration #  5     ecut=    65.00 Ry     beta= 0.70
     Davidson diagonalization with overlap
     ethr =  4.04E-10,  avg # of iterations =  2.0

     negative rho (up, down):  1.454E-08 0.000E+00

     total cpu time spent up to now is       49.4 secs

     total energy              =    -591.24401794 Ry
     estimated scf accuracy    <       0.00000003 Ry

     iteration #  6     ecut=    65.00 Ry     beta= 0.70
     Davidson diagonalization with overlap
     ethr =  9.74E-11,  avg # of iterations =  1.4

     negative rho (up, down):  1.453E-08 0.000E+00

     total cpu time spent up to now is       50.8 secs

     End of self-consistent calculation

          k = 0.0000 0.0000 0.0000 (  6283 PWs)   bands (ev):

   -44.6834 -22.9301 -22.5201 -22.5064 -12.5918 -12.0298  -1.9540   0.0933
     0.4088   0.4576   1.6031   1.6655   4.3709   6.1017   6.2095   6.8673
     6.9080   7.0432   8.5638   9.7070  11.5043  13.7970  13.9426  14.1227
    14.8826  15.4040

          k = 0.0000 0.0729 0.0000 (  6265 PWs)   bands (ev):

   -44.6819 -22.9258 -22.5237 -22.5231 -12.5644 -12.0173  -1.9073   0.0428
     0.3816   0.3945   1.4958   1.5652   4.3813   6.1325   6.1386   6.8670
     6.9282   7.2248   8.7013   9.9466  11.5758  13.4215  13.9290  14.5470
    14.9104  15.0911

          k = 0.0000 0.1458 0.0000 (  6275 PWs)   bands (ev):

   -44.6778 -22.9135 -22.5703 -22.5340 -12.4871 -11.9801  -1.7761  -0.1497
     0.2165   0.3493   1.0764   1.4663   4.3855   5.9928   6.2574   6.8209
     7.0893   7.6571   9.0845  10.5051  11.7927  12.8434  14.2781  14.3051
    14.7728  15.1554

          k = 0.0000 0.2187 0.0000 (  6263 PWs)   bands (ev):

   -44.6716 -22.8951 -22.6400 -22.5493 -12.3737 -11.9186  -1.5877  -0.5028
     0.0018   0.2702   0.6150   1.3394   4.3223   5.9685   6.4747   6.8521
     7.3000   8.1499   9.6131  11.0597  12.0557  12.4529  13.7874  14.5854
    14.8518  15.4347

          k = 0.0000 0.2916 0.0000 (  6245 PWs)   bands (ev):

   -44.6643 -22.8733 -22.7208 -22.5673 -12.2466 -11.8335  -1.3977  -0.9086
    -0.3823   0.1631   0.3490   1.2146   4.1843   6.1555   6.7982   6.9564
     7.5071   8.6117  10.0399  11.3999  12.0117  12.3332  14.0147  14.3159
    15.3230  15.3425

          k = 0.0000 0.3645 0.0000 (  6224 PWs)   bands (ev):

   -44.6569 -22.8515 -22.8001 -22.5852 -12.1306 -11.7301  -1.4500  -1.0936
    -0.8258   0.0462   0.2504   1.1086   4.0472   6.5105   7.0917   7.2101
     7.6750   9.0258  10.1569  11.4399  11.9468  12.3136  14.0138  14.5682
    14.9967  15.1835

          k = 0.0000 0.4374 0.0000 (  6218 PWs)   bands (ev):

   -44.6507 -22.8668 -22.8323 -22.6003 -12.0430 -11.6249  -1.7623  -1.2432
    -0.9465  -0.0572   0.2132   1.0286   3.9681   6.9117   7.2411   7.6479
     7.7965   9.3686  10.0942  11.2760  11.9722  12.3014  13.5182  14.5337
    14.5826  14.8864

          k = 0.0000 0.5103 0.0000 (  6216 PWs)   bands (ev):

   -44.6465 -22.9104 -22.8200 -22.6104 -11.9900 -11.5453  -1.9921  -1.4694
    -0.8808  -0.1273   0.2012   0.9787   3.9447   7.1307   7.4792   7.8407
     8.0366   9.5848  10.0434  11.1444  11.9469  12.2987  12.9673  14.0607
    14.3637  14.6023

          k = 0.0000-0.5832 0.0000 (  6246 PWs)   bands (ev):

   -44.6450 -22.9256 -22.8156 -22.6140 -11.9723 -11.5157  -2.0742  -1.5482
    -0.8577  -0.1520   0.1989   0.9617   3.9432   7.1730   7.6222   7.8639
     8.1825   9.6397  10.0562  11.1036  11.8583  12.3406  12.7733  13.8543
    14.2353  14.4704

          k = 0.0625 0.0364 0.0000 (  6281 PWs)   bands (ev):

   -44.6820 -22.9259 -22.5345 -22.5117 -12.5650 -12.0179  -1.9080   0.0377
     0.3476   0.4357   1.4490   1.6175   4.3783   6.0486   6.2292   6.8408
     6.9596   7.2233   8.6958   9.9401  11.5743  13.3696  14.0340  14.5077
    14.8809  15.0168

          k = 0.0625 0.1093 0.0000 (  6270 PWs)   bands (ev):

   -44.6792 -22.9176 -22.5591 -22.5259 -12.5126 -11.9931  -1.8190  -0.0822
     0.2452   0.3868   1.1872   1.5173   4.3862   5.9921   6.2561   6.8189
     7.0512   7.5288   8.9568  10.3381  11.7215  12.9826  14.1597  14.4582
    14.8293  15.0330

          k = 0.0625 0.1822 0.0000 (  6274 PWs)   bands (ev):

   -44.6740 -22.9023 -22.6135 -22.5428 -12.4172 -11.9437  -1.6578  -0.3543
     0.0768   0.3049   0.7686   1.3822   4.3628   5.9089   6.4283   6.8338
     7.2244   7.9845   9.4210  10.8851  12.0216  12.5513  13.8472  14.4069
    14.9004  15.3736

          k = 0.0625 0.2551 0.0000 (  6250 PWs)   bands (ev):

   -44.6673 -22.8821 -22.6861 -22.5621 -12.2969 -11.8701  -1.4612  -0.7344
    -0.1856   0.1321   0.4642   1.2332   4.2706   5.9701   6.7258   6.9261
     7.4203   8.4556   9.9200  11.3052  12.1591  12.4059  13.6493  14.3182
    15.1598  15.3624

          k = 0.0625 0.3280 0.0000 (  6226 PWs)   bands (ev):

   -44.6599 -22.8603 -22.7638 -22.5824 -12.1759 -11.7747  -1.3349  -1.0719
    -0.6162  -0.0123   0.3377   1.0904   4.1452   6.2223   7.0368   7.1531
     7.5932   8.8999  10.1769  11.5084  12.0652  12.3522  14.0270  14.2829
    14.9544  15.2459

          k = 0.0625 0.4009 0.0000 (  6218 PWs)   bands (ev):

   -44.6531 -22.8414 -22.8333 -22.6008 -12.0758 -11.6679  -1.5869  -1.1029
    -0.9603  -0.1041   0.2643   0.9700   4.0550   6.6134   7.1866   7.5771
     7.7246   9.3070  10.1574  11.4539  12.0314  12.3470  13.7916  14.3644
    14.6917  15.0579

          k = 0.0625 0.4738 0.0000 (  6225 PWs)   bands (ev):

   -44.6479 -22.8884 -22.8242 -22.6149 -12.0071 -11.5729  -1.8624  -1.3661
    -0.9034  -0.1657   0.2207   0.8835   4.0226   7.0297   7.3267   7.7734
     7.9570   9.6410  10.0711  11.3253  12.0340  12.3144  13.1766  13.9795
    14.5760  14.8825

          k = 0.0625 0.5467 0.0000 (  6224 PWs)   bands (ev):

   -44.6451 -22.9171 -22.8158 -22.6225 -11.9726 -11.5167  -2.0162  -1.5215
    -0.8567  -0.1980   0.2013   0.8386   4.0227   7.2221   7.5531   7.8067
     8.1007   9.7353  10.1577  11.2550  11.9618  12.3331  12.7529  13.6812
    14.4656  14.5658

          k = 0.1250 0.0729 0.0000 (  6272 PWs)   bands (ev):

   -44.6781 -22.9139 -22.5795 -22.5224 -12.4892 -11.9824  -1.7788  -0.1665
     0.1998   0.3900   1.0412   1.5212   4.3732   5.9379   6.3353   6.8093
     7.1150   7.6535   9.0667  10.4895  11.7854  12.8165  14.2227  14.3975
    14.7540  15.1023

          k = 0.1250 0.1458 0.0000 (  6271 PWs)   bands (ev):

   -44.6742 -22.9026 -22.6179 -22.5367 -12.4187 -11.9455  -1.6597  -0.3659
     0.0720   0.3246   0.7536   1.4144   4.3518   5.8971   6.4568   6.8265
     7.2394   7.9827   9.4103  10.8778  12.0139  12.5384  13.8263  14.4110
    14.9257  15.3519

          k = 0.1250 0.2187 0.0000 (  6243 PWs)   bands (ev):

   -44.6685 -22.8855 -22.6743 -22.5583 -12.3163 -11.8840  -1.4861  -0.6614
    -0.1158   0.1076   0.5139   1.2434   4.3083   5.8718   6.7426   6.9205
     7.3914   8.4081   9.8667  11.2645  12.2994  12.4509  13.3827  14.2348
    15.1258  15.2517

          k = 0.1250 0.2916 0.0000 (  6231 PWs)   bands (ev):

   -44.6617 -22.8654 -22.7398 -22.5839 -12.2026 -11.7990  -1.3037  -0.9968
    -0.4382  -0.1333   0.3997   1.0409   4.2469   5.9753   7.0502   7.1756
     7.5391   8.8597  10.2080  11.5302  12.2797  12.6079  13.4438  14.0499
    14.8686  15.1548

          k = 0.1250 0.3645 0.0000 (  6222 PWs)   bands (ev):

   -44.6549 -22.8453 -22.8042 -22.6093 -12.0995 -11.6969  -1.3937  -1.0760
    -0.8495  -0.2417   0.3143   0.8384   4.2000   6.2443   7.2171   7.5777
     7.7080   9.3180  10.2636  11.6619  12.2919  12.4811  13.8312  14.0272
    14.3043  15.0609

          k = 0.1250 0.4374 0.0000 (  6229 PWs)   bands (ev):

   -44.6492 -22.8587 -22.8275 -22.6308 -12.0214 -11.5952  -1.6682  -1.2251
    -0.9292  -0.2943   0.2447   0.6660   4.1950   6.6474   7.3399   7.7154
     8.0131   9.7927  10.1501  11.6589  12.2202  12.3958  13.2960  13.9149
    14.6461  14.9758

          k = 0.1250 0.5103 0.0000 (  6231 PWs)   bands (ev):

   -44.6453 -22.8942 -22.8161 -22.6451 -11.9735 -11.5195  -1.8583  -1.4475
    -0.8573  -0.3152   0.1982   0.5503   4.2194   7.0905   7.4312   7.7635
     8.0981   9.9404  10.3476  11.6365  12.1442  12.3238  12.7765  13.6604
    14.5813  14.8753

          k = 0.1250 0.5832 0.0000 (  6220 PWs)   bands (ev):

   -44.6439 -22.9066 -22.8121 -22.6501 -11.9574 -11.4916  -1.9257  -1.5245
    -0.8337  -0.3199   0.1818   0.5096   4.2344   7.2903   7.5467   7.7678
     8.0070   9.8621  10.6331  11.6361  12.0861  12.3866  12.4335  13.5687
    14.5329  14.7231

          k = 0.1250 0.0000 0.0000 (  6265 PWs)   bands (ev):

   -44.6794 -22.9179 -22.5659 -22.5174 -12.5142 -11.9948  -1.8210  -0.0922
     0.2348   0.4123   1.1655   1.5518   4.3796   5.9412   6.3226   6.8209
     7.0617   7.5261   8.9425  10.3251  11.7185  12.9584  14.2528  14.4173
    14.7773  15.0128

          k = 0.1875 0.1093 0.0000 (  6262 PWs)   bands (ev):

   -44.6721 -22.8960 -22.6473 -22.5370 -12.3781 -11.9237  -1.5927  -0.5219
    -0.0129   0.3153   0.5941   1.4006   4.2978   5.9401   6.5412   6.8514
     7.3215   8.1463   9.5860  11.0444  12.0416  12.4311  13.7525  14.5538
    14.9347  15.3699

          k = 0.1875 0.1822 0.0000 (  6256 PWs)   bands (ev):

   -44.6677 -22.8830 -22.6914 -22.5525 -12.3007 -11.8749  -1.4650  -0.7507
    -0.2011   0.1599   0.4630   1.2852   4.2464   5.9679   6.7592   6.9214
     7.4398   8.4538   9.9034  11.2957  12.1493  12.3837  13.6256  14.2867
    15.1866  15.3457

          k = 0.1875 0.2551 0.0000 (  6241 PWs)   bands (ev):

   -44.6620 -22.8659 -22.7423 -22.5788 -12.2048 -11.8020  -1.3055  -1.0056
    -0.4491  -0.1185   0.4045   1.0677   4.2330   5.9793   7.0514   7.1851
     7.5473   8.8597  10.2021  11.5243  12.2713  12.6170  13.4217  14.0255
    14.8780  15.1411

          k = 0.1875 0.3280 0.0000 (  6218 PWs)   bands (ev):

   -44.6557 -22.8474 -22.7924 -22.6116 -12.1097 -11.7092  -1.2934  -1.1043
    -0.7674  -0.3123   0.3183   0.7964   4.2668   6.0870   7.2363   7.5692
     7.7336   9.3256  10.3216  11.7235  12.5269  12.6821  13.5365  13.8899
    13.9559  15.0817

          k = 0.1875 0.4009 0.0000 (  6228 PWs)   bands (ev):

   -44.6500 -22.8365 -22.8289 -22.6449 -12.0305 -11.6092  -1.5031  -1.0989
    -0.9647  -0.4058   0.2075   0.5358   4.3422   6.3387   7.3322   7.7517
     8.0781   9.8544  10.2753  11.8739  12.4693  12.5821  13.3393  13.7669
    14.3306  14.9137

          k = 0.1875 0.4738 0.0000 (  6226 PWs)   bands (ev):

   -44.6456 -22.8664 -22.8167 -22.6718 -11.9752 -11.5235  -1.6622  -1.3520
    -0.8672  -0.4424   0.1037   0.3370   4.4375   6.7157   7.3455   7.9112
     8.1614  10.1514  10.4865  11.9494  12.0861  12.5281  13.1006  13.8687
    14.5981  14.8559

          k = 0.1875 0.5467 0.0000 (  6227 PWs)   bands (ev):

   -44.6432 -22.8824 -22.8096 -22.6869 -11.9468 -11.4740  -1.7460  -1.4896
    -0.8195  -0.4508   0.0416   0.2298   4.5067   7.0997   7.3558   7.9561
     8.0096  10.0379  11.0811  11.8456  12.1126  12.4972  12.6940  13.7564
    14.6126  14.8141

          k = 0.1875-0.0364 0.0000 (  6260 PWs)   bands (ev):

   -44.6745 -22.9031 -22.6202 -22.5318 -12.4211 -11.9481  -1.6625  -0.3682
     0.0718   0.3342   0.7559   1.4240   4.3477   5.8703   6.4973   6.8523
     7.2286   7.9810   9.3924  10.8676  12.0138  12.5439  13.8188  14.4594
    14.8940  15.3395

          k = 0.2500 0.1458 0.0000 (  6239 PWs)   bands (ev):

   -44.6651 -22.8748 -22.7262 -22.5539 -12.2535 -11.8425  -1.4042  -0.9242
    -0.3982   0.2144   0.3383   1.2821   4.1530   6.1441   6.8493   6.9638
     7.5268   8.6095  10.0155  11.3854  12.0031  12.3129  13.9796  14.2649
    15.2410  15.4225

          k = 0.2500 0.2187 0.0000 (  6230 PWs)   bands (ev):

   -44.6607 -22.8617 -22.7686 -22.5703 -12.1822 -11.7834  -1.3421  -1.0858
    -0.6319   0.0204   0.3449   1.1553   4.1136   6.2247   7.0454   7.1784
     7.6123   8.9002  10.1607  11.4929  12.0664  12.3387  13.9757  14.2277
    14.9335  15.2425

          k = 0.2500 0.2916 0.0000 (  6223 PWs)   bands (ev):

   -44.6555 -22.8463 -22.8076 -22.6003 -12.1042 -11.7038  -1.4042  -1.0808
    -0.8597  -0.2184   0.3215   0.8835   4.1767   6.2484   7.2255   7.5904
     7.7195   9.3204  10.2514  11.6518  12.3116  12.4812  13.7881  14.0417
    14.2575  15.0134

          k = 0.2500 0.3645 0.0000 (  6228 PWs)   bands (ev):

   -44.6503 -22.8380 -22.8297 -22.6401 -12.0331 -11.6130  -1.5094  -1.1008
    -0.9670  -0.3941   0.2135   0.5535   4.3313   6.3388   7.3394   7.7550
     8.0848   9.8549  10.2676  11.8706  12.4758  12.6061  13.3807  13.7119
    14.2914  14.8764

          k = 0.2500 0.4374 0.0000 (  6223 PWs)   bands (ev):

   -44.6459 -22.8533 -22.8172 -22.6825 -11.9776 -11.5277  -1.5650  -1.3009
    -0.8782  -0.4943  -0.0016   0.3121   4.5367   6.5372   7.3036   8.0044
     8.1944  10.2371  10.5372  11.9096  12.1391  12.7755  13.4152  13.8870
    14.5186  14.6581

          k = 0.2500 0.5103 0.0000 (  6234 PWs)   bands (ev):

   -44.6429 -22.8577 -22.8085 -22.7171 -11.9425 -11.4668  -1.5785  -1.4330
    -0.8167  -0.5579  -0.2157   0.1905   4.7226   6.8274   7.2437   7.9776
     8.2114  10.2348  11.1147  11.7107  12.3145  12.8508  13.2604  13.9888
    14.5029  14.7342

          k = 0.2500 0.5832 0.0000 (  6222 PWs)   bands (ev):

   -44.6419 -22.8572 -22.8054 -22.7312 -11.9305 -11.4447  -1.5859  -1.4667
    -0.7977  -0.5896  -0.2912   0.1502   4.7995   7.0312   7.2239   7.7620
     8.2870  10.2201  11.1904  12.0312  12.4363  12.8444  12.9221  13.8514
    14.7032  14.7790

          k = 0.2500-0.0729 0.0000 (  6244 PWs)   bands (ev):

   -44.6680 -22.8835 -22.6908 -22.5501 -12.3035 -11.8782  -1.4680  -0.7441
    -0.1950   0.1664   0.4643   1.2796   4.2497   5.9529   6.7771   6.9536
     7.4231   8.4524   9.8884  11.2924  12.1597  12.3951  13.6372  14.3115
    15.1713  15.3372

          k = 0.2500 0.0000 0.0000 (  6245 PWs)   bands (ev):

   -44.6691 -22.8866 -22.6761 -22.5510 -12.3214 -11.8901  -1.4917  -0.6596
    -0.1143   0.1244   0.5194   1.2552   4.3030   5.8523   6.7804   6.9667
     7.3717   8.4053   9.8378  11.2550  12.3173  12.4573  13.3847  14.2575
    15.1130  15.2284

          k = 0.3125 0.1822 0.0000 (  6225 PWs)   bands (ev):

   -44.6581 -22.8536 -22.8038 -22.5707 -12.1399 -11.7434  -1.4597  -1.1022
    -0.8347   0.1039   0.2388   1.1816   4.0141   6.5080   7.1053   7.2414
     7.6956   9.0272  10.1330  11.4312  11.9490  12.2973  13.9424  14.5112
    14.9168  15.2724

          k = 0.3125 0.2551 0.0000 (  6225 PWs)   bands (ev):

   -44.6542 -22.8435 -22.8368 -22.5869 -12.0845 -11.6808  -1.5998  -1.1072
    -0.9695  -0.0632   0.2673   1.0426   4.0207   6.6131   7.2004   7.6010
     7.7418   9.3123  10.1310  11.4550  12.0359  12.3347  13.7252  14.3616
    14.6700  15.0133

          k = 0.3125 0.3280 0.0000 (  6230 PWs)   bands (ev):

   -44.6501 -22.8617 -22.8292 -22.6192 -12.0287 -11.6063  -1.6806  -1.2268
    -0.9341  -0.2623   0.2472   0.7215   4.1678   6.6441   7.3588   7.7250
     8.0297   9.7998  10.1231  11.6698  12.2330  12.3940  13.3090  13.8781
    14.5982  14.9133

          k = 0.3125 0.4009 0.0000 (  6217 PWs)   bands (ev):

   -44.6462 -22.8686 -22.8178 -22.6636 -11.9804 -11.5315  -1.6708  -1.3499
    -0.8696  -0.4209   0.1165   0.3569   4.4217   6.7070   7.3554   7.9250
     8.1731  10.1215  10.4984  11.9577  12.1068  12.5548  13.1007  13.8398
    14.5537  14.8168

          k = 0.3125 0.4738 0.0000 (  6228 PWs)   bands (ev):

   -44.6433 -22.8588 -22.8091 -22.7130 -11.9451 -11.4709  -1.5805  -1.4311
    -0.8179  -0.5478  -0.2026   0.1888   4.7182   6.8181   7.2458   7.9824
     8.2235  10.2150  11.1306  11.7188  12.3161  12.8727  13.2298  14.0173
    14.4881  14.7271

          k = 0.3125 0.5467 0.0000 (  6219 PWs)   bands (ev):

   -44.6417 -22.8392 -22.8043 -22.7540 -11.9265 -11.4369  -1.5502  -1.3595
    -0.7948  -0.7172  -0.3973   0.1255   4.9392   6.9504   7.1659   7.6913
     8.4175  10.3551  10.9732  12.3439  12.5243  13.0901  13.2620  13.5728
    14.6445  14.8336

          k = 0.3125-0.1093 0.0000 (  6238 PWs)   bands (ev):

   -44.6610 -22.8623 -22.7666 -22.5694 -12.1850 -11.7870  -1.3406  -1.0792
    -0.6204   0.0280   0.3374   1.1424   4.1232   6.2201   7.0664   7.1783
     7.6016   8.8978  10.1539  11.4990  12.0717  12.3458  13.9978  14.2611
    14.8940  15.2413

          k = 0.3125-0.0364 0.0000 (  6235 PWs)   bands (ev):

   -44.6626 -22.8670 -22.7403 -22.5750 -12.2103 -11.8091  -1.3101  -0.9913
    -0.4320  -0.1089   0.4019   1.0568   4.2421   5.9689   7.0978   7.1946
     7.5242   8.8552  10.1842  11.5265  12.2993  12.6292  13.4489  14.0602
    14.8100  15.1228

          k = 0.3750 0.2187 0.0000 (  6223 PWs)   bands (ev):

   -44.6521 -22.8690 -22.8350 -22.5848 -12.0545 -11.6421  -1.7719  -1.2409
    -0.9538   0.0061   0.1977   1.1059   3.9340   6.9187   7.2581   7.6574
     7.8173   9.3740  10.0557  11.2951  11.9609  12.2833  13.4476  14.4633
    14.6813  14.8249

          k = 0.3750 0.2916 0.0000 (  6226 PWs)   bands (ev):

   -44.6493 -22.8908 -22.8267 -22.5998 -12.0181 -11.5896  -1.8742  -1.3627
    -0.9087  -0.1145   0.2144   0.9593   3.9877   7.0319   7.3414   7.7930
     7.9700   9.6484  10.0296  11.3579  12.0173  12.2885  13.1299  14.0317
    14.5270  14.8403

          k = 0.3750 0.3645 0.0000 (  6223 PWs)   bands (ev):

   -44.6465 -22.8963 -22.8183 -22.6321 -11.9831 -11.5343  -1.8686  -1.4413
    -0.8607  -0.2738   0.1917   0.6088   4.1925   7.0814   7.4463   7.7831
     8.1132   9.9091  10.3470  11.6820  12.1398  12.3034  12.7609  13.6664
    14.5337  14.8559

          k = 0.3750 0.4374 0.0000 (  6228 PWs)   bands (ev):

   -44.6441 -22.8839 -22.8112 -22.6770 -11.9543 -11.4856  -1.7513  -1.4806
    -0.8218  -0.4220   0.0618   0.2380   4.4929   7.0836   7.3573   7.9694
     8.0361  10.0013  11.0919  11.8727  12.1575  12.4894  12.6529  13.7680
    14.5739  14.8206

          k = 0.3750 0.5103 0.0000 (  6225 PWs)   bands (ev):

   -44.6425 -22.8578 -22.8065 -22.7253 -11.9354 -11.4523  -1.5808  -1.4595
    -0.7995  -0.5759  -0.2737   0.1412   4.7998   7.0181   7.2219   7.7548
     8.3141  10.1895  11.2242  12.0133  12.4496  12.8543  12.9051  13.9168
    14.6849  14.7864

          k = 0.3750 0.5832 0.0000 (  6232 PWs)   bands (ev):

   -44.6419 -22.8383 -22.8048 -22.7526 -11.9288 -11.4405  -1.5434  -1.3498
    -0.7971  -0.7165  -0.3936   0.1196   4.9455   6.9486   7.1651   7.6726
     8.4321  10.3405  10.9901  12.2903  12.5388  13.1126  13.2994  13.5916
    14.5982  14.8620

          k = 0.3750-0.1458 0.0000 (  6211 PWs)   bands (ev):

   -44.6545 -22.8435 -22.8350 -22.5868 -12.0868 -11.6841  -1.5902  -1.1019
    -0.9648  -0.0543   0.2560   1.0285   4.0320   6.6213   7.2141   7.5767
     7.7400   9.3086  10.1285  11.4637  12.0371  12.3373  13.7354  14.3242
    14.6718  15.0640

          k = 0.3750-0.0729 0.0000 (  6231 PWs)   bands (ev):

   -44.6561 -22.8474 -22.8037 -22.5990 -12.1092 -11.7108  -1.3867  -1.0815
    -0.8380  -0.2111   0.3118   0.8619   4.1948   6.2475   7.2581   7.5734
     7.7034   9.3129  10.2464  11.6679  12.3200  12.4896  13.8225  13.9965
    14.3095  15.0161

          k = 0.3750 0.0000 0.0000 (  6227 PWs)   bands (ev):

   -44.6567 -22.8490 -22.7891 -22.6066 -12.1172 -11.7199  -1.2747  -1.1090
    -0.7430  -0.2993   0.3126   0.7867   4.2793   6.0833   7.2836   7.5534
     7.7191   9.3165  10.3116  11.7345  12.5513  12.7164  13.5518  13.8781
    13.9506  15.0624

          k = 0.4375 0.2551 0.0000 (  6218 PWs)   bands (ev):

   -44.6481 -22.9116 -22.8229 -22.5942 -12.0030 -11.5652  -2.0011  -1.4608
    -0.8856  -0.0603   0.1825   1.0587   3.9091   7.1525   7.4949   7.8658
     8.0215   9.5752  10.0028  11.1878  11.9193  12.2555  12.9157  14.1763
    14.3212  14.5527

          k = 0.4375 0.3280 0.0000 (  6223 PWs)   bands (ev):

   -44.6467 -22.9184 -22.8186 -22.6069 -11.9851 -11.5360  -2.0255  -1.5119
    -0.8604  -0.1386   0.1864   0.9137   3.9890   7.2445   7.5577   7.8295
     8.0953   9.7066  10.1371  11.3084  11.9286  12.2811  12.7254  13.7433
    14.4355  14.5533

          k = 0.4375 0.4009 0.0000 (  6216 PWs)   bands (ev):

   -44.6453 -22.9074 -22.8146 -22.6367 -11.9686 -11.5088  -1.9312  -1.5121
    -0.8368  -0.2721   0.1681   0.5643   4.2118   7.2994   7.5457   7.8006
     8.0005   9.8189  10.6283  11.7034  12.0728  12.3489  12.4257  13.5768
    14.4900  14.7441

          k = 0.4375 0.4738 0.0000 (  6222 PWs)   bands (ev):

   -44.6443 -22.8822 -22.8116 -22.6771 -11.9558 -11.4881  -1.7431  -1.4737
    -0.8224  -0.4198   0.0596   0.2283   4.5005   7.0972   7.3584   7.9343
     8.0448   9.9997  11.0701  11.8665  12.1848  12.4732  12.6887  13.7572
    14.5791  14.8372

          k = 0.4375 0.5467 0.0000 (  6216 PWs)   bands (ev):

   -44.6437 -22.8554 -22.8099 -22.7123 -11.9489 -11.4768  -1.5636  -1.4144
    -0.8198  -0.5443  -0.2089   0.1765   4.7331   6.8241   7.2446   7.9317
     8.2484  10.2084  11.1187  11.6874  12.3563  12.8687  13.3043  13.9944
    14.4887  14.7280

          k = 0.4375-0.1822 0.0000 (  6223 PWs)   bands (ev):

   -44.6495 -22.8890 -22.8270 -22.6000 -12.0196 -11.5919  -1.8667  -1.3561
    -0.9092  -0.1070   0.2046   0.9490   3.9965   7.0460   7.3532   7.7968
     7.9330   9.6374  10.0296  11.3628  12.0234  12.2909  13.1349  13.9929
    14.5398  14.8858

          k = 0.4375-0.1093 0.0000 (  6227 PWs)   bands (ev):

   -44.6505 -22.8578 -22.8300 -22.6191 -12.0325 -11.6120  -1.6627  -1.2103
    -0.9348  -0.2548   0.2361   0.6997   4.1861   6.6563   7.3656   7.7398
     7.9795   9.7878  10.1197  11.6899  12.2344  12.3925  13.3059  13.8774
    14.6173  14.9645

          k = 0.4375-0.0364 0.0000 (  6215 PWs)   bands (ev):

   -44.6511 -22.8346 -22.8294 -22.6383 -12.0395 -11.6227  -1.4836  -1.0758
    -0.9693  -0.3853   0.2026   0.5314   4.3529   6.3395   7.3511   7.7750
     8.0360   9.8401  10.2641  11.8994  12.4662  12.6185  13.3785  13.7536
    14.3309  14.8799

          k =-0.5000-0.2916 0.0000 (  6224 PWs)   bands (ev):

   -44.6467 -22.9265 -22.8187 -22.5975 -11.9858 -11.5366  -2.0829  -1.5373
    -0.8614  -0.0837   0.1790   1.0427   3.9069   7.1988   7.6417   7.8905
     8.1564   9.6068  10.0296  11.1560  11.8222  12.2819  12.7305  13.9800
    14.2108  14.4245

          k =-0.5000-0.2187 0.0000 (  6219 PWs)   bands (ev):

   -44.6467 -22.9177 -22.8187 -22.6070 -11.9856 -11.5368  -2.0227  -1.5095
    -0.8606  -0.1356   0.1826   0.9100   3.9923   7.2458   7.5761   7.8315
     8.0712   9.6950  10.1399  11.3098  11.9363  12.2825  12.7262  13.7289
    14.4399  14.5692

          k =-0.5000-0.1458 0.0000 (  6219 PWs)   bands (ev):

   -44.6467 -22.8939 -22.8188 -22.6323 -11.9852 -11.5375  -1.8578  -1.4321
    -0.8616  -0.2684   0.1844   0.5954   4.2037   7.1013   7.4480   7.8008
     8.0600   9.8988  10.3346  11.6952  12.1519  12.2978  12.7754  13.6501
    14.5416  14.8913

          k =-0.5000-0.0729 0.0000 (  6219 PWs)   bands (ev):

   -44.6467 -22.8642 -22.8188 -22.6634 -11.9847 -11.5382  -1.6495  -1.3308
    -0.8716  -0.4148   0.1079   0.3353   4.4410   6.7182   7.3525   7.9533
     8.1109  10.1205  10.4700  11.9787  12.1164  12.5400  13.1462  13.8359
    14.5720  14.8553

          k =-0.5000 0.0000 0.0000 (  6228 PWs)   bands (ev):

   -44.6467 -22.8489 -22.8188 -22.6795 -11.9845 -11.5385  -1.5405  -1.2759
    -0.8822  -0.4819  -0.0094   0.2951   4.5557   6.5373   7.3051   8.0375
     8.1370  10.2261  10.5126  11.9119  12.1722  12.7942  13.4847  13.8739
    14.5150  14.6580

     highest occupied, lowest unoccupied level (ev):     4.9455    5.8523

!    total energy              =    -591.24401794 Ry
     total all-electron energy =    -13333.877294 Ry
     estimated scf accuracy    <          2.7E-10 Ry

     The total energy is the sum of the following terms:
     one-electron contribution =    -205.16151268 Ry
     hartree contribution      =     110.58595905 Ry
     xc contribution           =     -37.61596527 Ry
     ewald contribution        =     -27.93503238 Ry
     one-center paw contrib.   =    -431.11746666 Ry

     convergence has been achieved in   6 iterations

     negative rho (up, down):  1.453E-08 0.000E+00

     Forces acting on atoms (cartesian axes, Ry/au):

     atom    1 type  1   force =     0.00000000   -0.00017982    0.00002261
     atom    2 type  2   force =     0.00000000    0.00004514    0.00065709
     atom    3 type  3   force =     0.00000000    0.00013468   -0.00067970
     The non-local contrib.  to forces
     atom    1 type  1   force =     0.00000000   -0.00124550   -0.00064370
     atom    2 type  2   force =     0.00000000   -0.00090195   -0.21305596
     atom    3 type  3   force =     0.00000000   -0.00086965    0.20922083
     The ionic contribution  to forces
     atom    1 type  1   force =    -0.00000001   -0.06967818   -0.34434253
     atom    2 type  2   force =     0.00000000    0.03961328   21.37854526
     atom    3 type  3   force =     0.00000000    0.03006490  -21.03420273
     The local contribution  to forces
     atom    1 type  1   force =    -0.00000000    0.07065620    0.34478869
     atom    2 type  2   force =     0.00000003   -0.03856983  -21.17271654
     atom    3 type  3   force =    -0.00000000   -0.02904612   20.82777813
     The core correction contribution to forces
     atom    1 type  1   force =    -0.00000000    0.00003938    0.00035695
     atom    2 type  2   force =    -0.00000000   -0.00014251    0.00796590
     atom    3 type  3   force =    -0.00000000   -0.00005562   -0.00340906
     The Hubbard contrib.    to forces
     atom    1 type  1   force =     0.00000000    0.00000000    0.00000000
     atom    2 type  2   force =     0.00000000    0.00000000    0.00000000
     atom    3 type  3   force =     0.00000000    0.00000000    0.00000000
     The SCF correction term to forces
     atom    1 type  1   force =    -0.00000000    0.00000907   -0.00006067
     atom    2 type  2   force =     0.00000000    0.00000696   -0.00000544
     atom    3 type  3   force =     0.00000000    0.00000197    0.00000926

     Total force =     0.000973     Total SCF correction =     0.000063
     Energy error            =      2.8E-05 Ry
     Gradient error          =      6.8E-04 Ry/Bohr

     number of scf cycles    =   4
     number of bfgs steps    =   3

     energy             old  =    -591.2439894798 Ry
     energy             new  =    -591.2440179430 Ry

     CASE: energy            _new < energy            _old

     new trust radius        =       0.0013783935 bohr
     new conv_thr            =       0.0000000003 Ry


ATOMIC_POSITIONS (angstrom)
Zr            0.0000000000        0.0115085574       10.2764733763
Cl           -0.0000000017        2.0084122890       11.9718480042
Br           -0.0000000017        2.0089359982        8.4148273939



     Writing config-only to output data dir ./tmp/ZrClBr.save/
     NEW-OLD atomic charge density approx. for the potential

     Check: negative core charge=   -0.000004

     negative rho (up, down):  1.432E-08 0.000E+00

     total cpu time spent up to now is       51.3 secs

     Self-consistent Calculation

     iteration #  1     ecut=    65.00 Ry     beta= 0.70
     Davidson diagonalization with overlap
     ethr =  1.00E-06,  avg # of iterations =  2.0

     Threshold (ethr) on eigenvalues was too large:
     Diagonalizing with lowered threshold

     Davidson diagonalization with overlap
     ethr =  1.23E-09,  avg # of iterations =  4.0

     negative rho (up, down):  1.428E-08 0.000E+00

     total cpu time spent up to now is       54.7 secs

     total energy              =    -591.24401892 Ry
     estimated scf accuracy    <       0.00000035 Ry

     iteration #  2     ecut=    65.00 Ry     beta= 0.70
     Davidson diagonalization with overlap
     ethr =  1.34E-09,  avg # of iterations =  2.0

     negative rho (up, down):  1.437E-08 0.000E+00

     total cpu time spent up to now is       56.2 secs

     total energy              =    -591.24401887 Ry
     estimated scf accuracy    <       0.00000133 Ry

     iteration #  3     ecut=    65.00 Ry     beta= 0.70
     Davidson diagonalization with overlap
     ethr =  1.34E-09,  avg # of iterations =  2.0

     negative rho (up, down):  1.438E-08 0.000E+00

     total cpu time spent up to now is       57.7 secs

     total energy              =    -591.24401911 Ry
     estimated scf accuracy    <          6.5E-09 Ry

     iteration #  4     ecut=    65.00 Ry     beta= 0.70
     Davidson diagonalization with overlap
     ethr =  2.49E-11,  avg # of iterations =  2.0

     negative rho (up, down):  1.438E-08 0.000E+00

     total cpu time spent up to now is       59.2 secs

     total energy              =    -591.24401911 Ry
     estimated scf accuracy    <          3.4E-09 Ry

     iteration #  5     ecut=    65.00 Ry     beta= 0.70
     Davidson diagonalization with overlap
     ethr =  1.30E-11,  avg # of iterations =  1.3

     negative rho (up, down):  1.439E-08 0.000E+00

     total cpu time spent up to now is       60.5 secs

     total energy              =    -591.24401911 Ry
     estimated scf accuracy    <          3.2E-10 Ry

     iteration #  6     ecut=    65.00 Ry     beta= 0.70
     Davidson diagonalization with overlap
     ethr =  1.22E-12,  avg # of iterations =  2.0

     negative rho (up, down):  1.439E-08 0.000E+00

     total cpu time spent up to now is       62.0 secs

     End of self-consistent calculation

          k = 0.0000 0.0000 0.0000 (  6283 PWs)   bands (ev):

   -44.6852 -22.9314 -22.5216 -22.5079 -12.5905 -12.0295  -1.9528   0.0927
     0.4112   0.4593   1.6055   1.6669   4.3683   6.1004   6.2071   6.8655
     6.9086   7.0428   8.5643   9.7070  11.5056  13.7967  13.9439  14.1201
    14.8829  15.4045

          k = 0.0000 0.0729 0.0000 (  6265 PWs)   bands (ev):

   -44.6837 -22.9271 -22.5252 -22.5246 -12.5631 -12.0170  -1.9061   0.0425
     0.3831   0.3970   1.4971   1.5676   4.3787   6.1301   6.1373   6.8675
     6.9263   7.2243   8.7017   9.9468  11.5770  13.4211  13.9287  14.5462
    14.9103  15.0889

          k = 0.0000 0.1458 0.0000 (  6275 PWs)   bands (ev):

   -44.6796 -22.9149 -22.5718 -22.5355 -12.4858 -11.9797  -1.7749  -0.1491
     0.2172   0.3517   1.0773   1.4686   4.3832   5.9905   6.2562   6.8211
     7.0873   7.6566   9.0844  10.5058  11.7936  12.8428  14.2758  14.3048
    14.7722  15.1558

          k = 0.0000 0.2187 0.0000 (  6263 PWs)   bands (ev):

   -44.6734 -22.8965 -22.6415 -22.5508 -12.3725 -11.9181  -1.5863  -0.5016
     0.0023   0.2726   0.6153   1.3415   4.3205   5.9662   6.4736   6.8520
     7.2979   8.1495   9.6120  11.0611  12.0558  12.4523  13.7857  14.5850
    14.8515  15.4347

          k = 0.0000 0.2916 0.0000 (  6245 PWs)   bands (ev):

   -44.6660 -22.8747 -22.7222 -22.5688 -12.2454 -11.8329  -1.3961  -0.9074
    -0.3815   0.1655   0.3486   1.2165   4.1827   6.1533   6.7972   6.9560
     7.5047   8.6112  10.0377  11.4013  12.0115  12.3326  14.0139  14.3162
    15.3220  15.3420

          k = 0.0000 0.3645 0.0000 (  6224 PWs)   bands (ev):

   -44.6587 -22.8529 -22.8014 -22.5867 -12.1294 -11.7293  -1.4485  -1.0924
    -0.8248   0.0486   0.2497   1.1103   4.0456   6.5087   7.0910   7.2091
     7.6724   9.0249  10.1544  11.4399  11.9470  12.3134  14.0136  14.5681
    14.9955  15.1825

          k = 0.0000 0.4374 0.0000 (  6218 PWs)   bands (ev):

   -44.6524 -22.8681 -22.8338 -22.6018 -12.0420 -11.6240  -1.7610  -1.2424
    -0.9449  -0.0548   0.2123   1.0302   3.9665   6.9104   7.2401   7.6469
     7.7939   9.3666  10.0931  11.2752  11.9720  12.3013  13.5172  14.5335
    14.5817  14.8846

          k = 0.0000 0.5103 0.0000 (  6216 PWs)   bands (ev):

   -44.6483 -22.9117 -22.8215 -22.6118 -11.9889 -11.5444  -1.9910  -1.4685
    -0.8792  -0.1249   0.2003   0.9802   3.9431   7.1298   7.4778   7.8379
     8.0358   9.5822  10.0435  11.1436  11.9461  12.2983  12.9664  14.0599
    14.3615  14.6020

          k = 0.0000-0.5832 0.0000 (  6246 PWs)   bands (ev):

   -44.6468 -22.9269 -22.8171 -22.6154 -11.9712 -11.5147  -2.0732  -1.5472
    -0.8560  -0.1496   0.1980   0.9632   3.9416   7.1722   7.6205   7.8610
     8.1817   9.6384  10.0550  11.1028  11.8575  12.3400  12.7723  13.8535
    14.2316  14.4717

          k = 0.0625 0.0364 0.0000 (  6281 PWs)   bands (ev):

   -44.6838 -22.9272 -22.5359 -22.5132 -12.5637 -12.0176  -1.9068   0.0377
     0.3494   0.4375   1.4511   1.6190   4.3758   6.0472   6.2269   6.8394
     6.9597   7.2228   8.6962   9.9402  11.5755  13.3686  14.0348  14.5063
    14.8811  15.0167

          k = 0.0625 0.1093 0.0000 (  6270 PWs)   bands (ev):

   -44.6810 -22.9190 -22.5606 -22.5274 -12.5113 -11.9927  -1.8177  -0.0816
     0.2461   0.3889   1.1886   1.5193   4.3839   5.9902   6.2545   6.8188
     7.0498   7.5283   8.9569  10.3385  11.7225  12.9819  14.1596  14.4567
    14.8275  15.0344

          k = 0.0625 0.1822 0.0000 (  6274 PWs)   bands (ev):

   -44.6758 -22.9036 -22.6150 -22.5443 -12.4159 -11.9432  -1.6565  -0.3531
     0.0772   0.3072   0.7693   1.3842   4.3609   5.9067   6.4270   6.8338
     7.2224   7.9840   9.4204  10.8862  12.0220  12.5508  13.8453  14.4064
    14.8996  15.3741

          k = 0.0625 0.2551 0.0000 (  6250 PWs)   bands (ev):

   -44.6690 -22.8835 -22.6875 -22.5636 -12.2957 -11.8696  -1.4597  -0.7331
    -0.1850   0.1342   0.4644   1.2351   4.2690   5.9679   6.7246   6.9259
     7.4180   8.4552   9.9182  11.3068  12.1591  12.4054  13.6480  14.3177
    15.1596  15.3616

          k = 0.0625 0.3280 0.0000 (  6226 PWs)   bands (ev):

   -44.6617 -22.8617 -22.7652 -22.5838 -12.1748 -11.7740  -1.3332  -1.0708
    -0.6153  -0.0105   0.3377   1.0922   4.1438   6.2203   7.0363   7.1521
     7.5907   8.8993  10.1742  11.5094  12.0651  12.3519  14.0265  14.2828
    14.9530  15.2453

          k = 0.0625 0.4009 0.0000 (  6218 PWs)   bands (ev):

   -44.6549 -22.8428 -22.8347 -22.6023 -12.0747 -11.6671  -1.5855  -1.1019
    -0.9589  -0.1022   0.2639   0.9716   4.0536   6.6117   7.1858   7.5760
     7.7221   9.3058  10.1553  11.4536  12.0316  12.3469  13.7908  14.3634
    14.6918  15.0569

          k = 0.0625 0.4738 0.0000 (  6225 PWs)   bands (ev):

   -44.6497 -22.8897 -22.8256 -22.6163 -12.0060 -11.5720  -1.8612  -1.3652
    -0.9018  -0.1636   0.2200   0.8850   4.0211   7.0284   7.3257   7.7707
     7.9559   9.6385  10.0710  11.3246  12.0334  12.3142  13.1755  13.9784
    14.5763  14.8804

          k = 0.0625 0.5467 0.0000 (  6224 PWs)   bands (ev):

   -44.6469 -22.9184 -22.8172 -22.6239 -11.9715 -11.5158  -2.0152  -1.5205
    -0.8550  -0.1958   0.2005   0.8401   4.0212   7.2212   7.5517   7.8040
     8.0994   9.7342  10.1566  11.2542  11.9610  12.3326  12.7519  13.6800
    14.4650  14.5645

          k = 0.1250 0.0729 0.0000 (  6272 PWs)   bands (ev):

   -44.6798 -22.9153 -22.5809 -22.5239 -12.4879 -11.9820  -1.7776  -0.1652
     0.2003   0.3918   1.0427   1.5228   4.3712   5.9361   6.3334   6.8082
     7.1146   7.6530   9.0667  10.4898  11.7861  12.8156  14.2226  14.3981
    14.7519  15.1037

          k = 0.1250 0.1458 0.0000 (  6271 PWs)   bands (ev):

   -44.6760 -22.9040 -22.6193 -22.5382 -12.4175 -11.9450  -1.6584  -0.3644
     0.0723   0.3267   0.7544   1.4161   4.3501   5.8951   6.4553   6.8259
     7.2380   7.9821   9.4097  10.8787  12.0140  12.5381  13.8256  14.4099
    14.9251  15.3529

          k = 0.1250 0.2187 0.0000 (  6243 PWs)   bands (ev):

   -44.6702 -22.8869 -22.6757 -22.5598 -12.3151 -11.8834  -1.4848  -0.6599
    -0.1153   0.1096   0.5143   1.2451   4.3069   5.8696   6.7413   6.9201
     7.3894   8.4076   9.8651  11.2661  12.2994  12.4507  13.3814  14.2333
    15.1257  15.2513

          k = 0.1250 0.2916 0.0000 (  6231 PWs)   bands (ev):

   -44.6635 -22.8668 -22.7412 -22.5853 -12.2015 -11.7983  -1.3022  -0.9955
    -0.4372  -0.1319   0.3999   1.0424   4.2458   5.9731   7.0497   7.1743
     7.5367   8.8593  10.2052  11.5318  12.2804  12.6079  13.4420  14.0488
    14.8678  15.1540

          k = 0.1250 0.3645 0.0000 (  6222 PWs)   bands (ev):

   -44.6567 -22.8467 -22.8056 -22.6107 -12.0984 -11.6961  -1.3923  -1.0747
    -0.8483  -0.2403   0.3144   0.8398   4.1989   6.2423   7.2163   7.5758
     7.7062   9.3174  10.2607  11.6627  12.2920  12.4813  13.8302  14.0260
    14.3037  15.0602

          k = 0.1250 0.4374 0.0000 (  6229 PWs)   bands (ev):

   -44.6509 -22.8600 -22.8290 -22.6322 -12.0203 -11.5943  -1.6670  -1.2240
    -0.9277  -0.2928   0.2444   0.6672   4.1938   6.6457   7.3386   7.7132
     8.0119   9.7912  10.1486  11.6588  12.2200  12.3956  13.2946  13.9144
    14.6463  14.9746

          k = 0.1250 0.5103 0.0000 (  6231 PWs)   bands (ev):

   -44.6471 -22.8955 -22.8176 -22.6465 -11.9725 -11.5186  -1.8572  -1.4463
    -0.8557  -0.3134   0.1977   0.5515   4.2180   7.0890   7.4295   7.7617
     8.0964   9.9395  10.3464  11.6359  12.1431  12.3236  12.7757  13.6595
    14.5818  14.8732

          k = 0.1250 0.5832 0.0000 (  6220 PWs)   bands (ev):

   -44.6457 -22.9079 -22.8136 -22.6515 -11.9564 -11.4906  -1.9248  -1.5233
    -0.8321  -0.3180   0.1811   0.5108   4.2330   7.2887   7.5452   7.7662
     8.0049   9.8620  10.6311  11.6353  12.0855  12.3859  12.4328  13.5677
    14.5338  14.7203

          k = 0.1250 0.0000 0.0000 (  6265 PWs)   bands (ev):

   -44.6811 -22.9193 -22.5673 -22.5189 -12.5129 -11.9944  -1.8197  -0.0912
     0.2357   0.4138   1.1674   1.5532   4.3776   5.9396   6.3204   6.8192
     7.0621   7.5256   8.9426  10.3251  11.7194  12.9571  14.2540  14.4174
    14.7749  15.0143

          k = 0.1875 0.1093 0.0000 (  6262 PWs)   bands (ev):

   -44.6739 -22.8974 -22.6487 -22.5385 -12.3770 -11.9232  -1.5915  -0.5202
    -0.0122   0.3170   0.5946   1.4022   4.2966   5.9379   6.5397   6.8502
     7.3206   8.1457   9.5851  11.0452  12.0410  12.4306  13.7531  14.5517
    14.9354  15.3709

          k = 0.1875 0.1822 0.0000 (  6256 PWs)   bands (ev):

   -44.6695 -22.8844 -22.6927 -22.5540 -12.2996 -11.8743  -1.4637  -0.7491
    -0.2001   0.1613   0.4632   1.2868   4.2453   5.9656   6.7577   6.9204
     7.4383   8.4531   9.9017  11.2971  12.1489  12.3831  13.6260  14.2847
    15.1876  15.3446

          k = 0.1875 0.2551 0.0000 (  6241 PWs)   bands (ev):

   -44.6637 -22.8673 -22.7437 -22.5802 -12.2037 -11.8013  -1.3041  -1.0042
    -0.4478  -0.1176   0.4048   1.0691   4.2321   5.9770   7.0504   7.1837
     7.5454   8.8592  10.1993  11.5258  12.2720  12.6163  13.4209  14.0238
    14.8772  15.1401

          k = 0.1875 0.3280 0.0000 (  6218 PWs)   bands (ev):

   -44.6575 -22.8488 -22.7937 -22.6131 -12.1086 -11.7084  -1.2917  -1.1031
    -0.7660  -0.3115   0.3186   0.7975   4.2661   6.0847   7.2349   7.5675
     7.7321   9.3252  10.3183  11.7248  12.5279  12.6823  13.5346  13.8887
    13.9548  15.0810

          k = 0.1875 0.4009 0.0000 (  6228 PWs)   bands (ev):

   -44.6518 -22.8378 -22.8303 -22.6463 -12.0295 -11.6083  -1.5018  -1.0976
    -0.9632  -0.4048   0.2079   0.5365   4.3415   6.3366   7.3301   7.7501
     8.0768   9.8540  10.2725  11.8749  12.4690  12.5820  13.3387  13.7659
    14.3292  14.9131

          k = 0.1875 0.4738 0.0000 (  6226 PWs)   bands (ev):

   -44.6473 -22.8677 -22.8181 -22.6732 -11.9741 -11.5226  -1.6611  -1.3505
    -0.8657  -0.4412   0.1043   0.3372   4.4366   6.7139   7.3429   7.9098
     8.1598  10.1503  10.4853  11.9494  12.0854  12.5278  13.1000  13.8682
    14.5975  14.8551

          k = 0.1875 0.5467 0.0000 (  6227 PWs)   bands (ev):

   -44.6449 -22.8837 -22.8110 -22.6882 -11.9458 -11.4731  -1.7450  -1.4881
    -0.8180  -0.4495   0.0425   0.2294   4.5056   7.0983   7.3533   7.9541
     8.0081  10.0374  11.0793  11.8448  12.1124  12.4968  12.6936  13.7556
    14.6128  14.8121

          k = 0.1875-0.0364 0.0000 (  6260 PWs)   bands (ev):

   -44.6763 -22.9045 -22.6216 -22.5333 -12.4199 -11.9476  -1.6613  -0.3665
     0.0724   0.3355   0.7570   1.4254   4.3464   5.8683   6.4956   6.8507
     7.2284   7.9805   9.3918  10.8680  12.0138  12.5429  13.8193  14.4599
    14.8916  15.3415

          k = 0.2500 0.1458 0.0000 (  6239 PWs)   bands (ev):

   -44.6669 -22.8762 -22.7276 -22.5554 -12.2524 -11.8418  -1.4029  -0.9227
    -0.3970   0.2160   0.3379   1.2837   4.1523   6.1417   6.8481   6.9624
     7.5254   8.6087  10.0134  11.3866  12.0021  12.3124  13.9804  14.2638
    15.2409  15.4225

          k = 0.2500 0.2187 0.0000 (  6230 PWs)   bands (ev):

   -44.6625 -22.8631 -22.7699 -22.5717 -12.1811 -11.7826  -1.3405  -1.0846
    -0.6307   0.0212   0.3451   1.1569   4.1129   6.2224   7.0437   7.1771
     7.6107   8.8994  10.1582  11.4940  12.0655  12.3387  13.9750  14.2279
    14.9325  15.2417

          k = 0.2500 0.2916 0.0000 (  6223 PWs)   bands (ev):

   -44.6573 -22.8478 -22.8089 -22.6018 -12.1032 -11.7029  -1.4026  -1.0797
    -0.8584  -0.2177   0.3217   0.8848   4.1762   6.2461   7.2234   7.5889
     7.7181   9.3197  10.2485  11.6527  12.3111  12.4816  13.7870  14.0408
    14.2571  15.0128

          k = 0.2500 0.3645 0.0000 (  6228 PWs)   bands (ev):

   -44.6521 -22.8393 -22.8311 -22.6416 -12.0321 -11.6122  -1.5080  -1.0994
    -0.9658  -0.3934   0.2139   0.5543   4.3308   6.3364   7.3367   7.7538
     8.0834   9.8546  10.2647  11.8716  12.4758  12.6056  13.3801  13.7109
    14.2902  14.8759

          k = 0.2500 0.4374 0.0000 (  6223 PWs)   bands (ev):

   -44.6477 -22.8546 -22.8187 -22.6839 -11.9765 -11.5268  -1.5637  -1.2994
    -0.8769  -0.4936  -0.0007   0.3122   4.5363   6.5351   7.3007   8.0029
     8.1928  10.2358  10.5360  11.9092  12.1398  12.7750  13.4147  13.8862
    14.5173  14.6572

          k = 0.2500 0.5103 0.0000 (  6234 PWs)   bands (ev):

   -44.6447 -22.8590 -22.8100 -22.7185 -11.9414 -11.4658  -1.5773  -1.4315
    -0.8153  -0.5570  -0.2147   0.1901   4.7219   6.8259   7.2408   7.9754
     8.2098  10.2336  11.1138  11.7098  12.3154  12.8503  13.2598  13.9883
    14.5016  14.7334

          k = 0.2500 0.5832 0.0000 (  6222 PWs)   bands (ev):

   -44.6437 -22.8585 -22.8069 -22.7325 -11.9294 -11.4437  -1.5846  -1.4653
    -0.7962  -0.5886  -0.2903   0.1497   4.7987   7.0303   7.2212   7.7591
     8.2854  10.2190  11.1892  12.0306  12.4372  12.8440  12.9216  13.8507
    14.7029  14.7771

          k = 0.2500-0.0729 0.0000 (  6244 PWs)   bands (ev):

   -44.6698 -22.8850 -22.6921 -22.5516 -12.3024 -11.8775  -1.4668  -0.7424
    -0.1939   0.1676   0.4645   1.2810   4.2491   5.9505   6.7758   6.9521
     7.4220   8.4517   9.8867  11.2934  12.1590  12.3942  13.6380  14.3108
    15.1706  15.3367

          k = 0.2500 0.0000 0.0000 (  6245 PWs)   bands (ev):

   -44.6708 -22.8880 -22.6774 -22.5525 -12.3203 -11.8894  -1.4905  -0.6578
    -0.1133   0.1255   0.5198   1.2564   4.3024   5.8498   6.7790   6.9651
     7.3708   8.4047   9.8363  11.2558  12.3165  12.4563  13.3853  14.2572
    15.1118  15.2279

          k = 0.3125 0.1822 0.0000 (  6225 PWs)   bands (ev):

   -44.6598 -22.8550 -22.8050 -22.5722 -12.1389 -11.7425  -1.4580  -1.1012
    -0.8336   0.1054   0.2384   1.1830   4.0136   6.5057   7.1034   7.2404
     7.6937   9.0260  10.1308  11.4316  11.9481  12.2970  13.9421  14.5114
    14.9162  15.2720

          k = 0.3125 0.2551 0.0000 (  6225 PWs)   bands (ev):

   -44.6560 -22.8449 -22.8381 -22.5884 -12.0835 -11.6800  -1.5983  -1.1062
    -0.9683  -0.0624   0.2676   1.0440   4.0202   6.6110   7.1981   7.5996
     7.7403   9.3110  10.1291  11.4548  12.0353  12.3345  13.7246  14.3610
    14.6699  15.0131

          k = 0.3125 0.3280 0.0000 (  6230 PWs)   bands (ev):

   -44.6518 -22.8630 -22.8307 -22.6206 -12.0276 -11.6054  -1.6792  -1.2257
    -0.9329  -0.2615   0.2474   0.7227   4.1674   6.6420   7.3555   7.7240
     8.0282   9.7986  10.1214  11.6697  12.2325  12.3937  13.3080  13.8775
    14.5984  14.9129

          k = 0.3125 0.4009 0.0000 (  6217 PWs)   bands (ev):

   -44.6480 -22.8699 -22.8193 -22.6650 -11.9793 -11.5306  -1.6694  -1.3486
    -0.8684  -0.4201   0.1171   0.3575   4.4213   6.7049   7.3521   7.9237
     8.1713  10.1200  10.4975  11.9580  12.1063  12.5542  13.1001  13.8391
    14.5534  14.8164

          k = 0.3125 0.4738 0.0000 (  6228 PWs)   bands (ev):

   -44.6450 -22.8601 -22.8106 -22.7144 -11.9440 -11.4699  -1.5792  -1.4296
    -0.8167  -0.5471  -0.2017   0.1886   4.7177   6.8165   7.2427   7.9803
     8.2217  10.2136  11.1300  11.7180  12.3171  12.8722  13.2291  14.0169
    14.4871  14.7261

          k = 0.3125 0.5467 0.0000 (  6219 PWs)   bands (ev):

   -44.6434 -22.8405 -22.8059 -22.7554 -11.9254 -11.4360  -1.5485  -1.3583
    -0.7936  -0.7160  -0.3969   0.1252   4.9387   6.9498   7.1630   7.6882
     8.4154  10.3533  10.9728  12.3436  12.5250  13.0900  13.2615  13.5722
    14.6429  14.8326

          k = 0.3125-0.1093 0.0000 (  6238 PWs)   bands (ev):

   -44.6628 -22.8637 -22.7679 -22.5709 -12.1839 -11.7862  -1.3391  -1.0780
    -0.6193   0.0293   0.3372   1.1438   4.1228   6.2177   7.0651   7.1772
     7.5996   8.8970  10.1513  11.5000  12.0707  12.3454  13.9976  14.2613
    14.8937  15.2408

          k = 0.3125-0.0364 0.0000 (  6235 PWs)   bands (ev):

   -44.6644 -22.8685 -22.7415 -22.5764 -12.2092 -11.8083  -1.3088  -0.9898
    -0.4308  -0.1079   0.4020   1.0579   4.2419   5.9663   7.0966   7.1935
     7.5220   8.8545  10.1814  11.5275  12.2990  12.6286  13.4488  14.0598
    14.8100  15.1220

          k = 0.3750 0.2187 0.0000 (  6223 PWs)   bands (ev):

   -44.6539 -22.8702 -22.8365 -22.5863 -12.0535 -11.6412  -1.7704  -1.2401
    -0.9527   0.0076   0.1975   1.1072   3.9335   6.9165   7.2559   7.6566
     7.8152   9.3718  10.0547  11.2944  11.9601  12.2827  13.4472  14.4633
    14.6810  14.8238

          k = 0.3750 0.2916 0.0000 (  6226 PWs)   bands (ev):

   -44.6511 -22.8920 -22.8282 -22.6013 -12.0170 -11.5887  -1.8728  -1.3619
    -0.9076  -0.1135   0.2145   0.9606   3.9872   7.0297   7.3389   7.7913
     7.9687   9.6457  10.0296  11.3567  12.0166  12.2879  13.1296  14.0303
    14.5275  14.8397

          k = 0.3750 0.3645 0.0000 (  6223 PWs)   bands (ev):

   -44.6483 -22.8975 -22.8198 -22.6335 -11.9820 -11.5334  -1.8672  -1.4404
    -0.8596  -0.2728   0.1919   0.6100   4.1921   7.0794   7.4429   7.7820
     8.1113   9.9075  10.3465  11.6811  12.1385  12.3031  12.7608  13.6650
    14.5343  14.8551

          k = 0.3750 0.4374 0.0000 (  6228 PWs)   bands (ev):

   -44.6459 -22.8852 -22.8127 -22.6784 -11.9532 -11.4847  -1.7500  -1.4793
    -0.8206  -0.4212   0.0624   0.2384   4.4925   7.0819   7.3543   7.9673
     8.0343  10.0003  11.0907  11.8719  12.1575  12.4890  12.6524  13.7670
    14.5744  14.8195

          k = 0.3750 0.5103 0.0000 (  6225 PWs)   bands (ev):

   -44.6443 -22.8590 -22.8080 -22.7267 -11.9343 -11.4514  -1.5794  -1.4581
    -0.7982  -0.5751  -0.2731   0.1411   4.7994   7.0172   7.2190   7.7521
     8.3117  10.1883  11.2229  12.0130  12.4502  12.8537  12.9049  13.9160
    14.6850  14.7851

          k = 0.3750 0.5832 0.0000 (  6232 PWs)   bands (ev):

   -44.6437 -22.8395 -22.8064 -22.7540 -11.9276 -11.4396  -1.5418  -1.3486
    -0.7957  -0.7158  -0.3932   0.1195   4.9450   6.9482   7.1622   7.6696
     8.4294  10.3390  10.9892  12.2901  12.5392  13.1133  13.2987  13.5907
    14.5978  14.8602

          k = 0.3750-0.1458 0.0000 (  6211 PWs)   bands (ev):

   -44.6563 -22.8449 -22.8363 -22.5883 -12.0858 -11.6832  -1.5886  -1.1010
    -0.9638  -0.0528   0.2557   1.0298   4.0317   6.6189   7.2125   7.5760
     7.7373   9.3071  10.1265  11.4638  12.0362  12.3366  13.7350  14.3240
    14.6717  15.0635

          k = 0.3750-0.0729 0.0000 (  6231 PWs)   bands (ev):

   -44.6579 -22.8489 -22.8049 -22.6005 -12.1082 -11.7099  -1.3851  -1.0805
    -0.8370  -0.2097   0.3117   0.8629   4.1947   6.2450   7.2571   7.5719
     7.7010   9.3120  10.2435  11.6687  12.3195  12.4891  13.8222  13.9962
    14.3093  15.0160

          k = 0.3750 0.0000 0.0000 (  6227 PWs)   bands (ev):

   -44.6584 -22.8505 -22.7904 -22.6081 -12.1162 -11.7190  -1.2730  -1.1080
    -0.7420  -0.2981   0.3127   0.7875   4.2793   6.0807   7.2828   7.5513
     7.7170   9.3158  10.3082  11.7353  12.5506  12.7173  13.5505  13.8779
    13.9504  15.0617

          k = 0.4375 0.2551 0.0000 (  6218 PWs)   bands (ev):

   -44.6499 -22.9128 -22.8245 -22.5957 -12.0019 -11.5643  -1.9997  -1.4602
    -0.8845  -0.0588   0.1824   1.0600   3.9086   7.1501   7.4928   7.8634
     8.0208   9.5719  10.0032  11.1865  11.9184  12.2547  12.9151  14.1762
    14.3202  14.5528

          k = 0.4375 0.3280 0.0000 (  6223 PWs)   bands (ev):

   -44.6484 -22.9196 -22.8201 -22.6083 -11.9840 -11.5351  -2.0241  -1.5112
    -0.8592  -0.1373   0.1864   0.9149   3.9885   7.2418   7.5559   7.8273
     8.0940   9.7044  10.1368  11.3071  11.9277  12.2806  12.7249  13.7421
    14.4362  14.5528

          k = 0.4375 0.4009 0.0000 (  6216 PWs)   bands (ev):

   -44.6471 -22.9086 -22.8161 -22.6382 -11.9675 -11.5079  -1.9299  -1.5113
    -0.8356  -0.2710   0.1680   0.5653   4.2113   7.2970   7.5435   7.7986
     7.9987   9.8179  10.6269  11.7025  12.0721  12.3485  12.4250  13.5759
    14.4910  14.7429

          k = 0.4375 0.4738 0.0000 (  6222 PWs)   bands (ev):

   -44.6461 -22.8834 -22.8131 -22.6786 -11.9547 -11.4871  -1.7417  -1.4726
    -0.8211  -0.4188   0.0601   0.2285   4.5001   7.0955   7.3557   7.9325
     8.0423   9.9987  11.0683  11.8659  12.1848  12.4730  12.6879  13.7566
    14.5798  14.8362

          k = 0.4375 0.5467 0.0000 (  6216 PWs)   bands (ev):

   -44.6455 -22.8566 -22.8114 -22.7138 -11.9478 -11.4759  -1.5622  -1.4131
    -0.8184  -0.5436  -0.2082   0.1763   4.7327   6.8226   7.2418   7.9301
     8.2454  10.2073  11.1171  11.6866  12.3567  12.8694  13.3033  13.9936
    14.4888  14.7278

          k = 0.4375-0.1822 0.0000 (  6223 PWs)   bands (ev):

   -44.6513 -22.8903 -22.8285 -22.6014 -12.0185 -11.5910  -1.8652  -1.3554
    -0.9081  -0.1054   0.2043   0.9501   3.9961   7.0439   7.3512   7.7941
     7.9323   9.6342  10.0297  11.3621  12.0224  12.2900  13.1341  13.9931
    14.5402  14.8844

          k = 0.4375-0.1093 0.0000 (  6227 PWs)   bands (ev):

   -44.6523 -22.8590 -22.8315 -22.6206 -12.0314 -11.6111  -1.6612  -1.2095
    -0.9337  -0.2534   0.2359   0.7006   4.1858   6.6541   7.3642   7.7365
     7.9788   9.7859  10.1182  11.6902  12.2335  12.3914  13.3053  13.8775
    14.6175  14.9638

          k = 0.4375-0.0364 0.0000 (  6215 PWs)   bands (ev):

   -44.6529 -22.8359 -22.8308 -22.6397 -12.0384 -11.6218  -1.4820  -1.0749
    -0.9682  -0.3840   0.2028   0.5319   4.3529   6.3371   7.3498   7.7716
     8.0352   9.8395  10.2610  11.8999  12.4647  12.6190  13.3781  13.7535
    14.3303  14.8800

          k =-0.5000-0.2916 0.0000 (  6224 PWs)   bands (ev):

   -44.6485 -22.9277 -22.8202 -22.5990 -11.9847 -11.5356  -2.0815  -1.5368
    -0.8603  -0.0822   0.1790   1.0439   3.9064   7.1964   7.6396   7.8880
     8.1558   9.6040  10.0295  11.1547  11.8214  12.2813  12.7295  13.9799
    14.2091  14.4256

          k =-0.5000-0.2187 0.0000 (  6219 PWs)   bands (ev):

   -44.6485 -22.9189 -22.8202 -22.6084 -11.9845 -11.5359  -2.0213  -1.5089
    -0.8595  -0.1342   0.1824   0.9111   3.9918   7.2435   7.5739   7.8290
     8.0703   9.6928  10.1394  11.3086  11.9356  12.2819  12.7250  13.7287
    14.4405  14.5681

          k =-0.5000-0.1458 0.0000 (  6219 PWs)   bands (ev):

   -44.6485 -22.8951 -22.8203 -22.6337 -11.9841 -11.5366  -1.8564  -1.4313
    -0.8604  -0.2670   0.1842   0.5964   4.2033   7.0993   7.4458   7.7978
     8.0590   9.8971  10.3336  11.6948  12.1506  12.2973  12.7745  13.6502
    14.5423  14.8900

          k =-0.5000-0.0729 0.0000 (  6219 PWs)   bands (ev):

   -44.6485 -22.8654 -22.8203 -22.6649 -11.9836 -11.5373  -1.6481  -1.3298
    -0.8704  -0.4136   0.1083   0.3355   4.4407   6.7161   7.3503   7.9501
     8.1099  10.1191  10.4686  11.9781  12.1155  12.5403  13.1453  13.8359
    14.5722  14.8547

          k =-0.5000 0.0000 0.0000 (  6228 PWs)   bands (ev):

   -44.6485 -22.8501 -22.8203 -22.6809 -11.9834 -11.5376  -1.5390  -1.2748
    -0.8809  -0.4809  -0.0087   0.2949   4.5555   6.5352   7.3028   8.0345
     8.1359  10.2251  10.5107  11.9105  12.1722  12.7955  13.4829  13.8743
    14.5146  14.6579

     highest occupied, lowest unoccupied level (ev):     4.9450    5.8498

!    total energy              =    -591.24401911 Ry
     total all-electron energy =    -13333.877295 Ry
     estimated scf accuracy    <          7.8E-12 Ry

     The total energy is the sum of the following terms:
     one-electron contribution =    -205.05152584 Ry
     hartree contribution      =     110.53062746 Ry
     xc contribution           =     -37.61530992 Ry
     ewald contribution        =     -27.99037998 Ry
     one-center paw contrib.   =    -431.11743083 Ry

     convergence has been achieved in   6 iterations

     negative rho (up, down):  1.439E-08 0.000E+00

     Forces acting on atoms (cartesian axes, Ry/au):

     atom    1 type  1   force =     0.00000000   -0.00037350    0.00001060
     atom    2 type  2   force =     0.00000000    0.00014915    0.00045014
     atom    3 type  3   force =     0.00000000    0.00022435   -0.00046074
     The non-local contrib.  to forces
     atom    1 type  1   force =     0.00000000   -0.00131289   -0.00064601
     atom    2 type  2   force =     0.00000000   -0.00085922   -0.21317516
     atom    3 type  3   force =     0.00000000   -0.00082868    0.20930928
     The ionic contribution  to forces
     atom    1 type  1   force =    -0.00000001   -0.07173980   -0.34511520
     atom    2 type  2   force =     0.00000000    0.04086236   21.37280308
     atom    3 type  3   force =     0.00000000    0.03087745  -21.02768788
     The local contribution  to forces
     atom    1 type  1   force =    -0.00000000    0.07260745    0.34550167
     atom    2 type  2   force =     0.00000003   -0.03974188  -21.16708145
     atom    3 type  3   force =    -0.00000000   -0.02979629   20.82141309
     The core correction contribution to forces
     atom    1 type  1   force =    -0.00000000    0.00003786    0.00035658
     atom    2 type  2   force =    -0.00000000   -0.00014597    0.00798236
     atom    3 type  3   force =    -0.00000000   -0.00006150   -0.00342272
     The Hubbard contrib.    to forces
     atom    1 type  1   force =     0.00000000    0.00000000    0.00000000
     atom    2 type  2   force =     0.00000000    0.00000000    0.00000000
     atom    3 type  3   force =     0.00000000    0.00000000    0.00000000
     The SCF correction term to forces
     atom    1 type  1   force =    -0.00000000    0.00000082   -0.00001034
     atom    2 type  2   force =     0.00000000    0.00000080   -0.00000261
     atom    3 type  3   force =     0.00000000    0.00000031    0.00000359

     Total force =     0.000792     Total SCF correction =     0.000011
     Energy error            =      1.2E-06 Ry
     Gradient error          =      4.6E-04 Ry/Bohr

     number of scf cycles    =   5
     number of bfgs steps    =   4

     energy             old  =    -591.2440179430 Ry
     energy             new  =    -591.2440191093 Ry

     CASE: energy            _new < energy            _old

     new trust radius        =       0.0015162329 bohr
     new conv_thr            =            1.0E-10 Ry


ATOMIC_POSITIONS (angstrom)
Zr            0.0000000000        0.0114983038       10.2764809541
Cl           -0.0000000017        2.0083643065       11.9726406660
Br           -0.0000000017        2.0089942343        8.4140271542



     Writing config-only to output data dir ./tmp/ZrClBr.save/
     NEW-OLD atomic charge density approx. for the potential

     Check: negative core charge=   -0.000004

     negative rho (up, down):  1.428E-08 0.000E+00

     total cpu time spent up to now is       62.5 secs

     Self-consistent Calculation

     iteration #  1     ecut=    65.00 Ry     beta= 0.70
     Davidson diagonalization with overlap
     ethr =  1.00E-06,  avg # of iterations =  2.0

     Threshold (ethr) on eigenvalues was too large:
     Diagonalizing with lowered threshold

     Davidson diagonalization with overlap
     ethr =  1.41E-09,  avg # of iterations =  3.5

     negative rho (up, down):  1.424E-08 0.000E+00

     total cpu time spent up to now is       65.8 secs

     total energy              =    -591.24401988 Ry
     estimated scf accuracy    <       0.00000043 Ry

     iteration #  2     ecut=    65.00 Ry     beta= 0.70
     Davidson diagonalization with overlap
     ethr =  1.64E-09,  avg # of iterations =  2.0

     negative rho (up, down):  1.434E-08 0.000E+00

     total cpu time spent up to now is       67.3 secs

     total energy              =    -591.24401982 Ry
     estimated scf accuracy    <       0.00000172 Ry

     iteration #  3     ecut=    65.00 Ry     beta= 0.70
     Davidson diagonalization with overlap
     ethr =  1.64E-09,  avg # of iterations =  2.0

     negative rho (up, down):  1.436E-08 0.000E+00

     total cpu time spent up to now is       68.8 secs

     total energy              =    -591.24402012 Ry
     estimated scf accuracy    <          6.0E-09 Ry

     iteration #  4     ecut=    65.00 Ry     beta= 0.70
     Davidson diagonalization with overlap
     ethr =  2.29E-11,  avg # of iterations =  2.0

     negative rho (up, down):  1.436E-08 0.000E+00

     total cpu time spent up to now is       70.3 secs

     total energy              =    -591.24402012 Ry
     estimated scf accuracy    <          4.4E-09 Ry

     iteration #  5     ecut=    65.00 Ry     beta= 0.70
     Davidson diagonalization with overlap
     ethr =  1.67E-11,  avg # of iterations =  1.2

     negative rho (up, down):  1.436E-08 0.000E+00

     total cpu time spent up to now is       71.7 secs

     total energy              =    -591.24402012 Ry
     estimated scf accuracy    <          2.4E-10 Ry

     iteration #  6     ecut=    65.00 Ry     beta= 0.70
     Davidson diagonalization with overlap
     ethr =  9.04E-13,  avg # of iterations =  2.0

     negative rho (up, down):  1.436E-08 0.000E+00

     total cpu time spent up to now is       73.1 secs

     End of self-consistent calculation

          k = 0.0000 0.0000 0.0000 (  6283 PWs)   bands (ev):

   -44.6872 -22.9330 -22.5233 -22.5096 -12.5889 -12.0291  -1.9514   0.0921
     0.4137   0.4617   1.6077   1.6691   4.3653   6.0983   6.2049   6.8648
     6.9079   7.0422   8.5650   9.7070  11.5072  13.7972  13.9444  14.1171
    14.8833  15.4032

          k = 0.0000 0.0729 0.0000 (  6265 PWs)   bands (ev):

   -44.6857 -22.9287 -22.5269 -22.5263 -12.5616 -12.0165  -1.9047   0.0423
     0.3850   0.3994   1.4992   1.5698   4.3759   6.1280   6.1352   6.8668
     6.9256   7.2237   8.7022   9.9469  11.5784  13.4200  13.9292  14.5450
    14.9105  15.0880

          k = 0.0000 0.1458 0.0000 (  6275 PWs)   bands (ev):

   -44.6816 -22.9165 -22.5735 -22.5372 -12.4843 -11.9792  -1.7734  -0.1481
     0.2179   0.3540   1.0789   1.4707   4.3809   5.9883   6.2543   6.8204
     7.0863   7.6560   9.0844  10.5062  11.7945  12.8418  14.2748  14.3053
    14.7704  15.1568

          k = 0.0000 0.2187 0.0000 (  6263 PWs)   bands (ev):

   -44.6754 -22.8981 -22.6431 -22.5525 -12.3711 -11.9174  -1.5849  -0.4999
     0.0030   0.2748   0.6159   1.3436   4.3188   5.9637   6.4720   6.8511
     7.2964   8.1488   9.6109  11.0622  12.0555  12.4517  13.7856  14.5833
    14.8518  15.4355

          k = 0.0000 0.2916 0.0000 (  6245 PWs)   bands (ev):

   -44.6681 -22.8763 -22.7238 -22.5705 -12.2441 -11.8321  -1.3944  -0.9058
    -0.3802   0.1677   0.3482   1.2185   4.1816   6.1506   6.7959   6.9547
     7.5027   8.6105  10.0352  11.4028  12.0106  12.3320  14.0143  14.3155
    15.3215  15.3418

          k = 0.0000 0.3645 0.0000 (  6224 PWs)   bands (ev):

   -44.6607 -22.8546 -22.8030 -22.5884 -12.1282 -11.7283  -1.4466  -1.0912
    -0.8236   0.0507   0.2491   1.1122   4.0447   6.5061   7.0893   7.2080
     7.6700   9.0237  10.1517  11.4402  11.9463  12.3131  14.0134  14.5683
    14.9946  15.1818

          k = 0.0000 0.4374 0.0000 (  6218 PWs)   bands (ev):

   -44.6545 -22.8696 -22.8355 -22.6035 -12.0408 -11.6229  -1.7594  -1.2414
    -0.9435  -0.0527   0.2119   1.0319   3.9656   6.9081   7.2381   7.6458
     7.7912   9.3641  10.0920  11.2743  11.9712  12.3009  13.5165  14.5334
    14.5810  14.8832

          k = 0.0000 0.5103 0.0000 (  6216 PWs)   bands (ev):

   -44.6503 -22.9131 -22.8232 -22.6135 -11.9877 -11.5432  -1.9895  -1.4676
    -0.8777  -0.1228   0.1999   0.9818   3.9421   7.1276   7.4755   7.8349
     8.0349   9.5786  10.0438  11.1423  11.9451  12.2976  12.9655  14.0593
    14.3599  14.6021

          k = 0.0000-0.5832 0.0000 (  6246 PWs)   bands (ev):

   -44.6489 -22.9284 -22.8188 -22.6171 -11.9700 -11.5135  -2.0717  -1.5464
    -0.8545  -0.1475   0.1976   0.9648   3.9406   7.1700   7.6182   7.8579
     8.1810   9.6356  10.0546  11.1015  11.8567  12.3393  12.7712  13.8531
    14.2289  14.4730

          k = 0.0625 0.0364 0.0000 (  6281 PWs)   bands (ev):

   -44.6858 -22.9288 -22.5377 -22.5149 -12.5622 -12.0171  -1.9054   0.0376
     0.3513   0.4398   1.4532   1.6213   4.3730   6.0451   6.2249   6.8388
     6.9589   7.2222   8.6967   9.9402  11.5769  13.3677  14.0353  14.5048
    14.8811  15.0159

          k = 0.0625 0.1093 0.0000 (  6270 PWs)   bands (ev):

   -44.6830 -22.9206 -22.5623 -22.5291 -12.5098 -11.9922  -1.8163  -0.0809
     0.2472   0.3911   1.1903   1.5214   4.3814   5.9880   6.2525   6.8181
     7.0488   7.5276   8.9571  10.3388  11.7236  12.9809  14.1601  14.4556
    14.8251  15.0361

          k = 0.0625 0.1822 0.0000 (  6274 PWs)   bands (ev):

   -44.6778 -22.9053 -22.6166 -22.5460 -12.4145 -11.9426  -1.6550  -0.3515
     0.0778   0.3093   0.7703   1.3863   4.3589   5.9043   6.4252   6.8330
     7.2210   7.9834   9.4198  10.8871  12.0221  12.5501  13.8446  14.4062
    14.8979  15.3751

          k = 0.0625 0.2551 0.0000 (  6250 PWs)   bands (ev):

   -44.6711 -22.8852 -22.6891 -22.5653 -12.2944 -11.8688  -1.4582  -0.7314
    -0.1839   0.1361   0.4646   1.2370   4.2677   5.9653   6.7231   6.9248
     7.4161   8.4545   9.9162  11.3083  12.1587  12.4046  13.6480  14.3165
    15.1595  15.3608

          k = 0.0625 0.3280 0.0000 (  6226 PWs)   bands (ev):

   -44.6637 -22.8634 -22.7668 -22.5855 -12.1736 -11.7731  -1.3314  -1.0695
    -0.6140  -0.0089   0.3376   1.0940   4.1429   6.2177   7.0349   7.1508
     7.5883   8.8985  10.1712  11.5106  12.0643  12.3517  14.0260  14.2829
    14.9520  15.2449

          k = 0.0625 0.4009 0.0000 (  6218 PWs)   bands (ev):

   -44.6569 -22.8444 -22.8362 -22.6040 -12.0735 -11.6660  -1.5838  -1.1007
    -0.9575  -0.1005   0.2637   0.9732   4.0527   6.6092   7.1840   7.5747
     7.7195   9.3041  10.1530  11.4534  12.0310  12.3465  13.7901  14.3627
    14.6919  15.0561

          k = 0.0625 0.4738 0.0000 (  6225 PWs)   bands (ev):

   -44.6517 -22.8912 -22.8274 -22.6180 -12.0048 -11.5708  -1.8597  -1.3642
    -0.9003  -0.1617   0.2197   0.8866   4.0202   7.0262   7.3236   7.7679
     7.9546   9.6352  10.0709  11.3235  12.0325  12.3137  13.1746  13.9775
    14.5766  14.8789

          k = 0.0625 0.5467 0.0000 (  6224 PWs)   bands (ev):

   -44.6489 -22.9198 -22.8190 -22.6256 -11.9703 -11.5146  -2.0137  -1.5196
    -0.8535  -0.1938   0.2002   0.8416   4.0202   7.2188   7.5496   7.8011
     8.0981   9.7320  10.1559  11.2530  11.9601  12.3319  12.7509  13.6790
    14.4648  14.5639

          k = 0.1250 0.0729 0.0000 (  6272 PWs)   bands (ev):

   -44.6819 -22.9169 -22.5826 -22.5256 -12.4865 -11.9814  -1.7761  -0.1640
     0.2010   0.3940   1.0443   1.5251   4.3689   5.9339   6.3315   6.8074
     7.1135   7.6523   9.0667  10.4902  11.7870  12.8147  14.2216  14.3986
    14.7498  15.1051

          k = 0.1250 0.1458 0.0000 (  6271 PWs)   bands (ev):

   -44.6780 -22.9056 -22.6209 -22.5399 -12.4161 -11.9443  -1.6569  -0.3628
     0.0728   0.3288   0.7554   1.4182   4.3481   5.8926   6.4535   6.8252
     7.2366   7.9814   9.4091  10.8796  12.0142  12.5374  13.8248  14.4096
    14.9234  15.3544

          k = 0.1250 0.2187 0.0000 (  6243 PWs)   bands (ev):

   -44.6723 -22.8886 -22.6773 -22.5615 -12.3138 -11.8827  -1.4833  -0.6582
    -0.1144   0.1115   0.5148   1.2470   4.3056   5.8670   6.7397   6.9192
     7.3874   8.4069   9.8633  11.2676  12.2992  12.4502  13.3807  14.2322
    15.1251  15.2508

          k = 0.1250 0.2916 0.0000 (  6231 PWs)   bands (ev):

   -44.6655 -22.8685 -22.7428 -22.5870 -12.2002 -11.7974  -1.3005  -0.9940
    -0.4357  -0.1306   0.4002   1.0440   4.2449   5.9703   7.0485   7.1729
     7.5342   8.8587  10.2021  11.5334  12.2808  12.6073  13.4411  14.0476
    14.8672  15.1532

          k = 0.1250 0.3645 0.0000 (  6222 PWs)   bands (ev):

   -44.6587 -22.8484 -22.8071 -22.6124 -12.0972 -11.6950  -1.3905  -1.0734
    -0.8469  -0.2389   0.3145   0.8412   4.1982   6.2396   7.2147   7.5739
     7.7041   9.3166  10.2574  11.6636  12.2915  12.4814  13.8293  14.0251
    14.3033  15.0598

          k = 0.1250 0.4374 0.0000 (  6229 PWs)   bands (ev):

   -44.6530 -22.8615 -22.8307 -22.6339 -12.0191 -11.5932  -1.6654  -1.2228
    -0.9262  -0.2912   0.2443   0.6686   4.1931   6.6433   7.3363   7.7106
     8.0105   9.7894  10.1470  11.6587  12.2193  12.3951  13.2935  13.9140
    14.6465  14.9738

          k = 0.1250 0.5103 0.0000 (  6231 PWs)   bands (ev):

   -44.6491 -22.8969 -22.8194 -22.6482 -11.9712 -11.5174  -1.8558  -1.4452
    -0.8542  -0.3118   0.1975   0.5528   4.2172   7.0868   7.4267   7.7594
     8.0946   9.9377  10.3455  11.6351  12.1417  12.3233  12.7750  13.6587
    14.5824  14.8716

          k = 0.1250 0.5832 0.0000 (  6220 PWs)   bands (ev):

   -44.6478 -22.9094 -22.8153 -22.6532 -11.9551 -11.4895  -1.9233  -1.5222
    -0.8306  -0.3164   0.1809   0.5121   4.2321   7.2861   7.5430   7.7640
     8.0027   9.8612  10.6293  11.6342  12.0848  12.3852  12.4322  13.5666
    14.5349  14.7183

          k = 0.1250 0.0000 0.0000 (  6265 PWs)   bands (ev):

   -44.6832 -22.9209 -22.5690 -22.5207 -12.5115 -11.9938  -1.8183  -0.0903
     0.2367   0.4160   1.1691   1.5554   4.3750   5.9374   6.3185   6.8185
     7.0611   7.5250   8.9428  10.3254  11.7205  12.9562  14.2544  14.4163
    14.7725  15.0160

          k = 0.1875 0.1093 0.0000 (  6262 PWs)   bands (ev):

   -44.6759 -22.8990 -22.6504 -22.5402 -12.3756 -11.9225  -1.5900  -0.5185
    -0.0115   0.3191   0.5951   1.4044   4.2949   5.9354   6.5380   6.8493
     7.3191   8.1450   9.5840  11.0464  12.0407  12.4301  13.7529  14.5499
    14.9357  15.3717

          k = 0.1875 0.1822 0.0000 (  6256 PWs)   bands (ev):

   -44.6715 -22.8860 -22.6943 -22.5557 -12.2982 -11.8735  -1.4621  -0.7473
    -0.1990   0.1631   0.4636   1.2888   4.2440   5.9629   6.7562   6.9193
     7.4364   8.4525   9.8997  11.2986  12.1484  12.3824  13.6259  14.2834
    15.1874  15.3438

          k = 0.1875 0.2551 0.0000 (  6241 PWs)   bands (ev):

   -44.6658 -22.8690 -22.7453 -22.5819 -12.2024 -11.8004  -1.3024  -1.0026
    -0.4464  -0.1163   0.4051   1.0708   4.2313   5.9743   7.0492   7.1824
     7.5429   8.8586  10.1962  11.5274  12.2725  12.6158  13.4198  14.0226
    14.8765  15.1390

          k = 0.1875 0.3280 0.0000 (  6218 PWs)   bands (ev):

   -44.6596 -22.8505 -22.7952 -22.6147 -12.1074 -11.7073  -1.2899  -1.1018
    -0.7644  -0.3103   0.3188   0.7988   4.2656   6.0819   7.2335   7.5652
     7.7301   9.3246  10.3146  11.7262  12.5284  12.6827  13.5326  13.8877
    13.9539  15.0802

          k = 0.1875 0.4009 0.0000 (  6228 PWs)   bands (ev):

   -44.6538 -22.8393 -22.8320 -22.6479 -12.0283 -11.6072  -1.5002  -1.0961
    -0.9617  -0.4036   0.2083   0.5373   4.3411   6.3339   7.3277   7.7475
     8.0754   9.8534  10.2692  11.8759  12.4683  12.5820  13.3381  13.7652
    14.3281  14.9127

          k = 0.1875 0.4738 0.0000 (  6226 PWs)   bands (ev):

   -44.6494 -22.8692 -22.8199 -22.6749 -11.9729 -11.5214  -1.6596  -1.3490
    -0.8642  -0.4400   0.1049   0.3376   4.4360   6.7116   7.3398   7.9075
     8.1581  10.1487  10.4840  11.9493  12.0845  12.5276  13.0991  13.8677
    14.5972  14.8545

          k = 0.1875 0.5467 0.0000 (  6227 PWs)   bands (ev):

   -44.6470 -22.8852 -22.8128 -22.6899 -11.9445 -11.4719  -1.7436  -1.4866
    -0.8164  -0.4483   0.0435   0.2295   4.5049   7.0963   7.3502   7.9517
     8.0059  10.0365  11.0774  11.8440  12.1123  12.4965  12.6929  13.7546
    14.6133  14.8106

          k = 0.1875-0.0364 0.0000 (  6260 PWs)   bands (ev):

   -44.6783 -22.9061 -22.6232 -22.5350 -12.4185 -11.9469  -1.6598  -0.3648
     0.0729   0.3377   0.7580   1.4276   4.3444   5.8658   6.4938   6.8500
     7.2270   7.9798   9.3912  10.8690  12.0140  12.5422  13.8185  14.4593
    14.8902  15.3429

          k = 0.2500 0.1458 0.0000 (  6239 PWs)   bands (ev):

   -44.6689 -22.8779 -22.7292 -22.5571 -12.2511 -11.8410  -1.4013  -0.9211
    -0.3957   0.2181   0.3375   1.2857   4.1512   6.1391   6.8467   6.9611
     7.5234   8.6080  10.0110  11.3881  12.0012  12.3119  13.9807  14.2632
    15.2404  15.4223

          k = 0.2500 0.2187 0.0000 (  6230 PWs)   bands (ev):

   -44.6645 -22.8648 -22.7715 -22.5734 -12.1799 -11.7817  -1.3387  -1.0832
    -0.6293   0.0226   0.3453   1.1587   4.1120   6.2198   7.0423   7.1758
     7.6083   8.8986  10.1552  11.4953  12.0648  12.3384  13.9744  14.2280
    14.9313  15.2406

          k = 0.2500 0.2916 0.0000 (  6223 PWs)   bands (ev):

   -44.6593 -22.8495 -22.8105 -22.6034 -12.1020 -11.7019  -1.4008  -1.0784
    -0.8570  -0.2164   0.3219   0.8863   4.1755   6.2435   7.2219   7.5869
     7.7161   9.3189  10.2452  11.6537  12.3108  12.4816  13.7861  14.0398
    14.2566  15.0122

          k = 0.2500 0.3645 0.0000 (  6228 PWs)   bands (ev):

   -44.6541 -22.8408 -22.8328 -22.6432 -12.0309 -11.6110  -1.5063  -1.0979
    -0.9642  -0.3922   0.2142   0.5552   4.3304   6.3337   7.3343   7.7512
     8.0820   9.8541  10.2614  11.8726  12.4751  12.6056  13.3795  13.7102
    14.2889  14.8755

          k = 0.2500 0.4374 0.0000 (  6223 PWs)   bands (ev):

   -44.6497 -22.8561 -22.8205 -22.6855 -11.9753 -11.5256  -1.5622  -1.2977
    -0.8753  -0.4926   0.0003   0.3122   4.5358   6.5326   7.2976   8.0005
     8.1911  10.2345  10.5344  11.9085  12.1403  12.7751  13.4137  13.8858
    14.5161  14.6565

          k = 0.2500 0.5103 0.0000 (  6234 PWs)   bands (ev):

   -44.6468 -22.8604 -22.8117 -22.7201 -11.9402 -11.4646  -1.5759  -1.4298
    -0.8138  -0.5561  -0.2137   0.1899   4.7214   6.8240   7.2374   7.9731
     8.2073  10.2322  11.1125  11.7089  12.3163  12.8501  13.2589  13.9876
    14.5007  14.7327

          k = 0.2500 0.5832 0.0000 (  6222 PWs)   bands (ev):

   -44.6457 -22.8600 -22.8087 -22.7341 -11.9281 -11.4425  -1.5831  -1.4637
    -0.7947  -0.5876  -0.2893   0.1495   4.7980   7.0291   7.2181   7.7559
     8.2828  10.2177  11.1878  12.0302  12.4380  12.8437  12.9208  13.8497
    14.7028  14.7754

          k = 0.2500-0.0729 0.0000 (  6244 PWs)   bands (ev):

   -44.6719 -22.8866 -22.6937 -22.5533 -12.3011 -11.8768  -1.4652  -0.7407
    -0.1928   0.1694   0.4648   1.2830   4.2478   5.9479   6.7744   6.9510
     7.4201   8.4511   9.8848  11.2949  12.1586  12.3935  13.6380  14.3095
    15.1707  15.3358

          k = 0.2500 0.0000 0.0000 (  6245 PWs)   bands (ev):

   -44.6729 -22.8897 -22.6790 -22.5542 -12.3190 -11.8887  -1.4890  -0.6560
    -0.1125   0.1274   0.5203   1.2584   4.3010   5.8472   6.7775   6.9642
     7.3688   8.4041   9.8345  11.2574  12.3163  12.4559  13.3846  14.2560
    15.1114  15.2274

          k = 0.3125 0.1822 0.0000 (  6225 PWs)   bands (ev):

   -44.6619 -22.8567 -22.8066 -22.5739 -12.1377 -11.7415  -1.4562  -1.0999
    -0.8323   0.1075   0.2379   1.1849   4.0127   6.5032   7.1017   7.2393
     7.6913   9.0248  10.1281  11.4319  11.9474  12.2967  13.9418  14.5116
    14.9153  15.2713

          k = 0.3125 0.2551 0.0000 (  6225 PWs)   bands (ev):

   -44.6581 -22.8466 -22.8397 -22.5901 -12.0823 -11.6789  -1.5966  -1.1051
    -0.9669  -0.0608   0.2675   1.0457   4.0193   6.6086   7.1963   7.5984
     7.7377   9.3094  10.1267  11.4547  12.0347  12.3341  13.7240  14.3603
    14.6699  15.0125

          k = 0.3125 0.3280 0.0000 (  6230 PWs)   bands (ev):

   -44.6539 -22.8645 -22.8324 -22.6223 -12.0264 -11.6042  -1.6776  -1.2245
    -0.9314  -0.2600   0.2474   0.7240   4.1667   6.6396   7.3533   7.7214
     8.0268   9.7968  10.1197  11.6698  12.2318  12.3930  13.3069  13.8771
    14.5987  14.9121

          k = 0.3125 0.4009 0.0000 (  6217 PWs)   bands (ev):

   -44.6500 -22.8714 -22.8211 -22.6667 -11.9781 -11.5294  -1.6680  -1.3471
    -0.8669  -0.4189   0.1176   0.3579   4.4207   6.7026   7.3491   7.9214
     8.1696  10.1185  10.4961  11.9580  12.1053  12.5539  13.0992  13.8387
    14.5532  14.8157

          k = 0.3125 0.4738 0.0000 (  6228 PWs)   bands (ev):

   -44.6471 -22.8616 -22.8123 -22.7160 -11.9428 -11.4687  -1.5777  -1.4279
    -0.8152  -0.5462  -0.2007   0.1884   4.7172   6.8147   7.2393   7.9780
     8.2192  10.2122  11.1287  11.7170  12.3180  12.8720  13.2283  14.0161
    14.4862  14.7253

          k = 0.3125 0.5467 0.0000 (  6219 PWs)   bands (ev):

   -44.6455 -22.8420 -22.8076 -22.7571 -11.9242 -11.4348  -1.5466  -1.3569
    -0.7922  -0.7148  -0.3963   0.1251   4.9380   6.9492   7.1596   7.6847
     8.4126  10.3514  10.9723  12.3433  12.5257  13.0900  13.2610  13.5713
    14.6414  14.8313

          k = 0.3125-0.1093 0.0000 (  6238 PWs)   bands (ev):

   -44.6648 -22.8654 -22.7694 -22.5726 -12.1827 -11.7852  -1.3373  -1.0766
    -0.6179   0.0307   0.3373   1.1457   4.1219   6.2150   7.0638   7.1758
     7.5973   8.8962  10.1483  11.5013  12.0700  12.3452  13.9971  14.2615
    14.8927  15.2401

          k = 0.3125-0.0364 0.0000 (  6235 PWs)   bands (ev):

   -44.6664 -22.8701 -22.7431 -22.5781 -12.2079 -11.8074  -1.3071  -0.9881
    -0.4294  -0.1066   0.4023   1.0596   4.2410   5.9635   7.0955   7.1921
     7.5196   8.8539  10.1783  11.5291  12.2994  12.6280  13.4479  14.0586
    14.8094  15.1212

          k = 0.3750 0.2187 0.0000 (  6223 PWs)   bands (ev):

   -44.6559 -22.8717 -22.8382 -22.5880 -12.0523 -11.6401  -1.7688  -1.2391
    -0.9513   0.0097   0.1970   1.1090   3.9325   6.9144   7.2538   7.6555
     7.8125   9.3694  10.0535  11.2935  11.9594  12.2821  13.4465  14.4631
    14.6804  14.8225

          k = 0.3750 0.2916 0.0000 (  6226 PWs)   bands (ev):

   -44.6531 -22.8935 -22.8299 -22.6030 -12.0158 -11.5875  -1.8712  -1.3610
    -0.9061  -0.1117   0.2143   0.9622   3.9863   7.0276   7.3368   7.7885
     7.9674   9.6424  10.0297  11.3558  12.0157  12.2872  13.1288  14.0294
    14.5280  14.8382

          k = 0.3750 0.3645 0.0000 (  6223 PWs)   bands (ev):

   -44.6503 -22.8989 -22.8215 -22.6352 -11.9808 -11.5322  -1.8657  -1.4392
    -0.8580  -0.2712   0.1917   0.6113   4.1912   7.0773   7.4401   7.7797
     8.1096   9.9059  10.3453  11.6805  12.1372  12.3026  12.7602  13.6642
    14.5351  14.8535

          k = 0.3750 0.4374 0.0000 (  6228 PWs)   bands (ev):

   -44.6479 -22.8866 -22.8145 -22.6801 -11.9520 -11.4835  -1.7486  -1.4779
    -0.8190  -0.4200   0.0632   0.2386   4.4918   7.0801   7.3510   7.9649
     8.0320   9.9994  11.0888  11.8711  12.1576  12.4886  12.6517  13.7661
    14.5751  14.8178

          k = 0.3750 0.5103 0.0000 (  6225 PWs)   bands (ev):

   -44.6463 -22.8605 -22.8098 -22.7283 -11.9330 -11.4502  -1.5778  -1.4565
    -0.7967  -0.5741  -0.2722   0.1408   4.7987   7.0161   7.2157   7.7490
     8.3091  10.1869  11.2214  12.0126  12.4510  12.8530  12.9046  13.9151
    14.6850  14.7834

          k = 0.3750 0.5832 0.0000 (  6232 PWs)   bands (ev):

   -44.6458 -22.8409 -22.8081 -22.7557 -11.9264 -11.4384  -1.5399  -1.3472
    -0.7942  -0.7146  -0.3927   0.1193   4.9444   6.9476   7.1587   7.6661
     8.4266  10.3370  10.9887  12.2896  12.5400  13.1136  13.2980  13.5899
    14.5964  14.8586

          k = 0.3750-0.1458 0.0000 (  6211 PWs)   bands (ev):

   -44.6583 -22.8466 -22.8378 -22.5900 -12.0846 -11.6822  -1.5869  -1.0999
    -0.9624  -0.0512   0.2555   1.0315   4.0308   6.6165   7.2106   7.5747
     7.7348   9.3056  10.1242  11.4637  12.0357  12.3363  13.7344  14.3234
    14.6717  15.0628

          k = 0.3750-0.0729 0.0000 (  6231 PWs)   bands (ev):

   -44.6599 -22.8505 -22.8064 -22.6022 -12.1070 -11.7089  -1.3833  -1.0792
    -0.8356  -0.2084   0.3118   0.8644   4.1940   6.2423   7.2554   7.5701
     7.6989   9.3112  10.2401  11.6697  12.3191  12.4891  13.8213  13.9954
    14.3089  15.0155

          k = 0.3750 0.0000 0.0000 (  6227 PWs)   bands (ev):

   -44.6605 -22.8522 -22.7919 -22.6097 -12.1150 -11.7180  -1.2711  -1.1067
    -0.7404  -0.2969   0.3129   0.7888   4.2788   6.0779   7.2812   7.5493
     7.7150   9.3153  10.3044  11.7367  12.5511  12.7177  13.5486  13.8774
    13.9492  15.0610

          k = 0.4375 0.2551 0.0000 (  6218 PWs)   bands (ev):

   -44.6520 -22.9143 -22.8262 -22.5974 -12.0007 -11.5632  -1.9981  -1.4593
    -0.8830  -0.0567   0.1820   1.0617   3.9076   7.1480   7.4905   7.8605
     8.0199   9.5683  10.0036  11.1853  11.9175  12.2539  12.9143  14.1757
    14.3187  14.5528

          k = 0.4375 0.3280 0.0000 (  6223 PWs)   bands (ev):

   -44.6505 -22.9210 -22.8218 -22.6100 -11.9828 -11.5339  -2.0226  -1.5104
    -0.8577  -0.1354   0.1861   0.9165   3.9876   7.2396   7.5539   7.8245
     8.0926   9.7024  10.1359  11.3059  11.9268  12.2799  12.7239  13.7410
    14.4369  14.5514

          k = 0.4375 0.4009 0.0000 (  6216 PWs)   bands (ev):

   -44.6491 -22.9101 -22.8179 -22.6399 -11.9662 -11.5067  -1.9284  -1.5102
    -0.8341  -0.2694   0.1678   0.5666   4.2105   7.2945   7.5412   7.7965
     7.9965   9.8171  10.6250  11.7015  12.0713  12.3482  12.4239  13.5748
    14.4922  14.7410

          k = 0.4375 0.4738 0.0000 (  6222 PWs)   bands (ev):

   -44.6481 -22.8849 -22.8148 -22.6802 -11.9535 -11.4859  -1.7403  -1.4712
    -0.8196  -0.4176   0.0609   0.2287   4.4994   7.0937   7.3525   7.9302
     8.0401   9.9977  11.0665  11.8649  12.1848  12.4727  12.6872  13.7557
    14.5804  14.8346

          k = 0.4375 0.5467 0.0000 (  6216 PWs)   bands (ev):

   -44.6475 -22.8581 -22.8132 -22.7154 -11.9465 -11.4747  -1.5607  -1.4115
    -0.8169  -0.5426  -0.2072   0.1761   4.7321   6.8208   7.2385   7.9279
     8.2429  10.2057  11.1159  11.6856  12.3576  12.8694  13.3024  13.9929
    14.4881  14.7270

          k = 0.4375-0.1822 0.0000 (  6223 PWs)   bands (ev):

   -44.6533 -22.8917 -22.8302 -22.6031 -12.0173 -11.5899  -1.8636  -1.3544
    -0.9066  -0.1035   0.2040   0.9518   3.9952   7.0417   7.3491   7.7914
     7.9311   9.6310  10.0297  11.3612  12.0216  12.2893  13.1333  13.9921
    14.5407  14.8829

          k = 0.4375-0.1093 0.0000 (  6227 PWs)   bands (ev):

   -44.6543 -22.8605 -22.8332 -22.6222 -12.0302 -11.6099  -1.6596  -1.2083
    -0.9322  -0.2519   0.2358   0.7020   4.1851   6.6517   7.3618   7.7340
     7.9775   9.7842  10.1164  11.6902  12.2329  12.3908  13.3042  13.8772
    14.6178  14.9630

          k = 0.4375-0.0364 0.0000 (  6215 PWs)   bands (ev):

   -44.6549 -22.8376 -22.8324 -22.6414 -12.0372 -11.6207  -1.4804  -1.0734
    -0.9666  -0.3829   0.2032   0.5328   4.3524   6.3345   7.3473   7.7693
     8.0338   9.8390  10.2576  11.9009  12.4641  12.6190  13.3776  13.7528
    14.3291  14.8796

          k =-0.5000-0.2916 0.0000 (  6224 PWs)   bands (ev):

   -44.6506 -22.9292 -22.8219 -22.6007 -11.9835 -11.5344  -2.0800  -1.5360
    -0.8588  -0.0801   0.1786   1.0456   3.9053   7.1942   7.6373   7.8849
     8.1550   9.6015  10.0289  11.1534  11.8206  12.2806  12.7283  13.9795
    14.2064  14.4270

          k =-0.5000-0.2187 0.0000 (  6219 PWs)   bands (ev):

   -44.6506 -22.9204 -22.8220 -22.6101 -11.9833 -11.5347  -2.0198  -1.5081
    -0.8580  -0.1322   0.1821   0.9127   3.9909   7.2412   7.5719   7.8261
     8.0691   9.6907  10.1386  11.3074  11.9348  12.2812  12.7240  13.7276
    14.4412  14.5667

          k =-0.5000-0.1458 0.0000 (  6219 PWs)   bands (ev):

   -44.6506 -22.8965 -22.8220 -22.6354 -11.9828 -11.5354  -1.8550  -1.4302
    -0.8589  -0.2655   0.1840   0.5978   4.2024   7.0971   7.4430   7.7956
     8.0574   9.8953  10.3327  11.6941  12.1492  12.2969  12.7739  13.6493
    14.5430  14.8884

          k =-0.5000-0.0729 0.0000 (  6219 PWs)   bands (ev):

   -44.6506 -22.8669 -22.8220 -22.6665 -11.9824 -11.5361  -1.6466  -1.3283
    -0.8689  -0.4125   0.1088   0.3360   4.4401   6.7138   7.3472   7.9479
     8.1083  10.1174  10.4673  11.9778  12.1149  12.5401  13.1444  13.8355
    14.5721  14.8541

          k =-0.5000 0.0000 0.0000 (  6228 PWs)   bands (ev):

   -44.6506 -22.8515 -22.8220 -22.6826 -11.9822 -11.5364  -1.5375  -1.2731
    -0.8794  -0.4799  -0.0077   0.2949   4.5551   6.5327   7.2997   8.0322
     8.1343  10.2235  10.5091  11.9096  12.1729  12.7957  13.4819  13.8739
    14.5135  14.6571

     highest occupied, lowest unoccupied level (ev):     4.9444    5.8472

!    total energy              =    -591.24402012 Ry
     total all-electron energy =    -13333.877296 Ry
     estimated scf accuracy    <          8.0E-12 Ry

     The total energy is the sum of the following terms:
     one-electron contribution =    -204.92475110 Ry
     hartree contribution      =     110.46684300 Ry
     xc contribution           =     -37.61454638 Ry
     ewald contribution        =     -28.05417881 Ry
     one-center paw contrib.   =    -431.11738682 Ry

     convergence has been achieved in   6 iterations

     negative rho (up, down):  1.436E-08 0.000E+00

     Forces acting on atoms (cartesian axes, Ry/au):

     atom    1 type  1   force =     0.00000000   -0.00036235   -0.00000449
     atom    2 type  2   force =     0.00000000    0.00015308    0.00020998
     atom    3 type  3   force =     0.00000000    0.00020927   -0.00020549
     The non-local contrib.  to forces
     atom    1 type  1   force =     0.00000000   -0.00130843   -0.00064285
     atom    2 type  2   force =     0.00000000   -0.00085829   -0.21331444
     atom    3 type  3   force =     0.00000000   -0.00083513    0.20941695
     The ionic contribution  to forces
     atom    1 type  1   force =    -0.00000001   -0.07162599   -0.34603132
     atom    2 type  2   force =     0.00000000    0.04088528   21.36615883
     atom    3 type  3   force =     0.00000000    0.03074070  -21.02012751
     The local contribution  to forces
     atom    1 type  1   force =     0.00000000    0.07250221    0.34640035
     atom    2 type  2   force =     0.00000003   -0.03976053  -21.16055409
     atom    3 type  3   force =    -0.00000000   -0.02966780   20.81401790
     The core correction contribution to forces
     atom    1 type  1   force =    -0.00000000    0.00003783    0.00035639
     atom    2 type  2   force =    -0.00000000   -0.00014554    0.00800067
     atom    3 type  3   force =    -0.00000000   -0.00006051   -0.00343942
     The Hubbard contrib.    to forces
     atom    1 type  1   force =     0.00000000    0.00000000    0.00000000
     atom    2 type  2   force =     0.00000000    0.00000000    0.00000000
     atom    3 type  3   force =     0.00000000    0.00000000    0.00000000
     The SCF correction term to forces
     atom    1 type  1   force =    -0.00000000   -0.00000005   -0.00000943
     atom    2 type  2   force =     0.00000000    0.00000008   -0.00000337
     atom    3 type  3   force =     0.00000000   -0.00000006    0.00000422

     Total force =     0.000534     Total SCF correction =     0.000011
     Energy error            =      1.0E-06 Ry
     Gradient error          =      3.6E-04 Ry/Bohr

     number of scf cycles    =   6
     number of bfgs steps    =   5

     energy             old  =    -591.2440191093 Ry
     energy             new  =    -591.2440201194 Ry

     CASE: energy            _new < energy            _old

     new trust radius        =       0.0013594858 bohr
     new conv_thr            =            1.0E-10 Ry


ATOMIC_POSITIONS (angstrom)
Zr            0.0000000000        0.0111014505       10.2764865946
Cl           -0.0000000017        2.0085043841       11.9733070490
Br           -0.0000000017        2.0092510100        8.4133551308



     Writing config-only to output data dir ./tmp/ZrClBr.save/
     NEW-OLD atomic charge density approx. for the potential

     Check: negative core charge=   -0.000004

     negative rho (up, down):  1.437E-08 0.000E+00

     total cpu time spent up to now is       73.6 secs

     Self-consistent Calculation

     iteration #  1     ecut=    65.00 Ry     beta= 0.70
     Davidson diagonalization with overlap
     ethr =  1.00E-06,  avg # of iterations =  2.0

     Threshold (ethr) on eigenvalues was too large:
     Diagonalizing with lowered threshold

     Davidson diagonalization with overlap
     ethr =  1.12E-09,  avg # of iterations =  3.9

     negative rho (up, down):  1.435E-08 0.000E+00

     total cpu time spent up to now is       77.0 secs

     total energy              =    -591.24402049 Ry
     estimated scf accuracy    <       0.00000033 Ry

     iteration #  2     ecut=    65.00 Ry     beta= 0.70
     Davidson diagonalization with overlap
     ethr =  1.25E-09,  avg # of iterations =  2.0

     negative rho (up, down):  1.444E-08 0.000E+00

     total cpu time spent up to now is       78.5 secs

     total energy              =    -591.24402045 Ry
     estimated scf accuracy    <       0.00000124 Ry

     iteration #  3     ecut=    65.00 Ry     beta= 0.70
     Davidson diagonalization with overlap
     ethr =  1.25E-09,  avg # of iterations =  2.0

     negative rho (up, down):  1.444E-08 0.000E+00

     total cpu time spent up to now is       80.0 secs

     total energy              =    -591.24402067 Ry
     estimated scf accuracy    <          6.3E-09 Ry

     iteration #  4     ecut=    65.00 Ry     beta= 0.70
     Davidson diagonalization with overlap
     ethr =  2.43E-11,  avg # of iterations =  2.0

     negative rho (up, down):  1.445E-08 0.000E+00

     total cpu time spent up to now is       81.5 secs

     total energy              =    -591.24402067 Ry
     estimated scf accuracy    <          3.6E-09 Ry

     iteration #  5     ecut=    65.00 Ry     beta= 0.70
     Davidson diagonalization with overlap
     ethr =  1.40E-11,  avg # of iterations =  1.3

     negative rho (up, down):  1.445E-08 0.000E+00

     total cpu time spent up to now is       82.8 secs

     total energy              =    -591.24402067 Ry
     estimated scf accuracy    <          2.6E-10 Ry

     iteration #  6     ecut=    65.00 Ry     beta= 0.70
     Davidson diagonalization with overlap
     ethr =  1.00E-12,  avg # of iterations =  2.0

     negative rho (up, down):  1.445E-08 0.000E+00

     total cpu time spent up to now is       84.3 secs

     End of self-consistent calculation

          k = 0.0000 0.0000 0.0000 (  6283 PWs)   bands (ev):

   -44.6889 -22.9343 -22.5248 -22.5111 -12.5876 -12.0287  -1.9502   0.0916
     0.4154   0.4640   1.6090   1.6716   4.3628   6.0959   6.2037   6.8656
     6.9061   7.0418   8.5656   9.7070  11.5085  13.7985  13.9441  14.1147
    14.8836  15.4007

          k = 0.0000 0.0729 0.0000 (  6265 PWs)   bands (ev):

   -44.6875 -22.9300 -22.5284 -22.5277 -12.5603 -12.0161  -1.9035   0.0423
     0.3868   0.4011   1.5014   1.5711   4.3735   6.1267   6.1329   6.8652
     6.9261   7.2233   8.7027   9.9468  11.5796  13.4188  13.9304  14.5436
    14.9108  15.0884

          k = 0.0000 0.1458 0.0000 (  6275 PWs)   bands (ev):

   -44.6833 -22.9178 -22.5749 -22.5387 -12.4831 -11.9787  -1.7722  -0.1468
     0.2186   0.3556   1.0806   1.4721   4.3790   5.9867   6.2522   6.8190
     7.0864   7.6554   9.0844  10.5062  11.7951  12.8408  14.2753  14.3064
    14.7680  15.1584

          k = 0.0000 0.2187 0.0000 (  6263 PWs)   bands (ev):

   -44.6771 -22.8995 -22.6444 -22.5540 -12.3700 -11.9168  -1.5837  -0.4982
     0.0038   0.2762   0.6164   1.3451   4.3177   5.9616   6.4703   6.8496
     7.2960   8.1481   9.6100  11.0627  12.0547  12.4511  13.7870  14.5809
    14.8526  15.4369

          k = 0.0000 0.2916 0.0000 (  6245 PWs)   bands (ev):

   -44.6698 -22.8778 -22.7251 -22.5720 -12.2431 -11.8313  -1.3932  -0.9043
    -0.3788   0.1690   0.3479   1.2199   4.1812   6.1482   6.7945   6.9530
     7.5016   8.6096  10.0332  11.4038  12.0092  12.3316  14.0156  14.3142
    15.3216  15.3421

          k = 0.0000 0.3645 0.0000 (  6224 PWs)   bands (ev):

   -44.6625 -22.8561 -22.8042 -22.5898 -12.1272 -11.7274  -1.4450  -1.0902
    -0.8224   0.0520   0.2489   1.1135   4.0446   6.5037   7.0871   7.2070
     7.6684   9.0224  10.1496  11.4405  11.9450  12.3128  14.0131  14.5686
    14.9941  15.1815

          k = 0.0000 0.4374 0.0000 (  6218 PWs)   bands (ev):

   -44.6562 -22.8708 -22.8370 -22.6049 -12.0397 -11.6219  -1.7578  -1.2406
    -0.9426  -0.0514   0.2118   1.0331   3.9655   6.9056   7.2356   7.6450
     7.7893   9.3619  10.0911  11.2735  11.9702  12.3002  13.5163  14.5335
    14.5809  14.8825

          k = 0.0000 0.5103 0.0000 (  6216 PWs)   bands (ev):

   -44.6521 -22.9143 -22.8247 -22.6150 -11.9866 -11.5422  -1.9879  -1.4671
    -0.8768  -0.1216   0.2001   0.9830   3.9420   7.1248   7.4731   7.8327
     8.0343   9.5751  10.0444  11.1409  11.9442  12.2969  12.9651  14.0593
    14.3595  14.6023

          k = 0.0000-0.5832 0.0000 (  6246 PWs)   bands (ev):

   -44.6506 -22.9295 -22.8204 -22.6185 -11.9689 -11.5125  -2.0702  -1.5460
    -0.8536  -0.1463   0.1978   0.9659   3.9404   7.1670   7.6158   7.8555
     8.1805   9.6323  10.0550  11.1000  11.8560  12.3388  12.7703  13.8531
    14.2280  14.4740

          k = 0.0625 0.0364 0.0000 (  6281 PWs)   bands (ev):

   -44.6875 -22.9302 -22.5391 -22.5164 -12.5609 -12.0167  -1.9042   0.0375
     0.3527   0.4420   1.4545   1.6236   4.3705   6.0428   6.2235   6.8391
     6.9575   7.2218   8.6972   9.9404  11.5781  13.3673  14.0353  14.5035
    14.8809  15.0146

          k = 0.0625 0.1093 0.0000 (  6270 PWs)   bands (ev):

   -44.6847 -22.9219 -22.5637 -22.5306 -12.5086 -11.9917  -1.8151  -0.0801
     0.2482   0.3928   1.1920   1.5231   4.3793   5.9862   6.2508   6.8171
     7.0485   7.5271   8.9572  10.3389  11.7245  12.9799  14.1609  14.4550
    14.8228  15.0377

          k = 0.0625 0.1822 0.0000 (  6274 PWs)   bands (ev):

   -44.6796 -22.9066 -22.6180 -22.5475 -12.4134 -11.9420  -1.6539  -0.3499
     0.0784   0.3108   0.7714   1.3878   4.3576   5.9023   6.4235   6.8318
     7.2206   7.9828   9.4192  10.8875  12.0220  12.5494  13.8450  14.4063
    14.8960  15.3762

          k = 0.0625 0.2551 0.0000 (  6250 PWs)   bands (ev):

   -44.6728 -22.8866 -22.6904 -22.5667 -12.2933 -11.8681  -1.4570  -0.7297
    -0.1826   0.1372   0.4648   1.2384   4.2671   5.9629   6.7216   6.9234
     7.4151   8.4538   9.9146  11.3093  12.1580  12.4037  13.6492  14.3150
    15.1596  15.3601

          k = 0.0625 0.3280 0.0000 (  6226 PWs)   bands (ev):

   -44.6655 -22.8648 -22.7680 -22.5870 -12.1726 -11.7722  -1.3299  -1.0683
    -0.6126  -0.0080   0.3376   1.0953   4.1427   6.2152   7.0332   7.1495
     7.5868   8.8976  10.1688  11.5116  12.0629  12.3515  14.0256  14.2832
    14.9515  15.2450

          k = 0.0625 0.4009 0.0000 (  6218 PWs)   bands (ev):

   -44.6587 -22.8459 -22.8375 -22.6054 -12.0725 -11.6651  -1.5822  -1.0998
    -0.9565  -0.0994   0.2637   0.9744   4.0527   6.6069   7.1817   7.5737
     7.7176   9.3026  10.1512  11.4533  12.0300  12.3460  13.7898  14.3626
    14.6919  15.0557

          k = 0.0625 0.4738 0.0000 (  6225 PWs)   bands (ev):

   -44.6535 -22.8924 -22.8288 -22.6195 -12.0038 -11.5698  -1.8581  -1.3635
    -0.8994  -0.1606   0.2199   0.8877   4.0201   7.0237   7.3211   7.7658
     7.9537   9.6323  10.0710  11.3226  12.0315  12.3130  13.1743  13.9772
    14.5770  14.8783

          k = 0.0625 0.5467 0.0000 (  6224 PWs)   bands (ev):

   -44.6507 -22.9210 -22.8205 -22.6270 -11.9692 -11.5136  -2.0122  -1.5191
    -0.8526  -0.1927   0.2004   0.8426   4.0201   7.2157   7.5475   7.7989
     8.0971   9.7293  10.1559  11.2516  11.9593  12.3314  12.7503  13.6785
    14.4651  14.5639

          k = 0.1250 0.0729 0.0000 (  6272 PWs)   bands (ev):

   -44.6836 -22.9183 -22.5841 -22.5271 -12.4852 -11.9810  -1.7749  -0.1632
     0.2016   0.3961   1.0454   1.5272   4.3667   5.9317   6.3301   6.8073
     7.1121   7.6518   9.0667  10.4907  11.7878  12.8141  14.2200  14.3987
    14.7483  15.1059

          k = 0.1250 0.1458 0.0000 (  6271 PWs)   bands (ev):

   -44.6798 -22.9069 -22.6223 -22.5414 -12.4149 -11.9438  -1.6557  -0.3614
     0.0734   0.3305   0.7564   1.4200   4.3466   5.8905   6.4520   6.8244
     7.2356   7.9809   9.4086  10.8803  12.0144  12.5366  13.8241  14.4101
    14.9211  15.3559

          k = 0.1250 0.2187 0.0000 (  6243 PWs)   bands (ev):

   -44.6740 -22.8900 -22.6787 -22.5630 -12.3127 -11.8820  -1.4820  -0.6566
    -0.1135   0.1129   0.5152   1.2484   4.3047   5.8647   6.7383   6.9182
     7.3861   8.4064   9.8617  11.2686  12.2988  12.4495  13.3806  14.2316
    15.1243  15.2504

          k = 0.1250 0.2916 0.0000 (  6231 PWs)   bands (ev):

   -44.6672 -22.8699 -22.7441 -22.5885 -12.1992 -11.7966  -1.2992  -0.9925
    -0.4343  -0.1297   0.4004   1.0452   4.2446   5.9678   7.0472   7.1718
     7.5323   8.8580  10.1994  11.5345  12.2808  12.6063  13.4411  14.0467
    14.8670  15.1524

          k = 0.1250 0.3645 0.0000 (  6222 PWs)   bands (ev):

   -44.6605 -22.8498 -22.8083 -22.6139 -12.0962 -11.6941  -1.3888  -1.0724
    -0.8457  -0.2380   0.3146   0.8423   4.1982   6.2372   7.2129   7.5724
     7.7023   9.3157  10.2546  11.6644  12.2906  12.4812  13.8287  14.0248
    14.3032  15.0597

          k = 0.1250 0.4374 0.0000 (  6229 PWs)   bands (ev):

   -44.6547 -22.8627 -22.8322 -22.6353 -12.0181 -11.5922  -1.6639  -1.2218
    -0.9252  -0.2902   0.2444   0.6695   4.1931   6.6410   7.3338   7.7083
     8.0094   9.7877  10.1456  11.6587  12.2184  12.3944  13.2930  13.9139
    14.6467  14.9735

          k = 0.1250 0.5103 0.0000 (  6231 PWs)   bands (ev):

   -44.6509 -22.8981 -22.8209 -22.6496 -11.9702 -11.5164  -1.8543  -1.4444
    -0.8532  -0.3109   0.1977   0.5538   4.2171   7.0846   7.4238   7.7572
     8.0933   9.9357  10.3450  11.6344  12.1404  12.3230  12.7746  13.6581
    14.5830  14.8710

          k = 0.1250 0.5832 0.0000 (  6220 PWs)   bands (ev):

   -44.6495 -22.9105 -22.8168 -22.6546 -11.9540 -11.4885  -1.9218  -1.5215
    -0.8296  -0.3155   0.1812   0.5131   4.2320   7.2831   7.5408   7.7620
     8.0010   9.8599  10.6281  11.6332  12.0841  12.3846  12.4319  13.5658
    14.5359  14.7177

          k = 0.1250 0.0000 0.0000 (  6265 PWs)   bands (ev):

   -44.6849 -22.9222 -22.5705 -22.5221 -12.5102 -11.9934  -1.8171  -0.0898
     0.2375   0.4183   1.1701   1.5578   4.3727   5.9352   6.3173   6.8191
     7.0589   7.5245   8.9430  10.3259  11.7215  12.9559  14.2537  14.4143
    14.7708  15.0174

          k = 0.1875 0.1093 0.0000 (  6262 PWs)   bands (ev):

   -44.6777 -22.9004 -22.6518 -22.5417 -12.3744 -11.9219  -1.5887  -0.5171
    -0.0110   0.3212   0.5955   1.4064   4.2933   5.9332   6.5368   6.8488
     7.3174   8.1445   9.5831  11.0475  12.0406  12.4296  13.7520  14.5491
    14.9355  15.3721

          k = 0.1875 0.1822 0.0000 (  6256 PWs)   bands (ev):

   -44.6733 -22.8874 -22.6957 -22.5572 -12.2971 -11.8728  -1.4608  -0.7459
    -0.1981   0.1646   0.4638   1.2905   4.2429   5.9607   6.7550   6.9186
     7.4346   8.4520   9.8980  11.2998  12.1481  12.3818  13.6254  14.2833
    15.1863  15.3434

          k = 0.1875 0.2551 0.0000 (  6241 PWs)   bands (ev):

   -44.6675 -22.8704 -22.7466 -22.5834 -12.2014 -11.7996  -1.3010  -1.0013
    -0.4453  -0.1151   0.4053   1.0721   4.2307   5.9719   7.0484   7.1813
     7.5406   8.8580  10.1935  11.5286  12.2725  12.6156  13.4188  14.0223
    14.8760  15.1382

          k = 0.1875 0.3280 0.0000 (  6218 PWs)   bands (ev):

   -44.6613 -22.8519 -22.7965 -22.6162 -12.1064 -11.7064  -1.2882  -1.1008
    -0.7633  -0.3091   0.3190   0.7997   4.2653   6.0794   7.2324   7.5631
     7.7284   9.3240  10.3114  11.7271  12.5283  12.6832  13.5312  13.8873
    13.9534  15.0795

          k = 0.1875 0.4009 0.0000 (  6228 PWs)   bands (ev):

   -44.6555 -22.8406 -22.8334 -22.6494 -12.0273 -11.6062  -1.4987  -1.0949
    -0.9606  -0.4026   0.2086   0.5379   4.3410   6.3315   7.3258   7.7448
     8.0744   9.8528  10.2664  11.8766  12.4674  12.5820  13.3376  13.7649
    14.3275  14.9126

          k = 0.1875 0.4738 0.0000 (  6226 PWs)   bands (ev):

   -44.6511 -22.8703 -22.8214 -22.6763 -11.9719 -11.5204  -1.6582  -1.3479
    -0.8631  -0.4392   0.1055   0.3380   4.4359   6.7095   7.3371   7.9049
     8.1568  10.1472  10.4830  11.9493  12.0837  12.5274  13.0983  13.8675
    14.5973  14.8542

          k = 0.1875 0.5467 0.0000 (  6227 PWs)   bands (ev):

   -44.6487 -22.8864 -22.8143 -22.6913 -11.9435 -11.4709  -1.7421  -1.4856
    -0.8154  -0.4476   0.0441   0.2299   4.5047   7.0944   7.3474   7.9497
     8.0036  10.0354  11.0760  11.8434  12.1122  12.4962  12.6922  13.7538
    14.6140  14.8099

          k = 0.1875-0.0364 0.0000 (  6260 PWs)   bands (ev):

   -44.6800 -22.9074 -22.6247 -22.5364 -12.4173 -11.9465  -1.6585  -0.3637
     0.0732   0.3400   0.7586   1.4297   4.3425   5.8637   6.4926   6.8502
     7.2248   7.9793   9.3908  10.8701  12.0144  12.5420  13.8167  14.4580
    14.8902  15.3436

          k = 0.2500 0.1458 0.0000 (  6239 PWs)   bands (ev):

   -44.6706 -22.8793 -22.7305 -22.5586 -12.2500 -11.8403  -1.3998  -0.9198
    -0.3948   0.2201   0.3371   1.2876   4.1499   6.1369   6.8456   6.9603
     7.5214   8.6075  10.0089  11.3895  12.0007  12.3115  13.9805  14.2630
    15.2395  15.4221

          k = 0.2500 0.2187 0.0000 (  6230 PWs)   bands (ev):

   -44.6663 -22.8662 -22.7728 -22.5749 -12.1788 -11.7809  -1.3372  -1.0821
    -0.6284   0.0241   0.3452   1.1603   4.1111   6.2176   7.0416   7.1749
     7.6058   8.8980  10.1526  11.4962  12.0645  12.3381  13.9741  14.2281
    14.9303  15.2396

          k = 0.2500 0.2916 0.0000 (  6223 PWs)   bands (ev):

   -44.6611 -22.8509 -22.8117 -22.6049 -12.1010 -11.7010  -1.3994  -1.0772
    -0.8560  -0.2149   0.3218   0.8875   4.1749   6.2413   7.2213   7.5849
     7.7140   9.3182  10.2423  11.6545  12.3107  12.4813  13.7857  14.0389
    14.2562  15.0117

          k = 0.2500 0.3645 0.0000 (  6228 PWs)   bands (ev):

   -44.6559 -22.8421 -22.8342 -22.6447 -12.0298 -11.6101  -1.5050  -1.0968
    -0.9629  -0.3909   0.2145   0.5558   4.3300   6.3315   7.3331   7.7481
     8.0811   9.8535  10.2586  11.8733  12.4740  12.6060  13.3790  13.7100
    14.2880  14.8753

          k = 0.2500 0.4374 0.0000 (  6223 PWs)   bands (ev):

   -44.6515 -22.8573 -22.8219 -22.6869 -11.9743 -11.5247  -1.5609  -1.2964
    -0.8741  -0.4916   0.0010   0.3122   4.5356   6.5305   7.2952   7.9978
     8.1899  10.2335  10.5328  11.9075  12.1405  12.7757  13.4125  13.8858
    14.5153  14.6561

          k = 0.2500 0.5103 0.0000 (  6234 PWs)   bands (ev):

   -44.6485 -22.8616 -22.8132 -22.7215 -11.9391 -11.4636  -1.5745  -1.4284
    -0.8126  -0.5554  -0.2129   0.1899   4.7211   6.8224   7.2346   7.9713
     8.2046  10.2310  11.1113  11.7081  12.3169  12.8502  13.2580  13.9869
    14.5005  14.7323

          k = 0.2500 0.5832 0.0000 (  6222 PWs)   bands (ev):

   -44.6475 -22.8612 -22.8102 -22.7356 -11.9271 -11.4415  -1.5817  -1.4623
    -0.7936  -0.5869  -0.2888   0.1496   4.7977   7.0280   7.2153   7.7533
     8.2801  10.2165  11.1866  12.0299  12.4385  12.8436  12.9200  13.8488
    14.7031  14.7743

          k = 0.2500-0.0729 0.0000 (  6244 PWs)   bands (ev):

   -44.6736 -22.8880 -22.6951 -22.5547 -12.2999 -11.8762  -1.4638  -0.7393
    -0.1922   0.1712   0.4650   1.2850   4.2462   5.9457   6.7731   6.9506
     7.4180   8.4506   9.8832  11.2966  12.1585  12.3932  13.6371  14.3081
    15.1714  15.3347

          k = 0.2500 0.0000 0.0000 (  6245 PWs)   bands (ev):

   -44.6746 -22.8910 -22.6805 -22.5556 -12.3178 -11.8881  -1.4877  -0.6546
    -0.1122   0.1296   0.5207   1.2603   4.2994   5.8451   6.7762   6.9642
     7.3664   8.4037   9.8331  11.2591  12.3166  12.4561  13.3827  14.2542
    15.1118  15.2269

          k = 0.3125 0.1822 0.0000 (  6225 PWs)   bands (ev):

   -44.6636 -22.8581 -22.8079 -22.5753 -12.1366 -11.7407  -1.4547  -1.0988
    -0.8313   0.1095   0.2373   1.1866   4.0115   6.5013   7.1007   7.2383
     7.6890   9.0239  10.1257  11.4321  11.9473  12.2965  13.9416  14.5116
    14.9142  15.2706

          k = 0.3125 0.2551 0.0000 (  6225 PWs)   bands (ev):

   -44.6598 -22.8480 -22.8410 -22.5915 -12.0812 -11.6780  -1.5952  -1.1042
    -0.9656  -0.0590   0.2672   1.0472   4.0184   6.6068   7.1955   7.5976
     7.7348   9.3081  10.1248  11.4548  12.0345  12.3337  13.7235  14.3596
    14.6699  15.0116

          k = 0.3125 0.3280 0.0000 (  6230 PWs)   bands (ev):

   -44.6556 -22.8657 -22.8339 -22.6237 -12.0254 -11.6033  -1.6763  -1.2236
    -0.9300  -0.2584   0.2471   0.7252   4.1659   6.6377   7.3526   7.7179
     8.0260   9.7951  10.1183  11.6700  12.2312  12.3923  13.3060  13.8770
    14.5989  14.9111

          k = 0.3125 0.4009 0.0000 (  6217 PWs)   bands (ev):

   -44.6518 -22.8726 -22.8225 -22.6681 -11.9771 -11.5284  -1.6668  -1.3460
    -0.8655  -0.4176   0.1181   0.3582   4.4201   6.7008   7.3470   7.9187
     8.1684  10.1176  10.4946  11.9578  12.1042  12.5541  13.0985  13.8387
    14.5530  14.8149

          k = 0.3125 0.4738 0.0000 (  6228 PWs)   bands (ev):

   -44.6488 -22.8628 -22.8138 -22.7174 -11.9417 -11.4677  -1.5765  -1.4266
    -0.8138  -0.5453  -0.1998   0.1882   4.7167   6.8132   7.2366   7.9762
     8.2167  10.2113  11.1271  11.7162  12.3186  12.8722  13.2276  14.0154
    14.4858  14.7249

          k = 0.3125 0.5467 0.0000 (  6219 PWs)   bands (ev):

   -44.6472 -22.8432 -22.8091 -22.7585 -11.9231 -11.4338  -1.5450  -1.3556
    -0.7909  -0.7140  -0.3958   0.1250   4.9375   6.9487   7.1567   7.6818
     8.4101  10.3499  10.9716  12.3430  12.5262  13.0902  13.2606  13.5705
    14.6404  14.8301

          k = 0.3125-0.1093 0.0000 (  6238 PWs)   bands (ev):

   -44.6666 -22.8668 -22.7708 -22.5740 -12.1816 -11.7845  -1.3357  -1.0754
    -0.6169   0.0319   0.3375   1.1474   4.1206   6.2130   7.0629   7.1745
     7.5953   8.8956  10.1457  11.5024  12.0696  12.3452  13.9965  14.2615
    14.8912  15.2396

          k = 0.3125-0.0364 0.0000 (  6235 PWs)   bands (ev):

   -44.6682 -22.8715 -22.7445 -22.5796 -12.2068 -11.8067  -1.3056  -0.9868
    -0.4283  -0.1055   0.4027   1.0613   4.2398   5.9614   7.0949   7.1907
     7.5175   8.8535  10.1757  11.5308  12.3004  12.6278  13.4463  14.0570
    14.8085  15.1205

          k = 0.3750 0.2187 0.0000 (  6223 PWs)   bands (ev):

   -44.6577 -22.8730 -22.8396 -22.5894 -12.0512 -11.6392  -1.7675  -1.2383
    -0.9499   0.0118   0.1963   1.1106   3.9314   6.9128   7.2524   7.6546
     7.8101   9.3674  10.0525  11.2929  11.9591  12.2818  13.4458  14.4627
    14.6797  14.8213

          k = 0.3750 0.2916 0.0000 (  6226 PWs)   bands (ev):

   -44.6549 -22.8947 -22.8313 -22.6044 -12.0148 -11.5866  -1.8700  -1.3602
    -0.9046  -0.1097   0.2137   0.9636   3.9853   7.0261   7.3356   7.7855
     7.9666   9.6396  10.0297  11.3554  12.0150  12.2866  13.1278  14.0291
    14.5283  14.8362

          k = 0.3750 0.3645 0.0000 (  6223 PWs)   bands (ev):

   -44.6521 -22.9002 -22.8230 -22.6366 -11.9798 -11.5312  -1.8646  -1.4383
    -0.8566  -0.2695   0.1913   0.6124   4.1903   7.0757   7.4386   7.7769
     8.1083   9.9049  10.3440  11.6802  12.1361  12.3021  12.7591  13.6641
    14.5357  14.8515

          k = 0.3750 0.4374 0.0000 (  6228 PWs)   bands (ev):

   -44.6497 -22.8879 -22.8160 -22.6815 -11.9509 -11.4825  -1.7475  -1.4766
    -0.8176  -0.4187   0.0638   0.2386   4.4910   7.0787   7.3485   7.9631
     8.0300   9.9988  11.0867  11.8704  12.1576  12.4883  12.6511  13.7654
    14.5756  14.8161

          k = 0.3750 0.5103 0.0000 (  6225 PWs)   bands (ev):

   -44.6481 -22.8617 -22.8113 -22.7297 -11.9320 -11.4492  -1.5765  -1.4551
    -0.7954  -0.5731  -0.2713   0.1405   4.7980   7.0152   7.2130   7.7463
     8.3072  10.1858  11.2202  12.0121  12.4517  12.8524  12.9044  13.9143
    14.6848  14.7818

          k = 0.3750 0.5832 0.0000 (  6232 PWs)   bands (ev):

   -44.6475 -22.8422 -22.8096 -22.7570 -11.9253 -11.4374  -1.5382  -1.3461
    -0.7932  -0.7133  -0.3922   0.1191   4.9438   6.9471   7.1559   7.6631
     8.4246  10.3351  10.9885  12.2891  12.5409  13.1136  13.2974  13.5893
    14.5945  14.8577

          k = 0.3750-0.1458 0.0000 (  6211 PWs)   bands (ev):

   -44.6601 -22.8480 -22.8391 -22.5914 -12.0835 -11.6813  -1.5855  -1.0989
    -0.9611  -0.0499   0.2556   1.0332   4.0297   6.6148   7.2092   7.5734
     7.7331   9.3045  10.1221  11.4634  12.0356  12.3363  13.7336  14.3224
    14.6718  15.0622

          k = 0.3750-0.0729 0.0000 (  6231 PWs)   bands (ev):

   -44.6617 -22.8520 -22.8078 -22.6036 -12.1059 -11.7081  -1.3818  -1.0780
    -0.8342  -0.2076   0.3120   0.8659   4.1930   6.2403   7.2537   7.5687
     7.6976   9.3107  10.2372  11.6707  12.3190  12.4897  13.8201  13.9942
    14.3083  15.0148

          k = 0.3750 0.0000 0.0000 (  6227 PWs)   bands (ev):

   -44.6622 -22.8536 -22.7933 -22.6111 -12.1139 -11.7172  -1.2695  -1.1056
    -0.7389  -0.2963   0.3133   0.7901   4.2778   6.0757   7.2794   7.5480
     7.7137   9.3150  10.3013  11.7382  12.5527  12.7178  13.5466  13.8765
    13.9473  15.0604

          k = 0.4375 0.2551 0.0000 (  6218 PWs)   bands (ev):

   -44.6537 -22.9155 -22.8276 -22.5988 -11.9997 -11.5622  -1.9970  -1.4585
    -0.8815  -0.0546   0.1814   1.0632   3.9064   7.1468   7.4888   7.8579
     8.0191   9.5656  10.0038  11.1844  11.9167  12.2533  12.9135  14.1750
    14.3172  14.5526

          k = 0.4375 0.3280 0.0000 (  6223 PWs)   bands (ev):

   -44.6522 -22.9223 -22.8233 -22.6114 -11.9818 -11.5329  -2.0215  -1.5095
    -0.8563  -0.1334   0.1855   0.9179   3.9864   7.2383   7.5521   7.8218
     8.0916   9.7011  10.1348  11.3051  11.9262  12.2792  12.7226  13.7404
    14.4372  14.5496

          k = 0.4375 0.4009 0.0000 (  6216 PWs)   bands (ev):

   -44.6509 -22.9114 -22.8193 -22.6413 -11.9652 -11.5057  -1.9273  -1.5092
    -0.8326  -0.2678   0.1673   0.5679   4.2094   7.2927   7.5394   7.7949
     7.9945   9.8167  10.6232  11.7007  12.0707  12.3479  12.4229  13.5738
    14.4932  14.7388

          k = 0.4375 0.4738 0.0000 (  6222 PWs)   bands (ev):

   -44.6499 -22.8861 -22.8163 -22.6816 -11.9524 -11.4849  -1.7393  -1.4698
    -0.8182  -0.4165   0.0616   0.2288   4.4986   7.0922   7.3498   7.9279
     8.0389   9.9969  11.0652  11.8641  12.1847  12.4724  12.6868  13.7547
    14.5807  14.8330

          k = 0.4375 0.5467 0.0000 (  6216 PWs)   bands (ev):

   -44.6493 -22.8594 -22.8146 -22.7168 -11.9455 -11.4737  -1.5595  -1.4099
    -0.8156  -0.5418  -0.2061   0.1758   4.7315   6.8193   7.2355   7.9257
     8.2416  10.2042  11.1154  11.6848  12.3588  12.8686  13.3019  13.9925
    14.4867  14.7258

          k = 0.4375-0.1822 0.0000 (  6223 PWs)   bands (ev):

   -44.6550 -22.8930 -22.8317 -22.6045 -12.0163 -11.5889  -1.8624  -1.3535
    -0.9051  -0.1020   0.2037   0.9533   3.9940   7.0401   7.3474   7.7895
     7.9298   9.6286  10.0296  11.3602  12.0212  12.2890  13.1327  13.9905
    14.5412  14.8817

          k = 0.4375-0.1093 0.0000 (  6227 PWs)   bands (ev):

   -44.6561 -22.8618 -22.8347 -22.6236 -12.0292 -11.6090  -1.6584  -1.2071
    -0.9308  -0.2509   0.2358   0.7034   4.1841   6.6499   7.3592   7.7332
     7.9760   9.7831  10.1147  11.6900  12.2328  12.3908  13.3028  13.8765
    14.6181  14.9623

          k = 0.4375-0.0364 0.0000 (  6215 PWs)   bands (ev):

   -44.6566 -22.8389 -22.8338 -22.6428 -12.0362 -11.6198  -1.4791  -1.0719
    -0.9653  -0.3822   0.2036   0.5337   4.3517   6.3323   7.3444   7.7688
     8.0323   9.8387  10.2547  11.9021  12.4644  12.6185  13.3771  13.7516
    14.3278  14.8789

          k =-0.5000-0.2916 0.0000 (  6224 PWs)   bands (ev):

   -44.6523 -22.9304 -22.8234 -22.6021 -11.9825 -11.5335  -2.0789  -1.5352
    -0.8573  -0.0781   0.1780   1.0470   3.9041   7.1930   7.6354   7.8823
     8.1543   9.5998  10.0280  11.1525  11.8199  12.2800  12.7273  13.9789
    14.2035  14.4282

          k =-0.5000-0.2187 0.0000 (  6219 PWs)   bands (ev):

   -44.6523 -22.9216 -22.8234 -22.6115 -11.9823 -11.5338  -2.0187  -1.5072
    -0.8565  -0.1304   0.1816   0.9141   3.9897   7.2396   7.5705   7.8238
     8.0677   9.6893  10.1378  11.3064  11.9339  12.2807  12.7234  13.7260
    14.4418  14.5653

          k =-0.5000-0.1458 0.0000 (  6219 PWs)   bands (ev):

   -44.6523 -22.8978 -22.8235 -22.6368 -11.9818 -11.5345  -1.8538  -1.4290
    -0.8574  -0.2641   0.1838   0.5991   4.2014   7.0955   7.4404   7.7947
     8.0555   9.8940  10.3320  11.6932  12.1481  12.2967  12.7736  13.6479
    14.5436  14.8870

          k =-0.5000-0.0729 0.0000 (  6219 PWs)   bands (ev):

   -44.6523 -22.8682 -22.8235 -22.6679 -11.9814 -11.5352  -1.6455  -1.3268
    -0.8675  -0.4116   0.1094   0.3365   4.4394   6.7120   7.3441   7.9472
     8.1065  10.1158  10.4665  11.9779  12.1148  12.5395  13.1439  13.8348
    14.5716  14.8535

          k =-0.5000 0.0000 0.0000 (  6228 PWs)   bands (ev):

   -44.6523 -22.8529 -22.8235 -22.6839 -11.9812 -11.5355  -1.5363  -1.2714
    -0.8781  -0.4792  -0.0068   0.2950   4.5545   6.5307   7.2967   8.0314
     8.1326  10.2219  10.5082  11.9094  12.1740  12.7948  13.4819  13.8729
    14.5121  14.6559

     highest occupied, lowest unoccupied level (ev):     4.9438    5.8451

!    total energy              =    -591.24402067 Ry
     total all-electron energy =    -13333.877297 Ry
     estimated scf accuracy    <          6.5E-12 Ry

     The total energy is the sum of the following terms:
     one-electron contribution =    -204.81811994 Ry
     hartree contribution      =     110.41319634 Ry
     xc contribution           =     -37.61390137 Ry
     ewald contribution        =     -28.10784608 Ry
     one-center paw contrib.   =    -431.11734963 Ry

     convergence has been achieved in   6 iterations

     negative rho (up, down):  1.445E-08 0.000E+00

     Forces acting on atoms (cartesian axes, Ry/au):

     atom    1 type  1   force =     0.00000000   -0.00015242   -0.00001634
     atom    2 type  2   force =     0.00000000    0.00005842    0.00000579
     atom    3 type  3   force =     0.00000000    0.00009400    0.00001055
     The non-local contrib.  to forces
     atom    1 type  1   force =     0.00000000   -0.00122960   -0.00064049
     atom    2 type  2   force =     0.00000000   -0.00089963   -0.21343287
     atom    3 type  3   force =     0.00000000   -0.00088752    0.20950848
     The ionic contribution  to forces
     atom    1 type  1   force =    -0.00000001   -0.06945343   -0.34678915
     atom    2 type  2   force =     0.00000000    0.03973091   21.36053675
     atom    3 type  3   force =     0.00000000    0.02972251  -21.01374760
     The local contribution  to forces
     atom    1 type  1   force =     0.00000000    0.07046062    0.34714493
     atom    2 type  2   force =     0.00000003   -0.03866278  -21.15503310
     atom    3 type  3   force =    -0.00000000   -0.02871924   20.80777884
     The core correction contribution to forces
     atom    1 type  1   force =    -0.00000000    0.00003928    0.00035624
     atom    2 type  2   force =    -0.00000000   -0.00014114    0.00801581
     atom    3 type  3   force =    -0.00000000   -0.00005292   -0.00345358
     The Hubbard contrib.    to forces
     atom    1 type  1   force =     0.00000000    0.00000000    0.00000000
     atom    2 type  2   force =     0.00000000    0.00000000    0.00000000
     atom    3 type  3   force =     0.00000000    0.00000000    0.00000000
     The SCF correction term to forces
     atom    1 type  1   force =    -0.00000000   -0.00000079   -0.00000900
     atom    2 type  2   force =     0.00000000   -0.00000045   -0.00000191
     atom    3 type  3   force =     0.00000000   -0.00000033    0.00000329

     Total force =     0.000189     Total SCF correction =     0.000010
     Energy error            =      5.5E-07 Ry
     Gradient error          =      1.5E-04 Ry/Bohr

     number of scf cycles    =   7
     number of bfgs steps    =   6

     energy             old  =    -591.2440201194 Ry
     energy             new  =    -591.2440206695 Ry

     CASE: energy            _new < energy            _old

     new trust radius        =       0.0004372953 bohr
     new conv_thr            =            1.0E-10 Ry


ATOMIC_POSITIONS (angstrom)
Zr            0.0000000000        0.0108701154       10.2764808400
Cl           -0.0000000017        2.0086033478       11.9733489579
Br           -0.0000000017        2.0093833815        8.4133189765



     Writing config-only to output data dir ./tmp/ZrClBr.save/
     NEW-OLD atomic charge density approx. for the potential

     Check: negative core charge=   -0.000004

     negative rho (up, down):  1.449E-08 0.000E+00

     total cpu time spent up to now is       84.8 secs

     Self-consistent Calculation

     iteration #  1     ecut=    65.00 Ry     beta= 0.70
     Davidson diagonalization with overlap
     ethr =  1.00E-06,  avg # of iterations =  2.0

     Threshold (ethr) on eigenvalues was too large:
     Diagonalizing with lowered threshold

     Davidson diagonalization with overlap
     ethr =  8.65E-11,  avg # of iterations =  3.9

     negative rho (up, down):  1.449E-08 0.000E+00

     total cpu time spent up to now is       88.1 secs

     total energy              =    -591.24402073 Ry
     estimated scf accuracy    <          7.8E-09 Ry

     iteration #  2     ecut=    65.00 Ry     beta= 0.70
     Davidson diagonalization with overlap
     ethr =  3.01E-11,  avg # of iterations =  2.0

     negative rho (up, down):  1.450E-08 0.000E+00

     total cpu time spent up to now is       89.6 secs

     total energy              =    -591.24402073 Ry
     estimated scf accuracy    <          4.6E-09 Ry

     iteration #  3     ecut=    65.00 Ry     beta= 0.70
     Davidson diagonalization with overlap
     ethr =  1.75E-11,  avg # of iterations =  2.0

     negative rho (up, down):  1.450E-08 0.000E+00

     total cpu time spent up to now is       91.1 secs

     total energy              =    -591.24402073 Ry
     estimated scf accuracy    <          3.6E-09 Ry

     iteration #  4     ecut=    65.00 Ry     beta= 0.70
     Davidson diagonalization with overlap
     ethr =  1.37E-11,  avg # of iterations =  1.0

     negative rho (up, down):  1.450E-08 0.000E+00

     total cpu time spent up to now is       92.4 secs

     End of self-consistent calculation

          k = 0.0000 0.0000 0.0000 (  6283 PWs)   bands (ev):

   -44.6890 -22.9344 -22.5249 -22.5111 -12.5876 -12.0287  -1.9501   0.0916
     0.4154   0.4643   1.6087   1.6720   4.3626   6.0954   6.2039   6.8663
     6.9053   7.0418   8.5657   9.7070  11.5085  13.7989  13.9436  14.1146
    14.8836  15.3997

          k = 0.0000 0.0729 0.0000 (  6265 PWs)   bands (ev):

   -44.6876 -22.9301 -22.5285 -22.5278 -12.5602 -12.0161  -1.9034   0.0424
     0.3870   0.4010   1.5018   1.5709   4.3734   6.1269   6.1325   6.8645
     6.9268   7.2233   8.7027   9.9468  11.5796  13.4185  13.9309  14.5433
    14.9109  15.0890

          k = 0.0000 0.1458 0.0000 (  6275 PWs)   bands (ev):

   -44.6834 -22.9179 -22.5749 -22.5388 -12.4830 -11.9786  -1.7722  -0.1465
     0.2186   0.3555   1.0809   1.4720   4.3790   5.9868   6.2519   6.8184
     7.0870   7.6554   9.0844  10.5061  11.7950  12.8406  14.2761  14.3068
    14.7674  15.1588

          k = 0.0000 0.2187 0.0000 (  6263 PWs)   bands (ev):

   -44.6772 -22.8996 -22.6445 -22.5541 -12.3699 -11.9167  -1.5837  -0.4979
     0.0040   0.2761   0.6165   1.3449   4.3179   5.9615   6.4700   6.8492
     7.2964   8.1480   9.6100  11.0625  12.0544  12.4511  13.7879  14.5803
    14.8529  15.4373

          k = 0.0000 0.2916 0.0000 (  6245 PWs)   bands (ev):

   -44.6699 -22.8779 -22.7251 -22.5721 -12.2430 -11.8312  -1.3933  -0.9041
    -0.3785   0.1688   0.3478   1.2198   4.1814   6.1480   6.7943   6.9525
     7.5019   8.6095  10.0331  11.4038  12.0088  12.3317  14.0162  14.3137
    15.3219  15.3423

          k = 0.0000 0.3645 0.0000 (  6224 PWs)   bands (ev):

   -44.6626 -22.8562 -22.8042 -22.5899 -12.1272 -11.7273  -1.4449  -1.0902
    -0.8223   0.0518   0.2490   1.1134   4.0449   6.5033   7.0866   7.2069
     7.6685   9.0223  10.1495  11.4406  11.9445  12.3127  14.0130  14.5687
    14.9942  15.1816

          k = 0.0000 0.4374 0.0000 (  6218 PWs)   bands (ev):

   -44.6564 -22.8708 -22.8371 -22.6050 -12.0397 -11.6219  -1.7576  -1.2406
    -0.9427  -0.0516   0.2120   1.0331   3.9659   6.9052   7.2350   7.6450
     7.7893   9.3616  10.0911  11.2734  11.9700  12.3001  13.5165  14.5336
    14.5810  14.8827

          k = 0.0000 0.5103 0.0000 (  6216 PWs)   bands (ev):

   -44.6522 -22.9143 -22.8248 -22.6151 -11.9866 -11.5422  -1.9877  -1.4672
    -0.8769  -0.1217   0.2003   0.9829   3.9424   7.1241   7.4727   7.8327
     8.0343   9.5747  10.0446  11.1407  11.9441  12.2969  12.9652  14.0595
    14.3599  14.6024

          k = 0.0000-0.5832 0.0000 (  6246 PWs)   bands (ev):

   -44.6507 -22.9295 -22.8205 -22.6186 -11.9688 -11.5125  -2.0699  -1.5461
    -0.8537  -0.1464   0.1981   0.9658   3.9408   7.1663   7.6155   7.8555
     8.1805   9.6315  10.0554  11.0997  11.8561  12.3388  12.7703  13.8533
    14.2287  14.4740

          k = 0.0625 0.0364 0.0000 (  6281 PWs)   bands (ev):

   -44.6876 -22.9302 -22.5392 -22.5165 -12.5608 -12.0167  -1.9041   0.0375
     0.3528   0.4423   1.4544   1.6239   4.3704   6.0424   6.2237   6.8395
     6.9570   7.2217   8.6972   9.9404  11.5782  13.3674  14.0351  14.5035
    14.8808  15.0142

          k = 0.0625 0.1093 0.0000 (  6270 PWs)   bands (ev):

   -44.6849 -22.9220 -22.5638 -22.5307 -12.5085 -11.9917  -1.8150  -0.0799
     0.2483   0.3928   1.1922   1.5231   4.3792   5.9861   6.2506   6.8168
     7.0488   7.5271   8.9573  10.3389  11.7245  12.9797  14.1612  14.4553
    14.8225  15.0379

          k = 0.0625 0.1822 0.0000 (  6274 PWs)   bands (ev):

   -44.6797 -22.9067 -22.6181 -22.5476 -12.4133 -11.9420  -1.6538  -0.3497
     0.0784   0.3107   0.7716   1.3877   4.3576   5.9022   6.4233   6.8314
     7.2210   7.9827   9.4192  10.8874  12.0219  12.5493  13.8456  14.4064
    14.8956  15.3764

          k = 0.0625 0.2551 0.0000 (  6250 PWs)   bands (ev):

   -44.6729 -22.8867 -22.6905 -22.5669 -12.2933 -11.8680  -1.4570  -0.7295
    -0.1824   0.1370   0.4648   1.2383   4.2673   5.9627   6.7215   6.9229
     7.4154   8.4537   9.9145  11.3092  12.1577  12.4035  13.6500  14.3146
    15.1596  15.3600

          k = 0.0625 0.3280 0.0000 (  6226 PWs)   bands (ev):

   -44.6656 -22.8649 -22.7681 -22.5871 -12.1725 -11.7722  -1.3299  -1.0682
    -0.6124  -0.0081   0.3376   1.0952   4.1430   6.2149   7.0328   7.1493
     7.5869   8.8974  10.1687  11.5116  12.0625  12.3515  14.0257  14.2833
    14.9517  15.2451

          k = 0.0625 0.4009 0.0000 (  6218 PWs)   bands (ev):

   -44.6588 -22.8460 -22.8375 -22.6055 -12.0724 -11.6650  -1.5820  -1.0998
    -0.9566  -0.0996   0.2638   0.9744   4.0530   6.6065   7.1812   7.5736
     7.7176   9.3024  10.1512  11.4534  12.0296  12.3459  13.7899  14.3628
    14.6918  15.0559

          k = 0.0625 0.4738 0.0000 (  6225 PWs)   bands (ev):

   -44.6536 -22.8924 -22.8290 -22.6196 -12.0037 -11.5698  -1.8579  -1.3636
    -0.8995  -0.1607   0.2201   0.8876   4.0205   7.0232   7.3205   7.7658
     7.9537   9.6320  10.0711  11.3224  12.0313  12.3129  13.1745  13.9774
    14.5770  14.8786

          k = 0.0625 0.5467 0.0000 (  6224 PWs)   bands (ev):

   -44.6508 -22.9210 -22.8206 -22.6271 -11.9691 -11.5135  -2.0119  -1.5192
    -0.8527  -0.1928   0.2007   0.8426   4.0204   7.2150   7.5471   7.7988
     8.0971   9.7287  10.1562  11.2514  11.9593  12.3314  12.7504  13.6787
    14.4653  14.5642

          k = 0.1250 0.0729 0.0000 (  6272 PWs)   bands (ev):

   -44.6837 -22.9183 -22.5842 -22.5272 -12.4852 -11.9810  -1.7748  -0.1632
     0.2016   0.3964   1.0453   1.5274   4.3666   5.9315   6.3302   6.8075
     7.1117   7.6518   9.0667  10.4908  11.7879  12.8142  14.2196  14.3986
    14.7484  15.1059

          k = 0.1250 0.1458 0.0000 (  6271 PWs)   bands (ev):

   -44.6799 -22.9070 -22.6224 -22.5415 -12.4148 -11.9438  -1.6556  -0.3613
     0.0735   0.3305   0.7565   1.4201   4.3465   5.8904   6.4519   6.8242
     7.2356   7.9809   9.4086  10.8803  12.0144  12.5365  13.8241  14.4105
    14.9205  15.3561

          k = 0.1250 0.2187 0.0000 (  6243 PWs)   bands (ev):

   -44.6741 -22.8901 -22.6788 -22.5631 -12.3126 -11.8819  -1.4820  -0.6564
    -0.1134   0.1128   0.5153   1.2484   4.3048   5.8645   6.7382   6.9179
     7.3862   8.4063   9.8616  11.2686  12.2987  12.4493  13.3810  14.2319
    15.1240  15.2504

          k = 0.1250 0.2916 0.0000 (  6231 PWs)   bands (ev):

   -44.6674 -22.8700 -22.7441 -22.5886 -12.1991 -11.7966  -1.2992  -0.9924
    -0.4342  -0.1298   0.4004   1.0452   4.2448   5.9676   7.0469   7.1717
     7.5323   8.8579  10.1993  11.5344  12.2807  12.6060  13.4416  14.0467
    14.8671  15.1524

          k = 0.1250 0.3645 0.0000 (  6222 PWs)   bands (ev):

   -44.6606 -22.8499 -22.8084 -22.6140 -12.0961 -11.6940  -1.3887  -1.0724
    -0.8456  -0.2380   0.3146   0.8422   4.1984   6.2369   7.2125   7.5724
     7.7022   9.3156  10.2545  11.6645  12.2903  12.4811  13.8288  14.0250
    14.3033  15.0598

          k = 0.1250 0.4374 0.0000 (  6229 PWs)   bands (ev):

   -44.6548 -22.8627 -22.8323 -22.6354 -12.0180 -11.5921  -1.6637  -1.2218
    -0.9253  -0.2903   0.2446   0.6695   4.1934   6.6407   7.3333   7.7081
     8.0094   9.7875  10.1455  11.6588  12.2181  12.3942  13.2932  13.9140
    14.6467  14.9736

          k = 0.1250 0.5103 0.0000 (  6231 PWs)   bands (ev):

   -44.6510 -22.8981 -22.8210 -22.6497 -11.9701 -11.5164  -1.8540  -1.4445
    -0.8533  -0.3110   0.1979   0.5537   4.2174   7.0842   7.4233   7.7570
     8.0933   9.9353  10.3451  11.6343  12.1402  12.3230  12.7747  13.6581
    14.5831  14.8713

          k = 0.1250 0.5832 0.0000 (  6220 PWs)   bands (ev):

   -44.6496 -22.9105 -22.8169 -22.6547 -11.9540 -11.4884  -1.9216  -1.5215
    -0.8297  -0.3156   0.1814   0.5131   4.2323   7.2826   7.5404   7.7617
     8.0010   9.8595  10.6282  11.6331  12.0841  12.3845  12.4320  13.5657
    14.5360  14.7183

          k = 0.1250 0.0000 0.0000 (  6265 PWs)   bands (ev):

   -44.6850 -22.9223 -22.5706 -22.5222 -12.5101 -11.9934  -1.8170  -0.0899
     0.2376   0.4187   1.1699   1.5581   4.3725   5.9349   6.3174   6.8197
     7.0581   7.5244   8.9430  10.3261  11.7216  12.9561  14.2532  14.4136
    14.7708  15.0174

          k = 0.1875 0.1093 0.0000 (  6262 PWs)   bands (ev):

   -44.6778 -22.9005 -22.6519 -22.5418 -12.3743 -11.9219  -1.5886  -0.5171
    -0.0110   0.3214   0.5955   1.4066   4.2930   5.9330   6.5368   6.8490
     7.3171   8.1445   9.5831  11.0477  12.0407  12.4296  13.7515  14.5494
    14.9353  15.3720

          k = 0.1875 0.1822 0.0000 (  6256 PWs)   bands (ev):

   -44.6734 -22.8875 -22.6958 -22.5573 -12.2970 -11.8728  -1.4607  -0.7459
    -0.1981   0.1648   0.4639   1.2906   4.2428   5.9605   6.7550   6.9186
     7.4344   8.4520   9.8979  11.2999  12.1481  12.3817  13.6251  14.2838
    15.1857  15.3435

          k = 0.1875 0.2551 0.0000 (  6241 PWs)   bands (ev):

   -44.6676 -22.8705 -22.7467 -22.5835 -12.2013 -11.7996  -1.3009  -1.0012
    -0.4453  -0.1149   0.4053   1.0721   4.2307   5.9717   7.0484   7.1813
     7.5403   8.8580  10.1933  11.5285  12.2723  12.6157  13.4187  14.0226
    14.8761  15.1381

          k = 0.1875 0.3280 0.0000 (  6218 PWs)   bands (ev):

   -44.6614 -22.8520 -22.7966 -22.6163 -12.1063 -11.7064  -1.2881  -1.1007
    -0.7633  -0.3090   0.3190   0.7997   4.2654   6.0792   7.2324   7.5629
     7.7282   9.3239  10.3112  11.7271  12.5280  12.6833  13.5312  13.8874
    13.9536  15.0795

          k = 0.1875 0.4009 0.0000 (  6228 PWs)   bands (ev):

   -44.6557 -22.8407 -22.8335 -22.6495 -12.0272 -11.6062  -1.4986  -1.0949
    -0.9607  -0.4025   0.2086   0.5379   4.3412   6.3313   7.3257   7.7444
     8.0744   9.8528  10.2662  11.8765  12.4671  12.5820  13.3376  13.7651
    14.3276  14.9128

          k = 0.1875 0.4738 0.0000 (  6226 PWs)   bands (ev):

   -44.6513 -22.8704 -22.8215 -22.6764 -11.9718 -11.5204  -1.6580  -1.3480
    -0.8632  -0.4392   0.1055   0.3380   4.4361   6.7093   7.3369   7.9044
     8.1568  10.1469  10.4830  11.9493  12.0836  12.5274  13.0982  13.8675
    14.5974  14.8542

          k = 0.1875 0.5467 0.0000 (  6227 PWs)   bands (ev):

   -44.6489 -22.8864 -22.8144 -22.6914 -11.9434 -11.4709  -1.7419  -1.4856
    -0.8154  -0.4477   0.0440   0.2301   4.5049   7.0942   7.3471   7.9495
     8.0032  10.0351  11.0761  11.8434  12.1122  12.4962  12.6921  13.7537
    14.6142  14.8101

          k = 0.1875-0.0364 0.0000 (  6260 PWs)   bands (ev):

   -44.6801 -22.9075 -22.6248 -22.5365 -12.4172 -11.9465  -1.6584  -0.3637
     0.0731   0.3404   0.7585   1.4300   4.3422   5.8635   6.4926   6.8506
     7.2241   7.9793   9.3908  10.8704  12.0145  12.5423  13.8160  14.4574
    14.8908  15.3433

          k = 0.2500 0.1458 0.0000 (  6239 PWs)   bands (ev):

   -44.6708 -22.8793 -22.7306 -22.5586 -12.2499 -11.8403  -1.3997  -0.9197
    -0.3949   0.2204   0.3371   1.2877   4.1496   6.1368   6.8456   6.9604
     7.5212   8.6075  10.0088  11.3896  12.0008  12.3114  13.9802  14.2633
    15.2392  15.4221

          k = 0.2500 0.2187 0.0000 (  6230 PWs)   bands (ev):

   -44.6664 -22.8663 -22.7729 -22.5750 -12.1788 -11.7809  -1.3371  -1.0820
    -0.6284   0.0244   0.3451   1.1604   4.1109   6.2175   7.0417   7.1749
     7.6054   8.8979  10.1524  11.4963  12.0646  12.3379  13.9741  14.2280
    14.9303  15.2393

          k = 0.2500 0.2916 0.0000 (  6223 PWs)   bands (ev):

   -44.6612 -22.8510 -22.8118 -22.6050 -12.1009 -11.7010  -1.3993  -1.0771
    -0.8560  -0.2146   0.3217   0.8875   4.1748   6.2412   7.2217   7.5847
     7.7137   9.3181  10.2421  11.6545  12.3108  12.4811  13.7858  14.0389
    14.2562  15.0117

          k = 0.2500 0.3645 0.0000 (  6228 PWs)   bands (ev):

   -44.6560 -22.8422 -22.8343 -22.6448 -12.0298 -11.6100  -1.5049  -1.0969
    -0.9629  -0.3907   0.2144   0.5557   4.3300   6.3314   7.3334   7.7474
     8.0811   9.8534  10.2584  11.8732  12.4736  12.6062  13.3790  13.7101
    14.2880  14.8754

          k = 0.2500 0.4374 0.0000 (  6223 PWs)   bands (ev):

   -44.6516 -22.8574 -22.8220 -22.6870 -11.9742 -11.5246  -1.5608  -1.2965
    -0.8740  -0.4915   0.0010   0.3121   4.5356   6.5304   7.2952   7.9973
     8.1899  10.2335  10.5325  11.9073  12.1404  12.7760  13.4122  13.8860
    14.5154  14.6562

          k = 0.2500 0.5103 0.0000 (  6234 PWs)   bands (ev):

   -44.6486 -22.8617 -22.8133 -22.7216 -11.9390 -11.4636  -1.5743  -1.4284
    -0.8125  -0.5554  -0.2130   0.1900   4.7212   6.8223   7.2344   7.9712
     8.2042  10.2309  11.1111  11.7081  12.3169  12.8503  13.2579  13.9868
    14.5008  14.7324

          k = 0.2500 0.5832 0.0000 (  6222 PWs)   bands (ev):

   -44.6476 -22.8612 -22.8103 -22.7357 -11.9270 -11.4415  -1.5815  -1.4622
    -0.7936  -0.5870  -0.2889   0.1497   4.7978   7.0279   7.2151   7.7532
     8.2796  10.2163  11.1865  12.0300  12.4385  12.8437  12.9198  13.8487
    14.7032  14.7744

          k = 0.2500-0.0729 0.0000 (  6244 PWs)   bands (ev):

   -44.6737 -22.8881 -22.6953 -22.5548 -12.2998 -11.8762  -1.4637  -0.7393
    -0.1923   0.1715   0.4650   1.2852   4.2459   5.9457   6.7731   6.9508
     7.4176   8.4506   9.8831  11.2969  12.1586  12.3933  13.6366  14.3078
    15.1719  15.3345

          k = 0.2500 0.0000 0.0000 (  6245 PWs)   bands (ev):

   -44.6747 -22.8911 -22.6806 -22.5557 -12.3177 -11.8881  -1.4875  -0.6546
    -0.1124   0.1300   0.5206   1.2606   4.2991   5.8450   6.7762   6.9646
     7.3658   8.4037   9.8331  11.2595  12.3169  12.4563  13.3819  14.2536
    15.1122  15.2269

          k = 0.3125 0.1822 0.0000 (  6225 PWs)   bands (ev):

   -44.6637 -22.8582 -22.8080 -22.5754 -12.1365 -11.7407  -1.4546  -1.0987
    -0.8313   0.1098   0.2372   1.1868   4.0113   6.5013   7.1008   7.2383
     7.6887   9.0240  10.1255  11.4321  11.9475  12.2965  13.9416  14.5115
    14.9140  15.2705

          k = 0.3125 0.2551 0.0000 (  6225 PWs)   bands (ev):

   -44.6599 -22.8481 -22.8411 -22.5916 -12.0812 -11.6780  -1.5951  -1.1042
    -0.9655  -0.0587   0.2670   1.0472   4.0182   6.6067   7.1958   7.5977
     7.7342   9.3080  10.1246  11.4548  12.0346  12.3336  13.7235  14.3596
    14.6698  15.0114

          k = 0.3125 0.3280 0.0000 (  6230 PWs)   bands (ev):

   -44.6557 -22.8658 -22.8340 -22.6238 -12.0253 -11.6033  -1.6763  -1.2236
    -0.9298  -0.2580   0.2470   0.7252   4.1658   6.6377   7.3532   7.7170
     8.0261   9.7949  10.1183  11.6701  12.2311  12.3921  13.3060  13.8772
    14.5989  14.9108

          k = 0.3125 0.4009 0.0000 (  6217 PWs)   bands (ev):

   -44.6519 -22.8727 -22.8226 -22.6682 -11.9770 -11.5284  -1.6667  -1.3460
    -0.8654  -0.4174   0.1180   0.3581   4.4200   6.7008   7.3472   7.9182
     8.1685  10.1177  10.4943  11.9577  12.1040  12.5543  13.0984  13.8388
    14.5531  14.8147

          k = 0.3125 0.4738 0.0000 (  6228 PWs)   bands (ev):

   -44.6490 -22.8629 -22.8139 -22.7175 -11.9417 -11.4677  -1.5764  -1.4265
    -0.8137  -0.5452  -0.1998   0.1881   4.7166   6.8131   7.2365   7.9761
     8.2164  10.2113  11.1268  11.7162  12.3185  12.8724  13.2276  14.0153
    14.4859  14.7250

          k = 0.3125 0.5467 0.0000 (  6219 PWs)   bands (ev):

   -44.6474 -22.8432 -22.8092 -22.7586 -11.9230 -11.4337  -1.5449  -1.3555
    -0.7908  -0.7140  -0.3958   0.1250   4.9375   6.9487   7.1565   7.6817
     8.4098  10.3498  10.9715  12.3430  12.5262  13.0903  13.2606  13.5704
    14.6405  14.8300

          k = 0.3125-0.1093 0.0000 (  6238 PWs)   bands (ev):

   -44.6667 -22.8669 -22.7709 -22.5741 -12.1815 -11.7845  -1.3356  -1.0754
    -0.6169   0.0320   0.3376   1.1476   4.1203   6.2130   7.0629   7.1743
     7.5952   8.8957  10.1456  11.5026  12.0697  12.3453  13.9963  14.2615
    14.8908  15.2395

          k = 0.3125-0.0364 0.0000 (  6235 PWs)   bands (ev):

   -44.6683 -22.8716 -22.7446 -22.5796 -12.2068 -11.8067  -1.3055  -0.9868
    -0.4283  -0.1054   0.4027   1.0616   4.2394   5.9614   7.0950   7.1905
     7.5174   8.8536  10.1756  11.5311  12.3008  12.6279  13.4459  14.0565
    14.8082  15.1204

          k = 0.3750 0.2187 0.0000 (  6223 PWs)   bands (ev):

   -44.6578 -22.8731 -22.8397 -22.5895 -12.0512 -11.6392  -1.7675  -1.2382
    -0.9497   0.0121   0.1962   1.1107   3.9311   6.9129   7.2525   7.6546
     7.8098   9.3673  10.0524  11.2929  11.9592  12.2819  13.4457  14.4626
    14.6795  14.8211

          k = 0.3750 0.2916 0.0000 (  6226 PWs)   bands (ev):

   -44.6550 -22.8948 -22.8314 -22.6045 -12.0147 -11.5865  -1.8700  -1.3601
    -0.9045  -0.1093   0.2135   0.9637   3.9850   7.0262   7.3358   7.7850
     7.9667   9.6394  10.0297  11.3555  12.0150  12.2865  13.1276  14.0293
    14.5283  14.8356

          k = 0.3750 0.3645 0.0000 (  6223 PWs)   bands (ev):

   -44.6522 -22.9003 -22.8231 -22.6367 -11.9797 -11.5312  -1.8646  -1.4382
    -0.8564  -0.2692   0.1911   0.6125   4.1901   7.0758   7.4389   7.7762
     8.1084   9.9050  10.3437  11.6803  12.1360  12.3020  12.7588  13.6644
    14.5357  14.8510

          k = 0.3750 0.4374 0.0000 (  6228 PWs)   bands (ev):

   -44.6498 -22.8880 -22.8160 -22.6816 -11.9509 -11.4825  -1.7475  -1.4766
    -0.8175  -0.4185   0.0639   0.2385   4.4908   7.0787   7.3484   7.9631
     8.0298   9.9989  11.0864  11.8704  12.1576  12.4883  12.6510  13.7655
    14.5757  14.8159

          k = 0.3750 0.5103 0.0000 (  6225 PWs)   bands (ev):

   -44.6482 -22.8618 -22.8113 -22.7298 -11.9319 -11.4492  -1.5765  -1.4551
    -0.7953  -0.5730  -0.2712   0.1404   4.7979   7.0152   7.2128   7.7461
     8.3072  10.1857  11.2201  12.0121  12.4518  12.8524  12.9044  13.9143
    14.6847  14.7816

          k = 0.3750 0.5832 0.0000 (  6232 PWs)   bands (ev):

   -44.6476 -22.8423 -22.8097 -22.7571 -11.9253 -11.4373  -1.5380  -1.3461
    -0.7933  -0.7130  -0.3921   0.1190   4.9437   6.9470   7.1557   7.6629
     8.4246  10.3349  10.9887  12.2891  12.5410  13.1134  13.2974  13.5894
    14.5940  14.8577

          k = 0.3750-0.1458 0.0000 (  6211 PWs)   bands (ev):

   -44.6602 -22.8481 -22.8392 -22.5915 -12.0834 -11.6813  -1.5855  -1.0988
    -0.9609  -0.0499   0.2556   1.0334   4.0294   6.6148   7.2091   7.5731
     7.7332   9.3046  10.1220  11.4633  12.0359  12.3365  13.7334  14.3222
    14.6719  15.0621

          k = 0.3750-0.0729 0.0000 (  6231 PWs)   bands (ev):

   -44.6618 -22.8520 -22.8079 -22.6036 -12.1058 -11.7081  -1.3817  -1.0778
    -0.8341  -0.2076   0.3121   0.8661   4.1926   6.2403   7.2534   7.5686
     7.6977   9.3108  10.2371  11.6708  12.3191  12.4900  13.8198  13.9939
    14.3082  15.0146

          k = 0.3750 0.0000 0.0000 (  6227 PWs)   bands (ev):

   -44.6623 -22.8537 -22.7934 -22.6112 -12.1139 -11.7172  -1.2695  -1.1054
    -0.7387  -0.2964   0.3134   0.7904   4.2775   6.0756   7.2790   7.5481
     7.7137   9.3151  10.3011  11.7385  12.5534  12.7175  13.5463  13.8762
    13.9467  15.0604

          k = 0.4375 0.2551 0.0000 (  6218 PWs)   bands (ev):

   -44.6538 -22.9156 -22.8277 -22.5989 -11.9996 -11.5622  -1.9970  -1.4584
    -0.8813  -0.0543   0.1812   1.0633   3.9061   7.1470   7.4888   7.8577
     8.0190   9.5655  10.0037  11.1844  11.9167  12.2533  12.9134  14.1747
    14.3169  14.5526

          k = 0.4375 0.3280 0.0000 (  6223 PWs)   bands (ev):

   -44.6523 -22.9224 -22.8234 -22.6115 -11.9817 -11.5329  -2.0215  -1.5094
    -0.8561  -0.1331   0.1853   0.9180   3.9861   7.2386   7.5520   7.8215
     8.0916   9.7012  10.1345  11.3052  11.9263  12.2792  12.7224  13.7405
    14.4372  14.5492

          k = 0.4375 0.4009 0.0000 (  6216 PWs)   bands (ev):

   -44.6510 -22.9115 -22.8194 -22.6414 -11.9651 -11.5057  -1.9273  -1.5091
    -0.8325  -0.2675   0.1672   0.5679   4.2092   7.2928   7.5393   7.7949
     7.9943   9.8169  10.6230  11.7007  12.0707  12.3479  12.4228  13.5738
    14.4932  14.7384

          k = 0.4375 0.4738 0.0000 (  6222 PWs)   bands (ev):

   -44.6500 -22.8863 -22.8164 -22.6817 -11.9524 -11.4849  -1.7393  -1.4696
    -0.8181  -0.4164   0.0617   0.2287   4.4984   7.0922   7.3496   7.9276
     8.0392   9.9968  11.0652  11.8640  12.1847  12.4723  12.6868  13.7546
    14.5807  14.8328

          k = 0.4375 0.5467 0.0000 (  6216 PWs)   bands (ev):

   -44.6494 -22.8595 -22.8147 -22.7168 -11.9454 -11.4737  -1.5594  -1.4097
    -0.8156  -0.5417  -0.2060   0.1757   4.7314   6.8191   7.2353   7.9254
     8.2420  10.2040  11.1157  11.6847  12.3591  12.8681  13.3019  13.9926
    14.4862  14.7255

          k = 0.4375-0.1822 0.0000 (  6223 PWs)   bands (ev):

   -44.6552 -22.8931 -22.8318 -22.6046 -12.0162 -11.5889  -1.8624  -1.3534
    -0.9050  -0.1019   0.2037   0.9534   3.9938   7.0401   7.3474   7.7896
     7.9295   9.6286  10.0295  11.3600  12.0213  12.2891  13.1327  13.9899
    14.5412  14.8817

          k = 0.4375-0.1093 0.0000 (  6227 PWs)   bands (ev):

   -44.6562 -22.8620 -22.8348 -22.6237 -12.0291 -11.6090  -1.6584  -1.2069
    -0.9306  -0.2509   0.2359   0.7036   4.1839   6.6499   7.3587   7.7338
     7.9757   9.7832  10.1146  11.6899  12.2330  12.3910  13.3025  13.8763
    14.6182  14.9622

          k = 0.4375-0.0364 0.0000 (  6215 PWs)   bands (ev):

   -44.6568 -22.8390 -22.8339 -22.6428 -12.0362 -11.6197  -1.4791  -1.0716
    -0.9651  -0.3823   0.2036   0.5339   4.3514   6.3322   7.3438   7.7695
     8.0320   9.8388  10.2546  11.9024  12.4649  12.6182  13.3770  13.7513
    14.3275  14.8786

          k =-0.5000-0.2916 0.0000 (  6224 PWs)   bands (ev):

   -44.6524 -22.9305 -22.8235 -22.6022 -11.9824 -11.5334  -2.0789  -1.5351
    -0.8571  -0.0778   0.1778   1.0472   3.9038   7.1932   7.6354   7.8820
     8.1542   9.6000  10.0277  11.1526  11.8198  12.2800  12.7273  13.9787
    14.2030  14.4283

          k =-0.5000-0.2187 0.0000 (  6219 PWs)   bands (ev):

   -44.6524 -22.9217 -22.8235 -22.6116 -11.9822 -11.5337  -2.0187  -1.5070
    -0.8563  -0.1302   0.1815   0.9143   3.9894   7.2396   7.5706   7.8237
     8.0674   9.6894  10.1376  11.3064  11.9338  12.2807  12.7235  13.7255
    14.4418  14.5651

          k =-0.5000-0.1458 0.0000 (  6219 PWs)   bands (ev):

   -44.6524 -22.8979 -22.8235 -22.6369 -11.9818 -11.5344  -1.8538  -1.4289
    -0.8573  -0.2640   0.1837   0.5992   4.2012   7.0955   7.4401   7.7951
     8.0552   9.8940  10.3320  11.6930  12.1481  12.2968  12.7737  13.6474
    14.5436  14.8869

          k =-0.5000-0.0729 0.0000 (  6219 PWs)   bands (ev):

   -44.6524 -22.8684 -22.8236 -22.6680 -11.9813 -11.5351  -1.6455  -1.3266
    -0.8674  -0.4116   0.1094   0.3366   4.4392   6.7119   7.3436   7.9478
     8.1062  10.1157  10.4666  11.9781  12.1149  12.5392  13.1439  13.8346
    14.5713  14.8535

          k =-0.5000 0.0000 0.0000 (  6228 PWs)   bands (ev):

   -44.6524 -22.8530 -22.8235 -22.6840 -11.9811 -11.5354  -1.5363  -1.2712
    -0.8780  -0.4793  -0.0066   0.2951   4.5543   6.5305   7.2962   8.0319
     8.1323  10.2217  10.5083  11.9097  12.1744  12.7942  13.4824  13.8725
    14.5118  14.6556

     highest occupied, lowest unoccupied level (ev):     4.9437    5.8450

!    total energy              =    -591.24402073 Ry
     total all-electron energy =    -13333.877297 Ry
     estimated scf accuracy    <          3.6E-11 Ry

     The total energy is the sum of the following terms:
     one-electron contribution =    -204.81183849 Ry
     hartree contribution      =     110.41005044 Ry
     xc contribution           =     -37.61386310 Ry
     ewald contribution        =     -28.11102202 Ry
     one-center paw contrib.   =    -431.11734756 Ry

     convergence has been achieved in   4 iterations

     negative rho (up, down):  1.450E-08 0.000E+00

     Forces acting on atoms (cartesian axes, Ry/au):

     atom    1 type  1   force =     0.00000000   -0.00003181   -0.00001142
     atom    2 type  2   force =     0.00000000    0.00000045   -0.00000995
     atom    3 type  3   force =     0.00000000    0.00003136    0.00002137
     The non-local contrib.  to forces
     atom    1 type  1   force =     0.00000000   -0.00118206   -0.00064169
     atom    2 type  2   force =     0.00000000   -0.00092336   -0.21344284
     atom    3 type  3   force =     0.00000000   -0.00091486    0.20951652
     The ionic contribution  to forces
     atom    1 type  1   force =    -0.00000001   -0.06821738   -0.34679279
     atom    2 type  2   force =     0.00000000    0.03904604   21.36017719
     atom    3 type  3   force =     0.00000000    0.02917133  -21.01338440
     The local contribution  to forces
     atom    1 type  1   force =    -0.00000000    0.06929556    0.34716209
     atom    2 type  2   force =     0.00000003   -0.03801193  -21.15467982
     atom    3 type  3   force =    -0.00000000   -0.02820601   20.80743109
     The core correction contribution to forces
     atom    1 type  1   force =    -0.00000000    0.00003997    0.00035640
     atom    2 type  2   force =    -0.00000000   -0.00013887    0.00801711
     atom    3 type  3   force =    -0.00000000   -0.00004882   -0.00345430
     The Hubbard contrib.    to forces
     atom    1 type  1   force =     0.00000000    0.00000000    0.00000000
     atom    2 type  2   force =     0.00000000    0.00000000    0.00000000
     atom    3 type  3   force =     0.00000000    0.00000000    0.00000000
     The SCF correction term to forces
     atom    1 type  1   force =     0.00000000    0.00000076   -0.00001574
     atom    2 type  2   force =    -0.00000000   -0.00000278   -0.00000191
     atom    3 type  3   force =     0.00000000   -0.00000163   -0.00000785

     Total force =     0.000052     Total SCF correction =     0.000018
     SCF correction compared to forces is large: reduce conv_thr to get better values
     Energy error            =      6.1E-08 Ry
     Gradient error          =      3.2E-05 Ry/Bohr

     bfgs converged in   8 scf cycles and   7 bfgs steps
     (criteria: energy <  1.0E-05 Ry, force <  1.0E-04 Ry/Bohr)

     End of BFGS Geometry Optimization

     Final energy             =    -591.2440207303 Ry

     File ./tmp/ZrClBr.bfgs deleted, as requested
Begin final coordinates

ATOMIC_POSITIONS (angstrom)
Zr            0.0000000000        0.0108701154       10.2764808400
Cl           -0.0000000017        2.0086033478       11.9733489579
Br           -0.0000000017        2.0093833815        8.4133189765
End final coordinates



     Writing all to output data dir ./tmp/ZrClBr.save/

     init_run     :      0.64s CPU      0.67s WALL (       1 calls)
     electrons    :     85.87s CPU     87.95s WALL (       8 calls)
     update_pot   :      0.86s CPU      0.92s WALL (       7 calls)
     forces       :      1.93s CPU      1.94s WALL (       8 calls)

     Called by init_run:
     wfcinit      :      0.46s CPU      0.47s WALL (       1 calls)
     potinit      :      0.07s CPU      0.08s WALL (       1 calls)
     hinit0       :      0.07s CPU      0.08s WALL (       1 calls)

     Called by electrons:
     c_bands      :     73.02s CPU     74.35s WALL (      56 calls)
     sum_band     :     10.24s CPU     10.52s WALL (      56 calls)
     v_of_rho     :      0.19s CPU      0.19s WALL (      56 calls)
     newd         :      0.51s CPU      0.56s WALL (      56 calls)
     PAW_pot      :      2.55s CPU      3.11s WALL (      63 calls)
     mix_rho      :      0.01s CPU      0.02s WALL (      56 calls)

     Called by c_bands:
     init_us_2    :      0.61s CPU      0.62s WALL (    9344 calls)
     init_us_2:cp :      0.60s CPU      0.61s WALL (    9344 calls)
     cegterg      :     71.45s CPU     72.75s WALL (    4088 calls)

     Called by *egterg:
     cdiaghg      :     10.36s CPU     10.45s WALL (   12620 calls)
     h_psi        :     42.06s CPU     43.13s WALL (   13788 calls)
     s_psi        :      2.87s CPU      2.90s WALL (   13788 calls)
     g_psi        :      0.11s CPU      0.11s WALL (    9627 calls)

     Called by h_psi:
     h_psi:calbec :      4.78s CPU      4.89s WALL (   13788 calls)
     vloc_psi     :     34.32s CPU     35.24s WALL (   13788 calls)
     add_vuspsi   :      2.86s CPU      2.91s WALL (   13788 calls)

     General routines
     calbec       :      8.22s CPU      8.38s WALL (   20723 calls)
     fft          :      0.10s CPU      0.11s WALL (     719 calls)
     ffts         :      0.01s CPU      0.01s WALL (      56 calls)
     fftw         :     38.73s CPU     39.75s WALL (  600012 calls)

     Parallel routines

     PWSCF        :   1m30.64s CPU   1m33.12s WALL


   This run was terminated on:   8:42:17  18Sep2026            

=------------------------------------------------------------------------------=
   JOB DONE.
=------------------------------------------------------------------------------=
Note: The following floating-point exceptions are signalling: IEEE_INVALID_FLAG
