
     Program PWSCF v.7.2 starts on 18Sep2026 at  8:42:21 

     This program is part of the open-source Quantum ESPRESSO suite
     for quantum simulation of materials; please cite
         "P. Giannozzi et al., J. Phys.:Condens. Matter 21 395502 (2009);
         "P. Giannozzi et al., J. Phys.:Condens. Matter 29 465901 (2017);
         "P. Giannozzi et al., J. Chem. Phys. 152 154105 (2020);
          URL http://www.quantum-espresso.org", 
     in publications or presentations arising from this work. More details at
     http://www.quantum-espresso.org/quote

     Parallel version (MPI), running on    32 processors

     MPI processes distributed on     1 nodes
     228829 MiB available memory on the printing compute node when the environment starts

     Waiting for input...
     Reading input from standard input

     Current dimensions of program PWSCF are:
     Max number of different atomic species (ntypx) = 10
     Max number of k-points (npk) =  40000
     Max angular momentum in pseudopotentials (lmaxx) =  4
     file Zr.pbe-spn-kjpaw_psl.1.0.0.UPF: wavefunction(s)  4S 4P renormalized
     file Cl.pbe-n-kjpaw_psl.1.0.0.UPF: wavefunction(s)  3S 3P renormalized
     file Br.pbe-n-kjpaw_psl.1.0.0.UPF: wavefunction(s)  4S 4P renormalized
     Message from routine setup:
     using ibrav=0 with symmetry is DISCOURAGED, use correct ibrav instead

     R & G space division:  proc/nbgrp/npool/nimage =      32
     Subspace diagonalization in iterative solution of the eigenvalue problem:
     a serial algorithm will be used


     Parallelization info
     --------------------
     sticks:   dense  smooth     PW     G-vecs:    dense   smooth      PW
     Min          24      24      7                 1592     1592     247
     Max          25      25      8                 1601     1601     257
     Sum         789     789    233                51081    51081    8065

     Using Slab Decomposition



     bravais-lattice index     =            0
     lattice parameter (alat)  =       6.5934  a.u.
     unit-cell volume          =     722.1347 (a.u.)^3
     number of atoms/cell      =            3
     number of atomic types    =            3
     number of electrons       =        26.00
     number of Kohn-Sham states=           26
     kinetic-energy cutoff     =      65.0000  Ry
     charge density cutoff     =     260.0000  Ry
     scf convergence threshold =      1.0E-08
     mixing beta               =       0.7000
     number of iterations used =            8  plain     mixing
     energy convergence thresh.=      1.0E-05
     force convergence thresh. =      1.0E-04
     Exchange-correlation= SLA  PW   PBX  PBC
                           (   1   4   3   4   0   0   0)
     nstep                     =           50


     celldm(1)=   6.593429  celldm(2)=   0.000000  celldm(3)=   0.000000
     celldm(4)=   0.000000  celldm(5)=   0.000000  celldm(6)=   0.000000

     crystal axes: (cart. coord. in units of alat)
               a(1) = (   1.000000   0.000000   0.000000 )  
               a(2) = (  -0.500000   0.879016   0.000000 )  
               a(3) = (   0.000000   0.000000   2.866075 )  

     reciprocal axes: (cart. coord. in units 2 pi/alat)
               b(1) = (  1.000000  0.568818 -0.000000 )  
               b(2) = (  0.000000  1.137636  0.000000 )  
               b(3) = (  0.000000 -0.000000  0.348909 )  


     PseudoPot. # 1 for Zr read from file:
     /mgpfs/home/rabdillah/repo/qe/pseudo/Zr.pbe-spn-kjpaw_psl.1.0.0.UPF
     MD5 check sum: 02112c41713a0468aff2bb39ef194e36
     Pseudo is Projector augmented-wave + core cor, Zval = 12.0
     Generated using &quot;atomic&quot; code by A. Dal Corso  v.6.2.2
     Shape of augmentation charge: PSQ
     Using radial grid of 1225 points,  6 beta functions with: 
                l(1) =   0
                l(2) =   0
                l(3) =   1
                l(4) =   1
                l(5) =   2
                l(6) =   2
     Q(r) pseudized with 0 coefficients 


     PseudoPot. # 2 for Cl read from file:
     /mgpfs/home/rabdillah/repo/qe/pseudo/Cl.pbe-n-kjpaw_psl.1.0.0.UPF
     MD5 check sum: 530da96d25dcb7781b0586ca00827062
     Pseudo is Projector augmented-wave + core cor, Zval =  7.0
     Generated using &quot;atomic&quot; code by A. Dal Corso  v.6.3
     Shape of augmentation charge: PSQ
     Using radial grid of 1157 points,  6 beta functions with: 
                l(1) =   0
                l(2) =   0
                l(3) =   1
                l(4) =   1
                l(5) =   2
                l(6) =   2
     Q(r) pseudized with 0 coefficients 


     PseudoPot. # 3 for Br read from file:
     /mgpfs/home/rabdillah/repo/qe/pseudo/Br.pbe-n-kjpaw_psl.1.0.0.UPF
     MD5 check sum: b00de77caabc69c0a6b76eb37264f235
     Pseudo is Projector augmented-wave + core cor, Zval =  7.0
     Generated using &quot;atomic&quot; code by A. Dal Corso  v.6.3
     Shape of augmentation charge: PSQ
     Using radial grid of 1213 points,  4 beta functions with: 
                l(1) =   0
                l(2) =   0
                l(3) =   1
                l(4) =   1
     Q(r) pseudized with 0 coefficients 


     atomic species   valence    mass     pseudopotential
        Zr            12.00    91.22400     Zr( 1.00)
        Cl             7.00    35.45300     Cl( 1.00)
        Br             7.00    79.90400     Br( 1.00)

      2 Sym. Ops. (no inversion) found



   Cartesian axes

     site n.     atom                  positions (alat units)
         1           Zr  tau(   1) = (   0.0000000   0.0000000   2.9453878  )
         2           Cl  tau(   2) = (  -0.0000000   0.5773503   3.4291986  )
         3           Br  tau(   3) = (  -0.0000000   0.5773503   2.4137016  )

     number of k points=    73
                       cart. coord. in units 2pi/alat
        k(    1) = (   0.0000000   0.0000000   0.0000000), wk =   0.0078125
        k(    2) = (   0.0000000   0.0711022   0.0000000), wk =   0.0156250
        k(    3) = (   0.0000000   0.1422045   0.0000000), wk =   0.0156250
        k(    4) = (   0.0000000   0.2133067   0.0000000), wk =   0.0156250
        k(    5) = (   0.0000000   0.2844090   0.0000000), wk =   0.0156250
        k(    6) = (   0.0000000   0.3555112   0.0000000), wk =   0.0156250
        k(    7) = (   0.0000000   0.4266135   0.0000000), wk =   0.0156250
        k(    8) = (   0.0000000   0.4977157   0.0000000), wk =   0.0156250
        k(    9) = (   0.0000000  -0.5688180   0.0000000), wk =   0.0078125
        k(   10) = (   0.0625000   0.0355511   0.0000000), wk =   0.0312500
        k(   11) = (   0.0625000   0.1066534   0.0000000), wk =   0.0312500
        k(   12) = (   0.0625000   0.1777556   0.0000000), wk =   0.0312500
        k(   13) = (   0.0625000   0.2488579   0.0000000), wk =   0.0312500
        k(   14) = (   0.0625000   0.3199601   0.0000000), wk =   0.0312500
        k(   15) = (   0.0625000   0.3910624   0.0000000), wk =   0.0312500
        k(   16) = (   0.0625000   0.4621646   0.0000000), wk =   0.0312500
        k(   17) = (   0.0625000   0.5332669   0.0000000), wk =   0.0312500
        k(   18) = (   0.1250000   0.0711022   0.0000000), wk =   0.0312500
        k(   19) = (   0.1250000   0.1422045   0.0000000), wk =   0.0312500
        k(   20) = (   0.1250000   0.2133067   0.0000000), wk =   0.0312500
        k(   21) = (   0.1250000   0.2844090   0.0000000), wk =   0.0312500
        k(   22) = (   0.1250000   0.3555112   0.0000000), wk =   0.0312500
        k(   23) = (   0.1250000   0.4266135   0.0000000), wk =   0.0312500
        k(   24) = (   0.1250000   0.4977157   0.0000000), wk =   0.0312500
        k(   25) = (   0.1250000   0.5688180   0.0000000), wk =   0.0156250
        k(   26) = (   0.1250000   0.0000000   0.0000000), wk =   0.0156250
        k(   27) = (   0.1875000   0.1066534   0.0000000), wk =   0.0312500
        k(   28) = (   0.1875000   0.1777556   0.0000000), wk =   0.0312500
        k(   29) = (   0.1875000   0.2488579   0.0000000), wk =   0.0312500
        k(   30) = (   0.1875000   0.3199601   0.0000000), wk =   0.0312500
        k(   31) = (   0.1875000   0.3910624   0.0000000), wk =   0.0312500
        k(   32) = (   0.1875000   0.4621646   0.0000000), wk =   0.0312500
        k(   33) = (   0.1875000   0.5332669   0.0000000), wk =   0.0312500
        k(   34) = (   0.1875000  -0.0355511   0.0000000), wk =   0.0312500
        k(   35) = (   0.2500000   0.1422045   0.0000000), wk =   0.0312500
        k(   36) = (   0.2500000   0.2133067   0.0000000), wk =   0.0312500
        k(   37) = (   0.2500000   0.2844090   0.0000000), wk =   0.0312500
        k(   38) = (   0.2500000   0.3555112   0.0000000), wk =   0.0312500
        k(   39) = (   0.2500000   0.4266135   0.0000000), wk =   0.0312500
        k(   40) = (   0.2500000   0.4977157   0.0000000), wk =   0.0312500
        k(   41) = (   0.2500000   0.5688180   0.0000000), wk =   0.0156250
        k(   42) = (   0.2500000  -0.0711022   0.0000000), wk =   0.0312500
        k(   43) = (   0.2500000   0.0000000   0.0000000), wk =   0.0156250
        k(   44) = (   0.3125000   0.1777556   0.0000000), wk =   0.0312500
        k(   45) = (   0.3125000   0.2488579   0.0000000), wk =   0.0312500
        k(   46) = (   0.3125000   0.3199601   0.0000000), wk =   0.0312500
        k(   47) = (   0.3125000   0.3910624   0.0000000), wk =   0.0312500
        k(   48) = (   0.3125000   0.4621646   0.0000000), wk =   0.0312500
        k(   49) = (   0.3125000   0.5332669   0.0000000), wk =   0.0312500
        k(   50) = (   0.3125000  -0.1066534   0.0000000), wk =   0.0312500
        k(   51) = (   0.3125000  -0.0355511   0.0000000), wk =   0.0312500
        k(   52) = (   0.3750000   0.2133067   0.0000000), wk =   0.0312500
        k(   53) = (   0.3750000   0.2844090   0.0000000), wk =   0.0312500
        k(   54) = (   0.3750000   0.3555112   0.0000000), wk =   0.0312500
        k(   55) = (   0.3750000   0.4266135   0.0000000), wk =   0.0312500
        k(   56) = (   0.3750000   0.4977157   0.0000000), wk =   0.0312500
        k(   57) = (   0.3750000   0.5688180   0.0000000), wk =   0.0156250
        k(   58) = (   0.3750000  -0.1422045   0.0000000), wk =   0.0312500
        k(   59) = (   0.3750000  -0.0711022   0.0000000), wk =   0.0312500
        k(   60) = (   0.3750000   0.0000000   0.0000000), wk =   0.0156250
        k(   61) = (   0.4375000   0.2488579   0.0000000), wk =   0.0312500
        k(   62) = (   0.4375000   0.3199601   0.0000000), wk =   0.0312500
        k(   63) = (   0.4375000   0.3910624   0.0000000), wk =   0.0312500
        k(   64) = (   0.4375000   0.4621646   0.0000000), wk =   0.0312500
        k(   65) = (   0.4375000   0.5332669   0.0000000), wk =   0.0312500
        k(   66) = (   0.4375000  -0.1777556   0.0000000), wk =   0.0312500
        k(   67) = (   0.4375000  -0.1066534   0.0000000), wk =   0.0312500
        k(   68) = (   0.4375000  -0.0355511   0.0000000), wk =   0.0312500
        k(   69) = (  -0.5000000  -0.2844090   0.0000000), wk =   0.0156250
        k(   70) = (  -0.5000000  -0.2133067   0.0000000), wk =   0.0312500
        k(   71) = (  -0.5000000  -0.1422045   0.0000000), wk =   0.0312500
        k(   72) = (  -0.5000000  -0.0711022   0.0000000), wk =   0.0312500
        k(   73) = (  -0.5000000   0.0000000   0.0000000), wk =   0.0156250

     Dense  grid:    51081 G-vectors     FFT dimensions: (  36,  36, 100)

     Estimated max dynamical RAM per process >      15.56 MB

     Estimated total dynamical RAM >     497.81 MB

     Check: negative core charge=   -0.000004

     Initial potential from superposition of free atoms

     starting charge      25.9978, renormalised to      26.0000
     Starting wfcs are   21 randomized atomic wfcs +    5 random wfcs
     Checking if some PAW data can be deallocated... 

     total cpu time spent up to now is        1.0 secs

     Self-consistent Calculation

     iteration #  1     ecut=    65.00 Ry     beta= 0.70
     Davidson diagonalization with overlap
     ethr =  1.00E-02,  avg # of iterations =  6.4

     Threshold (ethr) on eigenvalues was too large:
     Diagonalizing with lowered threshold

     Davidson diagonalization with overlap
     ethr =  4.07E-04,  avg # of iterations =  2.8

     negative rho (up, down):  8.991E-07 0.000E+00

     total cpu time spent up to now is        5.1 secs

     total energy              =    -591.19113724 Ry
     estimated scf accuracy    <       0.10938519 Ry

     iteration #  2     ecut=    65.00 Ry     beta= 0.70
     Davidson diagonalization with overlap
     ethr =  4.21E-04,  avg # of iterations =  4.8

     total cpu time spent up to now is        7.4 secs

     total energy              =    -591.18771875 Ry
     estimated scf accuracy    <       0.27543108 Ry

     iteration #  3     ecut=    65.00 Ry     beta= 0.70
     Davidson diagonalization with overlap
     ethr =  4.21E-04,  avg # of iterations =  2.5

     total cpu time spent up to now is        9.1 secs

     total energy              =    -591.24182423 Ry
     estimated scf accuracy    <       0.00736797 Ry

     iteration #  4     ecut=    65.00 Ry     beta= 0.70
     Davidson diagonalization with overlap
     ethr =  2.83E-05,  avg # of iterations =  5.7

     total cpu time spent up to now is       11.0 secs

     total energy              =    -591.24351722 Ry
     estimated scf accuracy    <       0.00041048 Ry

     iteration #  5     ecut=    65.00 Ry     beta= 0.70
     Davidson diagonalization with overlap
     c_bands:  1 eigenvalues not converged
     ethr =  1.58E-06,  avg # of iterations =  5.8

     total cpu time spent up to now is       13.1 secs

     total energy              =    -591.24358924 Ry
     estimated scf accuracy    <       0.00000977 Ry

     iteration #  6     ecut=    65.00 Ry     beta= 0.70
     Davidson diagonalization with overlap
     ethr =  3.76E-08,  avg # of iterations =  2.0

     total cpu time spent up to now is       14.7 secs

     total energy              =    -591.24359055 Ry
     estimated scf accuracy    <       0.00000201 Ry

     iteration #  7     ecut=    65.00 Ry     beta= 0.70
     Davidson diagonalization with overlap
     ethr =  7.73E-09,  avg # of iterations =  2.0

     total cpu time spent up to now is       16.3 secs

     total energy              =    -591.24359106 Ry
     estimated scf accuracy    <       0.00000213 Ry

     iteration #  8     ecut=    65.00 Ry     beta= 0.70
     Davidson diagonalization with overlap
     ethr =  7.73E-09,  avg # of iterations =  1.2

     total cpu time spent up to now is       17.7 secs

     total energy              =    -591.24359147 Ry
     estimated scf accuracy    <       0.00000001 Ry

     iteration #  9     ecut=    65.00 Ry     beta= 0.70
     Davidson diagonalization with overlap
     ethr =  4.84E-11,  avg # of iterations =  2.5

     total cpu time spent up to now is       19.3 secs

     End of self-consistent calculation

          k = 0.0000 0.0000 0.0000 (  6439 PWs)   bands (ev):

   -44.9655 -23.1875 -22.8194 -22.7974 -12.7365 -12.1871  -2.0961  -0.0451
     0.1222   0.2202   1.2670   1.4047   4.2532   5.8036   6.0134   6.5669
     6.6149   6.7126   8.3354   9.3510  11.3176  13.4591  13.6110  13.8626
    14.5664  15.0160

          k = 0.0000 0.0711 0.0000 (  6441 PWs)   bands (ev):

   -44.9644 -23.1839 -22.8336 -22.8002 -12.7121 -12.1767  -2.0527  -0.1355
     0.0961   0.2094   1.1159   1.3709   4.2493   5.7570   6.0449   6.5807
     6.6250   6.8876   8.4535   9.5809  11.3800  13.0529  13.7330  14.1944
    14.5314  14.6595

          k = 0.0000 0.1422 0.0000 (  6417 PWs)   bands (ev):

   -44.9611 -23.1735 -22.8738 -22.8083 -12.6432 -12.1456  -1.9302  -0.3852
     0.0085   0.1748   0.7467   1.2825   4.2126   5.6878   6.1460   6.5466
     6.7810   7.3209   8.7856  10.1347  11.5647  12.5161  13.8623  14.0807
    14.4473  14.7536

          k = 0.0000 0.2133 0.0000 (  6433 PWs)   bands (ev):

   -44.9562 -23.1580 -22.9333 -22.8205 -12.5424 -12.0941  -1.7530  -0.7398
    -0.1985   0.1126   0.3657   1.1691   4.1023   5.7332   6.3303   6.5902
     6.9899   7.8337   9.2608  10.7279  11.7871  12.1167  13.3913  14.2499
    14.5856  14.9949

          k = 0.0000 0.2844 0.0000 (  6391 PWs)   bands (ev):

   -44.9505 -23.1395 -23.0023 -22.8348 -12.4297 -12.0227  -1.5713  -1.1217
    -0.5829   0.0259   0.1587   1.0583   3.9405   5.9513   6.6038   6.7107
     7.2027   8.3160   9.6847  11.1185  11.7300  11.9800  13.5888  13.9301
    14.8295  15.0293

          k = 0.0000 0.3555 0.0000 (  6383 PWs)   bands (ev):

   -44.9447 -23.1211 -23.0702 -22.8490 -12.3273 -11.9354  -1.6245  -1.2802
    -0.9913  -0.0713   0.0661   0.9660   3.7986   6.3028   6.8667   6.9505
     7.3827   8.7435   9.8218  11.2080  11.6543  11.9669  13.5611  14.1582
    14.4745  14.8749

          k = 0.0000 0.4266 0.0000 (  6391 PWs)   bands (ev):

   -44.9398 -23.1274 -23.1049 -22.8610 -12.2505 -11.8462  -1.9207  -1.3621
    -1.1319  -0.1590   0.0201   0.8978   3.7186   6.6978   7.0281   7.3186
     7.5139   9.1003   9.7293  11.0923  11.6629  11.9734  13.0708  14.0847
    14.3212  14.4514

          k = 0.0000 0.4977 0.0000 (  6374 PWs)   bands (ev):

   -44.9365 -23.1647 -23.0946 -22.8690 -12.2045 -11.7786  -2.1365  -1.5592
    -1.0632  -0.2193  -0.0004   0.8560   3.6933   6.9514   7.2377   7.5676
     7.6424   9.3198   9.6255  10.9966  11.6174  11.9419  12.5885  13.8476
    13.9531  14.2460

          k = 0.0000-0.5688 0.0000 (  6362 PWs)   bands (ev):

   -44.9354 -23.1778 -23.0909 -22.8718 -12.1892 -11.7533  -2.2132  -1.6286
    -1.0380  -0.2407  -0.0060   0.8418   3.6906   7.0091   7.3705   7.6014
     7.7531   9.3456   9.6354  10.9672  11.5296  11.9596  12.4207  13.6638
    13.8638  14.1392

          k = 0.0625 0.0356 0.0000 (  6441 PWs)   bands (ev):

   -44.9643 -23.1838 -22.8264 -22.8081 -12.7117 -12.1754  -2.0524  -0.1100
     0.1050   0.1694   1.1792   1.2996   4.2575   5.8101   5.9777   6.5364
     6.6676   6.8920   8.4604   9.5827  11.3802  13.0992  13.6240  14.2436
    14.5917  14.7816

          k = 0.0625 0.1067 0.0000 (  6425 PWs)   bands (ev):

   -44.9621 -23.1768 -22.8567 -22.8105 -12.6650 -12.1547  -1.9694  -0.2842
     0.0343   0.1666   0.8856   1.2706   4.2394   5.7147   6.0825   6.5471
     6.7333   7.1937   8.6847   9.9720  11.5076  12.6769  13.8734  14.1159
    14.4716  14.7210

          k = 0.0625 0.1778 0.0000 (  6423 PWs)   bands (ev):

   -44.9580 -23.1638 -22.9072 -22.8200 -12.5801 -12.1134  -1.8186  -0.5841
    -0.1053   0.1133   0.5036   1.1727   4.1716   5.6718   6.2598   6.5760
     6.9019   7.6610   9.0919  10.5378  11.7617  12.2495  13.4927  14.1048
    14.5832  15.0021

          k = 0.0625 0.2489 0.0000 (  6405 PWs)   bands (ev):

   -44.9527 -23.1468 -22.9708 -22.8338 -12.4734 -12.0516  -1.6324  -0.9519
    -0.3857  -0.0248   0.2614   1.0499   4.0430   5.7749   6.5241   6.6781
     7.1050   8.1522   9.5585  11.0087  11.8809  12.0749  13.2673  13.9809
    14.8089  15.0093

          k = 0.0625 0.3200 0.0000 (  6400 PWs)   bands (ev):

   -44.9469 -23.1284 -23.0381 -22.8492 -12.3663 -11.9712  -1.5100  -1.2687
    -0.7959  -0.1439   0.1556   0.9290   3.9037   6.0343   6.8026   6.8988
     7.2919   8.6105   9.8358  11.2498  11.7812  12.0170  13.6243  13.8674
    14.4740  14.8589

          k = 0.0625 0.3911 0.0000 (  6385 PWs)   bands (ev):

   -44.9416 -23.1116 -23.0989 -22.8635 -12.2781 -11.8809  -1.7520  -1.2572
    -1.1308  -0.2212   0.0807   0.8267   3.8099   6.4063   6.9717   7.2637
     7.4365   9.0275   9.8180  11.2420  11.7416  12.0168  13.3539  13.9252
    14.3518  14.6276

          k = 0.0625 0.4622 0.0000 (  6380 PWs)   bands (ev):

   -44.9375 -23.1456 -23.0979 -22.8745 -12.2181 -11.8002  -2.0123  -1.4678
    -1.0885  -0.2691   0.0271   0.7536   3.7749   6.8095   7.1149   7.4999
     7.5916   9.3701   9.6850  11.1546  11.7179  11.9782  12.7911  13.6468
    14.2248  14.4747

          k = 0.0625 0.5333 0.0000 (  6366 PWs)   bands (ev):

   -44.9353 -23.1703 -23.0908 -22.8805 -12.1883 -11.7524  -2.1568  -1.6049
    -1.0386  -0.2924  -0.0004   0.7158   3.7725   7.0451   7.2892   7.5434
     7.7091   9.4102   9.7711  11.1077  11.6324  11.9655  12.4073  13.4292
    14.1234  14.2201

          k = 0.1250 0.0711 0.0000 (  6421 PWs)   bands (ev):

   -44.9608 -23.1732 -22.8607 -22.8241 -12.6414 -12.1407  -1.9294  -0.3350
     0.0234   0.0945   0.8170   1.1804   4.2455   5.7643   6.0245   6.5008
     6.8197   7.3282   8.8092  10.1368  11.5649  12.5412  13.9763  14.0249
    14.4362  14.8618

          k = 0.1250 0.1422 0.0000 (  6411 PWs)   bands (ev):

   -44.9578 -23.1636 -22.9008 -22.8283 -12.5788 -12.1097  -1.8183  -0.5576
    -0.1007   0.0786   0.5283   1.1174   4.1976   5.6876   6.2122   6.5626
     6.9101   7.6631   9.1075  10.5380  11.7600  12.2699  13.5690  14.0768
    14.5535  15.0645

          k = 0.1250 0.2133 0.0000 (  6418 PWs)   bands (ev):

   -44.9533 -23.1492 -22.9539 -22.8410 -12.4879 -12.0580  -1.6553  -0.8572
    -0.2875  -0.0917   0.3039   0.9905   4.1198   5.6798   6.4983   6.6732
     7.0609   8.1017   9.5195  10.9662  12.0325  12.1439  13.0925  13.9063
    14.7764  14.9592

          k = 0.1250 0.2844 0.0000 (  6391 PWs)   bands (ev):

   -44.9479 -23.1322 -23.0131 -22.8586 -12.3871 -11.9864  -1.4800  -1.1838
    -0.6162  -0.2811   0.2056   0.8286   4.0320   5.8001   6.8061   6.8946
     7.2278   8.5647   9.8592  11.2659  11.9808  12.3465  13.0603  13.7058
    14.4252  14.8144

          k = 0.1250 0.3555 0.0000 (  6393 PWs)   bands (ev):

   -44.9426 -23.1151 -23.0705 -22.8771 -12.2959 -11.9002  -1.5575  -1.2630
    -0.9995  -0.3734   0.1289   0.6602   3.9712   6.0598   6.9874   7.2581
     7.3998   9.0286   9.9372  11.4202  12.0227  12.1709  13.4416  13.6349
    13.8740  14.6196

          k = 0.1250 0.4266 0.0000 (  6390 PWs)   bands (ev):

   -44.9381 -23.1186 -23.1002 -22.8932 -12.2273 -11.8140  -1.8204  -1.3407
    -1.1168  -0.4145   0.0591   0.5138   3.9582   6.4299   7.1272   7.4417
     7.6356   9.5020   9.8097  11.4511  11.9264  12.0764  13.0041  13.4588
    14.2835  14.5382

          k = 0.1250 0.4977 0.0000 (  6371 PWs)   bands (ev):

   -44.9351 -23.1499 -23.0906 -22.9039 -12.1856 -11.7497  -2.0018  -1.5391
    -1.0431  -0.4251   0.0068   0.4150   3.9768   6.8359   7.2184   7.5114
     7.7194   9.5948  10.0063  11.4580  11.8192  12.0061  12.4494  13.3355
    14.2359  14.4826

          k = 0.1250 0.5688 0.0000 (  6366 PWs)   bands (ev):

   -44.9340 -23.1608 -23.0872 -22.9078 -12.1717 -11.7259  -2.0660  -1.6082
    -1.0178  -0.4252  -0.0133   0.3803   3.9895   7.0544   7.2743   7.5214
     7.6634   9.5020  10.2668  11.4705  11.7793  12.0390  12.0947  13.2921
    14.1989  14.3607

          k = 0.1250 0.0000 0.0000 (  6449 PWs)   bands (ev):

   -44.9619 -23.1766 -22.8410 -22.8282 -12.6637 -12.1511  -1.9686  -0.2404
     0.0437   0.0999   0.9557   1.1814   4.2613   5.8242   5.9404   6.4787
     6.7955   7.2011   8.7028   9.9729  11.5067  12.6874  13.7917  14.2606
    14.5324  14.7506

          k = 0.1875 0.1067 0.0000 (  6401 PWs)   bands (ev):

   -44.9556 -23.1573 -22.9204 -22.8389 -12.5385 -12.0836  -1.7524  -0.6944
    -0.1638   0.0199   0.3995   1.0603   4.1663   5.7734   6.2167   6.5389
     7.0221   7.8362   9.3009  10.7242  11.7792  12.1451  13.5406  14.2356
    14.4941  15.1354

          k = 0.1875 0.1778 0.0000 (  6409 PWs)   bands (ev):

   -44.9521 -23.1463 -22.9616 -22.8478 -12.4699 -12.0424  -1.6329  -0.9183
    -0.3462  -0.0916   0.2648   0.9642   4.1003   5.7744   6.4627   6.6495
     7.1167   8.1507   9.5874  11.0101  11.8774  12.0987  13.3785  13.9692
    14.7946  15.0586

          k = 0.1875 0.2489 0.0000 (  6412 PWs)   bands (ev):

   -44.9476 -23.1319 -23.0085 -22.8661 -12.3848 -11.9809  -1.4807  -1.1673
    -0.5879  -0.3222   0.2016   0.7865   4.0646   5.7900   6.7789   6.8763
     7.2384   8.5626   9.8721  11.2726  11.9979  12.2992  13.1415  13.7142
    14.4124  14.8462

          k = 0.1875 0.3200 0.0000 (  6401 PWs)   bands (ev):

   -44.9427 -23.1162 -23.0546 -22.8899 -12.3004 -11.9026  -1.4382  -1.2960
    -0.9013  -0.4789   0.1227   0.5635   4.0746   5.9019   6.9705   7.2446
     7.4118   9.0319  10.0049  11.4844  12.2166  12.4134  13.1738  13.4622
    13.6338  14.7354

          k = 0.1875 0.3911 0.0000 (  6389 PWs)   bands (ev):

   -44.9382 -23.1022 -23.0939 -22.9143 -12.2304 -11.8181  -1.6448  -1.2219
    -1.1531  -0.5512   0.0237   0.3429   4.1300   6.1370   7.0847   7.4749
     7.6775   9.5564   9.9629  11.6423  12.1208  12.3234  13.0761  13.3440
    13.9017  14.4571

          k = 0.1875 0.4622 0.0000 (  6382 PWs)   bands (ev):

   -44.9347 -23.1238 -23.0903 -22.9340 -12.1819 -11.7454  -1.8031  -1.4535
    -1.0581  -0.5750  -0.0607   0.1615   4.2106   6.4713   7.1224   7.6481
     7.7581   9.8189  10.1644  11.6731  11.8245  12.2551  12.8135  13.4638
    14.1958  14.4552

          k = 0.1875 0.5333 0.0000 (  6363 PWs)   bands (ev):

   -44.9328 -23.1390 -23.0843 -22.9450 -12.1572 -11.7033  -1.8873  -1.5805
    -1.0073  -0.5775  -0.0991   0.0492   4.2720   6.8019   7.1297   7.6200
     7.7485   9.6912  10.7213  11.5674  11.9048  12.1943  12.3138  13.4621
    14.2695  14.4386

          k = 0.1875-0.0356 0.0000 (  6417 PWs)   bands (ev):

   -44.9574 -23.1633 -22.8933 -22.8387 -12.5767 -12.1042  -1.8172  -0.5400
    -0.0891   0.0327   0.5432   1.0825   4.2224   5.7314   6.1385   6.4852
     6.9737   7.6663   9.1307  10.5324  11.7537  12.2378  13.6344  14.0722
    14.5403  15.0976

          k = 0.2500 0.1422 0.0000 (  6395 PWs)   bands (ev):

   -44.9494 -23.1385 -22.9910 -22.8550 -12.4228 -12.0056  -1.5718  -1.0879
    -0.5409  -0.0791   0.1751   0.9446   4.0247   5.9582   6.5168   6.6485
     7.2241   8.3110   9.7288  11.1227  11.7142  12.0090  13.7105  13.9544
    14.8943  15.0301

          k = 0.2500 0.2133 0.0000 (  6393 PWs)   bands (ev):

   -44.9460 -23.1275 -23.0284 -22.8671 -12.3595 -11.9557  -1.5043  -1.2448
    -0.7578  -0.2287   0.1577   0.8258   3.9822   6.0208   6.7393   6.8461
     7.3105   8.6044   9.8703  11.2739  11.7476  12.0380  13.6974  13.9616
    14.4978  14.8913

          k = 0.2500 0.2844 0.0000 (  6397 PWs)   bands (ev):

   -44.9419 -23.1144 -23.0634 -22.8905 -12.2901 -11.8886  -1.5354  -1.2634
    -0.9762  -0.4348   0.1289   0.5918   4.0288   6.0440   6.9188   7.2417
     7.4160   9.0254   9.9601  11.4411  11.9705  12.1682  13.4854  13.6363
    13.9726  14.6857

          k = 0.2500 0.3555 0.0000 (  6390 PWs)   bands (ev):

   -44.9378 -23.1017 -23.0903 -22.9215 -12.2269 -11.8120  -1.6300  -1.2174
    -1.1558  -0.5808   0.0171   0.3209   4.1585   6.1312   7.0468   7.4846
     7.6663   9.5583   9.9716  11.6513  12.1217  12.2665  13.0182  13.4272
    13.9772  14.5045

          k = 0.2500 0.4266 0.0000 (  6372 PWs)   bands (ev):

   -44.9343 -23.1078 -23.0899 -22.9539 -12.1778 -11.7398  -1.6890  -1.4076
    -1.0756  -0.6572  -0.1886   0.1259   4.3376   6.3068   7.0589   7.7073
     7.7768   9.9418  10.2058  11.5886  11.9002  12.4583  13.1295  13.5116
    14.1259  14.2439

          k = 0.2500 0.4977 0.0000 (  6380 PWs)   bands (ev):

   -44.9320 -23.1149 -23.0826 -22.9795 -12.1470 -11.6880  -1.7107  -1.5392
    -1.0116  -0.7082  -0.3664   0.0124   4.5037   6.5425   7.0269   7.6107
     7.9171   9.9113  10.8031  11.3650  12.0772  12.5503  12.8908  13.6545
    14.1016  14.3689

          k = 0.2500 0.5688 0.0000 (  6368 PWs)   bands (ev):

   -44.9312 -23.1164 -23.0800 -22.9895 -12.1365 -11.6691  -1.7177  -1.5790
    -0.9881  -0.7385  -0.4227  -0.0289   4.5735   6.6927   7.0072   7.4669
     7.9904   9.8879  10.9150  11.6515  12.1733  12.4949  12.5570  13.5929
    14.3746  14.4047

          k = 0.2500-0.0711 0.0000 (  6400 PWs)   bands (ev):

   -44.9517 -23.1459 -22.9594 -22.8533 -12.4671 -12.0358  -1.6316  -0.9235
    -0.3480  -0.1089   0.2621   0.9597   4.1144   5.7879   6.4422   6.5838
     7.1583   8.1504   9.6068  10.9970  11.8532  12.0680  13.3800  13.9866
    14.7781  15.0858

          k = 0.2500 0.0000 0.0000 (  6409 PWs)   bands (ev):

   -44.9525 -23.1485 -22.9461 -22.8551 -12.4830 -12.0459  -1.6536  -0.8473
    -0.2587  -0.1578   0.3016   0.9494   4.1628   5.6957   6.4422   6.5635
     7.1355   8.1018   9.5590  10.9502  11.9730  12.1077  13.1710  13.9262
    14.7624  14.9891

          k = 0.3125 0.1778 0.0000 (  6393 PWs)   bands (ev):

   -44.9432 -23.1197 -23.0606 -22.8707 -12.3163 -11.9124  -1.6068  -1.2742
    -0.9718  -0.1876   0.0952   0.8467   3.8915   6.2862   6.7893   6.9011
     7.3912   8.7327   9.8690  11.2333  11.6083  11.9819  13.6572  14.2543
    14.5770  14.8022

          k = 0.3125 0.2489 0.0000 (  6389 PWs)   bands (ev):

   -44.9402 -23.1102 -23.0899 -22.8841 -12.2668 -11.8598  -1.7245  -1.2548
    -1.1218  -0.3205   0.1004   0.7130   3.8994   6.3897   6.8830   7.2150
     7.4596   9.0199   9.8633  11.2459  11.7050  12.0268  13.4602  13.9336
    14.3965  14.7124

          k = 0.3125 0.3200 0.0000 (  6378 PWs)   bands (ev):

   -44.9369 -23.1110 -23.0989 -22.9105 -12.2169 -11.7969  -1.7916  -1.3364
    -1.1245  -0.4926   0.0746   0.4310   4.0297   6.4213   7.0243   7.4705
     7.6066   9.4978   9.8455  11.4355  11.9015  12.0668  12.9988  13.5241
    14.3537  14.6427

          k = 0.3125 0.3911 0.0000 (  6375 PWs)   bands (ev):

   -44.9339 -23.1177 -23.0895 -22.9468 -12.1739 -11.7337  -1.7802  -1.4579
    -1.0675  -0.6249  -0.0830   0.1483   4.2555   6.4756   7.0749   7.6355
     7.7376   9.8360  10.1699  11.6690  11.8010  12.2029  12.8203  13.5030
    14.2667  14.5224

          k = 0.3125 0.4622 0.0000 (  6377 PWs)   bands (ev):

   -44.9316 -23.1112 -23.0821 -22.9865 -12.1428 -11.6822  -1.7011  -1.5439
    -1.0175  -0.7281  -0.3927   0.0257   4.5200   6.5535   7.0163   7.6045
     7.8903   9.9260  10.7984  11.3505  12.0738  12.5158  12.9412  13.6055
    14.1325  14.3859

          k = 0.3125 0.5333 0.0000 (  6377 PWs)   bands (ev):

   -44.9303 -23.0975 -23.0782 -23.0183 -12.1264 -11.6532  -1.6731  -1.4960
    -0.9871  -0.8814  -0.5562  -0.0329   4.7182   6.6193   6.9580   7.4125
     8.0638  10.0611  10.6695  11.9402  12.2550  12.7468  12.8918  13.2104
    14.2401  14.5404

          k = 0.3125-0.1067 0.0000 (  6394 PWs)   bands (ev):

   -44.9455 -23.1271 -23.0290 -22.8698 -12.3564 -11.9491  -1.5074  -1.2546
    -0.7799  -0.2215   0.1541   0.8348   3.9824   6.0173   6.7179   6.8593
     7.3113   8.6018   9.8788  11.2540  11.7446  12.0081  13.6808  13.9152
    14.6113  14.8560

          k = 0.3125-0.0356 0.0000 (  6395 PWs)   bands (ev):

   -44.9468 -23.1311 -23.0066 -22.8746 -12.3789 -11.9678  -1.4792  -1.1833
    -0.6171  -0.3266   0.1972   0.7830   4.0817   5.7914   6.7022   6.8794
     7.2675   8.5613   9.8962  11.2448  11.9140  12.2843  13.1337  13.7237
    14.5501  14.8603

          k = 0.3750 0.2133 0.0000 (  6386 PWs)   bands (ev):

   -44.9380 -23.1195 -23.1031 -22.8840 -12.2348 -11.8190  -1.8958  -1.3683
    -1.1386  -0.2833   0.0650   0.7733   3.8157   6.6509   6.9466   7.3105
     7.5113   9.0866   9.7923  11.0659  11.6573  11.9778  13.1957  14.1427
    14.2548  14.5665

          k = 0.3750 0.2844 0.0000 (  6372 PWs)   bands (ev):

   -44.9358 -23.1376 -23.0962 -22.8968 -12.2022 -11.7748  -1.9825  -1.4768
    -1.0996  -0.3821   0.0680   0.6347   3.8687   6.7700   7.0335   7.4971
     7.5765   9.3553   9.7523  11.0953  11.7336  12.0023  12.8930  13.5746
    14.2987  14.5866

          k = 0.3750 0.3555 0.0000 (  6383 PWs)   bands (ev):

   -44.9336 -23.1425 -23.0892 -22.9237 -12.1709 -11.7281  -1.9731  -1.5542
    -1.0561  -0.5170   0.0417   0.3262   4.0520   6.8304   7.1274   7.5156
     7.6916   9.6054  10.0402  11.3821  11.8146  12.0358  12.5072  13.3114
    14.3078  14.5628

          k = 0.3750 0.4266 0.0000 (  6379 PWs)   bands (ev):

   -44.9317 -23.1326 -23.0832 -22.9609 -12.1453 -11.6868  -1.8656  -1.6014
    -1.0191  -0.6380  -0.1425   0.0642   4.3183   6.8191   7.1020   7.6051
     7.6903   9.7157  10.7344  11.5254  11.8331  12.2094  12.3797  13.4335
    14.3323  14.4666

          k = 0.3750 0.4977 0.0000 (  6379 PWs)   bands (ev):

   -44.9304 -23.1113 -23.0792 -23.0007 -12.1285 -11.6583  -1.7171  -1.5927
    -0.9936  -0.7672  -0.4602  -0.0011   4.5870   6.7147   7.0023   7.4848
     7.9201   9.9210  10.8662  11.6814  12.1300  12.5351  12.5561  13.4872
    14.4164  14.4312

          k = 0.3750 0.5688 0.0000 (  6392 PWs)   bands (ev):

   -44.9300 -23.0955 -23.0778 -23.0231 -12.1227 -11.6482  -1.6856  -1.5051
    -0.9743  -0.8998  -0.5634  -0.0213   4.7128   6.6289   6.9601   7.4432
     8.0223  10.0933  10.6215  12.0272  12.2041  12.7379  12.8680  13.1583
    14.3340  14.5115

          k = 0.3750-0.1422 0.0000 (  6376 PWs)   bands (ev):

   -44.9399 -23.1099 -23.0915 -22.8852 -12.2638 -11.8543  -1.7379  -1.2631
    -1.1365  -0.3089   0.0979   0.7255   3.8914   6.3689   6.8838   7.2803
     7.4226   9.0117   9.8692  11.2445  11.6961  12.0022  13.4565  14.0156
    14.3676  14.6291

          k = 0.3750-0.0711 0.0000 (  6390 PWs)   bands (ev):

   -44.9411 -23.1137 -23.0651 -22.8947 -12.2838 -11.8767  -1.5590  -1.2649
    -1.0225  -0.4193   0.1291   0.6068   4.0221   6.0372   6.9015   7.2841
     7.3956   9.0215   9.9672  11.4024  11.9604  12.1234  13.4866  13.7133
    13.9000  14.6907

          k = 0.3750 0.0000 0.0000 (  6385 PWs)   bands (ev):

   -44.9416 -23.1151 -23.0531 -22.9008 -12.2910 -11.8843  -1.4588  -1.2958
    -0.9504  -0.4814   0.1226   0.5568   4.0893   5.8958   6.9099   7.2721
     7.4134   9.0315  10.0194  11.4416  12.1082  12.3914  13.1908  13.5155
    13.6817  14.7905

          k = 0.4375 0.2489 0.0000 (  6370 PWs)   bands (ev):

   -44.9345 -23.1577 -23.0926 -22.8928 -12.1850 -11.7489  -2.1095  -1.5820
    -1.0769  -0.3482   0.0553   0.7276   3.7928   6.8534   7.1798   7.5604
     7.6676   9.3082   9.7027  10.9207  11.6521  11.9946  12.6727  13.6969
    14.0800  14.3309

          k = 0.4375 0.3200 0.0000 (  6380 PWs)   bands (ev):

   -44.9333 -23.1633 -23.0890 -22.9035 -12.1689 -11.7242  -2.1286  -1.6299
    -1.0537  -0.4126   0.0538   0.5964   3.8660   6.9386   7.2598   7.5396
     7.7140   9.4122   9.8343  11.0151  11.6731  12.0395  12.4647  13.3449
    14.1920  14.2938

          k = 0.4375 0.3911 0.0000 (  6370 PWs)   bands (ev):

   -44.9323 -23.1544 -23.0856 -22.9283 -12.1542 -11.7011  -2.0427  -1.6383
    -1.0317  -0.5203   0.0307   0.2940   4.0604   7.0153   7.2247   7.4774
     7.6855   9.5286  10.2939  11.3709  11.7952  12.0941  12.1150  13.2827
    14.2649  14.3934

          k = 0.4375 0.4622 0.0000 (  6371 PWs)   bands (ev):

   -44.9315 -23.1337 -23.0830 -22.9615 -12.1428 -11.6832  -1.8763  -1.6169
    -1.0168  -0.6350  -0.1387   0.0702   4.3086   6.8011   7.1183   7.6261
     7.6896   9.7245  10.7316  11.5484  11.8022  12.2247  12.3256  13.4591
    14.3320  14.4459

          k = 0.4375 0.5333 0.0000 (  6366 PWs)   bands (ev):

   -44.9310 -23.1120 -23.0816 -22.9903 -12.1366 -11.6735  -1.7229  -1.5761
    -1.0109  -0.7327  -0.3883   0.0399   4.5031   6.5520   7.0339   7.6960
     7.8066   9.9514  10.7619  11.4051  11.9805  12.5769  12.8344  13.6196
    14.1701  14.4184

          k = 0.4375-0.1778 0.0000 (  6370 PWs)   bands (ev):

   -44.9355 -23.1391 -23.0960 -22.8971 -12.1999 -11.7712  -1.9929  -1.4925
    -1.0990  -0.3734   0.0666   0.6444   3.8601   6.7531   7.0241   7.4745
     7.6433   9.3523   9.7543  11.1061  11.7143  11.9890  12.8674  13.6808
    14.2516  14.5136

          k = 0.4375-0.1067 0.0000 (  6389 PWs)   bands (ev):

   -44.9364 -23.1136 -23.0984 -22.9123 -12.2114 -11.7879  -1.8158  -1.3736
    -1.1246  -0.4771   0.0758   0.4497   4.0129   6.3993   7.0765   7.3692
     7.7063   9.4880   9.8578  11.4181  11.8738  12.0506  13.0264  13.5399
    14.3212  14.5564

          k = 0.4375-0.0356 0.0000 (  6381 PWs)   bands (ev):

   -44.9368 -23.1009 -23.0919 -22.9275 -12.2177 -11.7968  -1.6620  -1.2695
    -1.1590  -0.5701   0.0245   0.3343   4.1455   6.1279   7.0884   7.3682
     7.7612   9.5606   9.9782  11.5804  12.0592  12.3050  13.0370  13.4016
    13.9399  14.5270

          k =-0.5000-0.2844 0.0000 (  6382 PWs)   bands (ev):

   -44.9333 -23.1711 -23.0889 -22.8959 -12.1683 -11.7228  -2.1856  -1.6573
    -1.0540  -0.3710   0.0535   0.7121   3.7910   6.8963   7.3167   7.5883
     7.7958   9.3450   9.7099  10.8747  11.5858  12.0428  12.4742  13.5091
    13.9864  14.2006

          k =-0.5000-0.2133 0.0000 (  6373 PWs)   bands (ev):

   -44.9333 -23.1639 -23.0889 -22.9036 -12.1681 -11.7229  -2.1324  -1.6355
    -1.0532  -0.4095   0.0534   0.6000   3.8624   6.9498   7.2181   7.5257
     7.7671   9.4283   9.8177  11.0213  11.6745  12.0313  12.4358  13.4015
    14.1610  14.2756

          k =-0.5000-0.1422 0.0000 (  6377 PWs)   bands (ev):

   -44.9333 -23.1444 -23.0889 -22.9242 -12.1677 -11.7233  -1.9875  -1.5759
    -1.0543  -0.5081   0.0419   0.3386   4.0393   6.8027   7.1696   7.4201
     7.8003   9.6246  10.0279  11.3833  11.7992  12.0337  12.4546  13.3813
    14.2870  14.5004

          k =-0.5000-0.0711 0.0000 (  6377 PWs)   bands (ev):

   -44.9333 -23.1203 -23.0889 -22.9493 -12.1673 -11.7236  -1.8074  -1.5006
    -1.0635  -0.6160  -0.0743   0.1633   4.2344   6.4617   7.1338   7.5076
     7.8591   9.8499  10.1771  11.6234  11.7482  12.2668  12.7509  13.5298
    14.2571  14.4649

          k =-0.5000 0.0000 0.0000 (  6382 PWs)   bands (ev):

   -44.9333 -23.1080 -23.0889 -22.9621 -12.1671 -11.7238  -1.7154  -1.4613
    -1.0727  -0.6643  -0.1879   0.1434   4.3260   6.3090   7.0916   7.5837
     7.8831   9.9687  10.2114  11.5497  11.8102  12.5116  12.9986  13.5639
    14.1564  14.2712

     highest occupied, lowest unoccupied level (ev):     4.7182    5.6718

!    total energy              =    -591.24359147 Ry
     total all-electron energy =    -13333.876868 Ry
     estimated scf accuracy    <          7.1E-10 Ry

     The total energy is the sum of the following terms:
     one-electron contribution =    -202.93349268 Ry
     hartree contribution      =     109.24466099 Ry
     xc contribution           =     -37.58085515 Ry
     ewald contribution        =     -28.85885533 Ry
     one-center paw contrib.   =    -431.11504930 Ry

     convergence has been achieved in   9 iterations

     Forces acting on atoms (cartesian axes, Ry/au):

     atom    1 type  1   force =     0.00000000   -0.00792496   -0.00008567
     atom    2 type  2   force =     0.00000000    0.00401193   -0.00293741
     atom    3 type  3   force =     0.00000000    0.00391303    0.00302308
     The non-local contrib.  to forces
     atom    1 type  1   force =     0.00000000   -0.00086335   -0.00070204
     atom    2 type  2   force =     0.00000000    0.00296185   -0.21387658
     atom    3 type  3   force =     0.00000000    0.00304675    0.21034717
     The ionic contribution  to forces
     atom    1 type  1   force =    -0.00000001    0.01031745   -0.31418880
     atom    2 type  2   force =     0.00000000   -0.00468809   20.82015745
     atom    3 type  3   force =     0.00000000   -0.00562936  -20.50596866
     The local contribution  to forces
     atom    1 type  1   force =     0.00000000   -0.01718987    0.31445613
     atom    2 type  2   force =     0.00000003    0.00582323  -20.61735405
     atom    3 type  3   force =    -0.00000000    0.00672358   20.30262128
     The core correction contribution to forces
     atom    1 type  1   force =     0.00000000   -0.00015989    0.00038241
     atom    2 type  2   force =    -0.00000000   -0.00005619    0.00818983
     atom    3 type  3   force =    -0.00000000   -0.00019934   -0.00389105
     The Hubbard contrib.    to forces
     atom    1 type  1   force =     0.00000000    0.00000000    0.00000000
     atom    2 type  2   force =     0.00000000    0.00000000    0.00000000
     atom    3 type  3   force =     0.00000000    0.00000000    0.00000000
     The SCF correction term to forces
     atom    1 type  1   force =    -0.00000000   -0.00000047    0.00002358
     atom    2 type  2   force =     0.00000000   -0.00000003    0.00000289
     atom    3 type  3   force =     0.00000000    0.00000025   -0.00002870

     Total force =     0.010582     Total SCF correction =     0.000037

     BFGS Geometry Optimization
     Energy error            =      0.0E+00 Ry
     Gradient error          =      7.9E-03 Ry/Bohr

     number of scf cycles    =   1
     number of bfgs steps    =   0

     energy             new  =    -591.2435914684 Ry

     new trust radius        =       0.0079254225 bohr
     new conv_thr            =       0.0000000100 Ry


ATOMIC_POSITIONS (angstrom)
Zr            0.0000000000       -0.0041937080       10.2766847876
Cl           -0.0000000017        2.0165514434       11.9632362608
Br           -0.0000000017        2.0164991091        8.4232277260



     Writing config-only to output data dir ./tmp/ZrClBr.save/
     NEW-OLD atomic charge density approx. for the potential

     Check: negative core charge=   -0.000004

     total cpu time spent up to now is       19.8 secs

     Self-consistent Calculation

     iteration #  1     ecut=    65.00 Ry     beta= 0.70
     Davidson diagonalization with overlap
     ethr =  1.00E-06,  avg # of iterations =  3.0

     Threshold (ethr) on eigenvalues was too large:
     Diagonalizing with lowered threshold

     Davidson diagonalization with overlap
     ethr =  1.39E-08,  avg # of iterations =  3.3

     total cpu time spent up to now is       23.8 secs

     total energy              =    -591.24368874 Ry
     estimated scf accuracy    <       0.00000394 Ry

     iteration #  2     ecut=    65.00 Ry     beta= 0.70
     Davidson diagonalization with overlap
     ethr =  1.52E-08,  avg # of iterations =  2.0

     total cpu time spent up to now is       25.4 secs

     total energy              =    -591.24368843 Ry
     estimated scf accuracy    <       0.00000644 Ry

     iteration #  3     ecut=    65.00 Ry     beta= 0.70
     Davidson diagonalization with overlap
     ethr =  1.52E-08,  avg # of iterations =  2.0

     total cpu time spent up to now is       27.0 secs

     total energy              =    -591.24369002 Ry
     estimated scf accuracy    <       0.00000071 Ry

     iteration #  4     ecut=    65.00 Ry     beta= 0.70
     Davidson diagonalization with overlap
     ethr =  2.74E-09,  avg # of iterations =  1.0

     total cpu time spent up to now is       28.3 secs

     total energy              =    -591.24369014 Ry
     estimated scf accuracy    <       0.00000003 Ry

     iteration #  5     ecut=    65.00 Ry     beta= 0.70
     Davidson diagonalization with overlap
     ethr =  9.67E-11,  avg # of iterations =  2.0

     total cpu time spent up to now is       29.9 secs

     total energy              =    -591.24369015 Ry
     estimated scf accuracy    <       0.00000002 Ry

     iteration #  6     ecut=    65.00 Ry     beta= 0.70
     Davidson diagonalization with overlap
     ethr =  8.08E-11,  avg # of iterations =  1.2

     total cpu time spent up to now is       31.3 secs

     End of self-consistent calculation

          k = 0.0000 0.0000 0.0000 (  6439 PWs)   bands (ev):

   -44.9614 -23.1842 -22.8158 -22.7940 -12.7396 -12.1882  -2.0989  -0.0439
     0.1209   0.2123   1.2679   1.3940   4.2593   5.8173   6.0120   6.5810
     6.6023   6.7111   8.3329   9.3514  11.3147  13.4520  13.6173  13.8663
    14.5653  15.0343

          k = 0.0000 0.0711 0.0000 (  6441 PWs)   bands (ev):

   -44.9603 -23.1806 -22.8300 -22.7969 -12.7152 -12.1778  -2.0556  -0.1339
     0.0943   0.2014   1.1168   1.3606   4.2556   5.7689   6.0437   6.5696
     6.6388   6.8872   8.4512   9.5799  11.3771  13.0496  13.7390  14.1956
    14.5387  14.6675

          k = 0.0000 0.1422 0.0000 (  6417 PWs)   bands (ev):

   -44.9570 -23.1702 -22.8702 -22.8050 -12.6463 -12.1467  -1.9336  -0.3844
     0.0073   0.1664   0.7474   1.2731   4.2198   5.6967   6.1454   6.5384
     6.7939   7.3215   8.7841  10.1306  11.5616  12.5147  13.8790  14.0861
    14.4436  14.7557

          k = 0.0000 0.2133 0.0000 (  6433 PWs)   bands (ev):

   -44.9522 -23.1547 -22.9296 -22.8172 -12.5456 -12.0952  -1.7570  -0.7403
    -0.1978   0.1037   0.3656   1.1608   4.1104   5.7395   6.3306   6.5843
     7.0017   7.8342   9.2616  10.7212  11.7834  12.1170  13.4080  14.2438
    14.5902  14.9997

          k = 0.0000 0.2844 0.0000 (  6391 PWs)   bands (ev):

   -44.9464 -23.1362 -22.9987 -22.8314 -12.4327 -12.0239  -1.5762  -1.1230
    -0.5822   0.0167   0.1597   1.0510   3.9493   5.9554   6.6050   6.7056
     7.2133   8.3159   9.6889  11.1125  11.7266  11.9809  13.6003  13.9236
    14.8369  15.0337

          k = 0.0000 0.3555 0.0000 (  6383 PWs)   bands (ev):

   -44.9406 -23.1178 -23.0666 -22.8456 -12.3300 -11.9369  -1.6275  -1.2838
    -0.9925  -0.0807   0.0690   0.9594   3.8078   6.3047   6.8615   6.9525
     7.3923   8.7440   9.8278  11.2085  11.6482  11.9656  13.5603  14.1617
    14.4807  14.8798

          k = 0.0000 0.4266 0.0000 (  6391 PWs)   bands (ev):

   -44.9357 -23.1237 -23.1017 -22.8577 -12.2529 -11.8482  -1.9222  -1.3643
    -1.1377  -0.1685   0.0246   0.8916   3.7280   6.6969   7.0235   7.3215
     7.5227   9.1035   9.7320  11.0942  11.6598  11.9702  13.0748  14.0914
    14.3261  14.4556

          k = 0.0000 0.4977 0.0000 (  6374 PWs)   bands (ev):

   -44.9324 -23.1611 -23.0913 -22.8657 -12.2066 -11.7809  -2.1371  -1.5624
    -1.0698  -0.2288   0.0050   0.8499   3.7028   6.9455   7.2369   7.5750
     7.6467   9.3224   9.6273  10.9967  11.6183  11.9413  12.5915  13.8525
    13.9673  14.2468

          k = 0.0000-0.5688 0.0000 (  6362 PWs)   bands (ev):

   -44.9313 -23.1742 -23.0876 -22.8685 -12.1912 -11.7557  -2.2136  -1.6321
    -1.0447  -0.2502  -0.0003   0.8358   3.7002   7.0017   7.3713   7.6096
     7.7567   9.3392   9.6456  10.9665  11.5311  11.9605  12.4229  13.6686
    13.8833  14.1354

          k = 0.0625 0.0356 0.0000 (  6441 PWs)   bands (ev):

   -44.9602 -23.1805 -22.8228 -22.8048 -12.7147 -12.1767  -2.0552  -0.1110
     0.1040   0.1638   1.1774   1.2920   4.2631   5.8219   5.9778   6.5461
     6.6592   6.8911   8.4583   9.5836  11.3778  13.1021  13.6201  14.2480
    14.5905  14.7859

          k = 0.0625 0.1067 0.0000 (  6425 PWs)   bands (ev):

   -44.9580 -23.1735 -22.8531 -22.8072 -12.6680 -12.1559  -1.9724  -0.2844
     0.0329   0.1599   0.8850   1.2624   4.2456   5.7236   6.0833   6.5440
     6.7397   7.1940   8.6830   9.9702  11.5052  12.6759  13.8768  14.1260
    14.4767  14.7162

          k = 0.0625 0.1778 0.0000 (  6423 PWs)   bands (ev):

   -44.9539 -23.1605 -22.9036 -22.8167 -12.5832 -12.1145  -1.8221  -0.5848
    -0.1053   0.1052   0.5036   1.1648   4.1787   5.6783   6.2610   6.5706
     6.9124   7.6618   9.0917  10.5327  11.7590  12.2485  13.5067  14.1076
    14.5828  15.0029

          k = 0.0625 0.2489 0.0000 (  6405 PWs)   bands (ev):

   -44.9486 -23.1435 -22.9671 -22.8305 -12.4764 -12.0529  -1.6367  -0.9533
    -0.3846  -0.0329   0.2608   1.0427   4.0509   5.7795   6.5258   6.6734
     7.1155   8.1524   9.5612  11.0020  11.8781  12.0737  13.2814  13.9784
    14.8114  15.0132

          k = 0.0625 0.3200 0.0000 (  6400 PWs)   bands (ev):

   -44.9429 -23.1251 -23.0344 -22.8459 -12.3691 -11.9727  -1.5144  -1.2708
    -0.7962  -0.1507   0.1554   0.9225   3.9120   6.0373   6.7992   6.8998
     7.3014   8.6105   9.8416  11.2462  11.7771  12.0162  13.6273  13.8690
    14.4825  14.8625

          k = 0.0625 0.3911 0.0000 (  6385 PWs)   bands (ev):

   -44.9375 -23.1083 -23.0952 -22.8603 -12.2806 -11.8827  -1.7539  -1.2604
    -1.1346  -0.2283   0.0824   0.8206   3.8186   6.4078   6.9667   7.2666
     7.4448   9.0290   9.8230  11.2435  11.7364  12.0142  13.3564  13.9331
    14.3507  14.6321

          k = 0.0625 0.4622 0.0000 (  6380 PWs)   bands (ev):

   -44.9334 -23.1419 -23.0946 -22.8712 -12.2203 -11.8024  -2.0132  -1.4707
    -1.0947  -0.2771   0.0311   0.7478   3.7838   6.8088   7.1103   7.5071
     7.5956   9.3744   9.6855  11.1559  11.7171  11.9760  12.7955  13.6542
    14.2249  14.4830

          k = 0.0625 0.5333 0.0000 (  6366 PWs)   bands (ev):

   -44.9312 -23.1666 -23.0875 -22.8772 -12.1903 -11.7548  -2.1572  -1.6085
    -1.0451  -0.3013   0.0050   0.7101   3.7815   7.0396   7.2884   7.5508
     7.7138   9.4059   9.7791  11.1079  11.6334  11.9658  12.4105  13.4359
    14.1283  14.2270

          k = 0.1250 0.0711 0.0000 (  6421 PWs)   bands (ev):

   -44.9567 -23.1699 -22.8573 -22.8207 -12.6442 -12.1422  -1.9321  -0.3392
     0.0229   0.0918   0.8123   1.1770   4.2494   5.7699   6.0299   6.5084
     6.8139   7.3284   8.8082  10.1381  11.5641  12.5437  13.9730  14.0208
    14.4448  14.8554

          k = 0.1250 0.1422 0.0000 (  6411 PWs)   bands (ev):

   -44.9537 -23.1603 -22.8974 -22.8249 -12.5816 -12.1111  -1.8213  -0.5605
    -0.1005   0.0723   0.5271   1.1118   4.2023   5.6933   6.2160   6.5639
     6.9126   7.6640   9.1074  10.5358  11.7601  12.2687  13.5718  14.0848
    14.5511  15.0610

          k = 0.1250 0.2133 0.0000 (  6418 PWs)   bands (ev):

   -44.9492 -23.1459 -22.9503 -22.8378 -12.4907 -12.0595  -1.6588  -0.8596
    -0.2865  -0.0993   0.3035   0.9845   4.1253   5.6846   6.5017   6.6721
     7.0672   8.1025   9.5215  10.9607  12.0300  12.1430  13.1005  13.9135
    14.7736  14.9601

          k = 0.1250 0.2844 0.0000 (  6391 PWs)   bands (ev):

   -44.9439 -23.1288 -23.0095 -22.8553 -12.3899 -11.9880  -1.4843  -1.1859
    -0.6168  -0.2865   0.2047   0.8229   4.0382   5.8040   6.8051   6.8979
     7.2343   8.5649   9.8643  11.2601  11.9769  12.3425  13.0724  13.7086
    14.4302  14.8155

          k = 0.1250 0.3555 0.0000 (  6393 PWs)   bands (ev):

   -44.9385 -23.1118 -23.0669 -22.8739 -12.2985 -11.9020  -1.5598  -1.2671
    -1.0019  -0.3781   0.1289   0.6550   3.9779   6.0629   6.9858   7.2633
     7.4039   9.0290   9.9435  11.4173  12.0185  12.1685  13.4450  13.6418
    13.8787  14.6227

          k = 0.1250 0.4266 0.0000 (  6390 PWs)   bands (ev):

   -44.9340 -23.1149 -23.0969 -22.8900 -12.2296 -11.8162  -1.8216  -1.3437
    -1.1225  -0.4200   0.0608   0.5090   3.9654   6.4322   7.1261   7.4457
     7.6390   9.5042   9.8128  11.4518  11.9243  12.0740  13.0096  13.4619
    14.2842  14.5416

          k = 0.1250 0.4977 0.0000 (  6371 PWs)   bands (ev):

   -44.9310 -23.1462 -23.0873 -22.9008 -12.1877 -11.7522  -2.0022  -1.5430
    -1.0491  -0.4320   0.0105   0.4102   3.9843   6.8372   7.2182   7.5132
     7.7244   9.5928  10.0118  11.4594  11.8205  12.0052  12.4525  13.3392
    14.2358  14.4919

          k = 0.1250 0.5688 0.0000 (  6366 PWs)   bands (ev):

   -44.9299 -23.1572 -23.0839 -22.9046 -12.1738 -11.7285  -2.0662  -1.6123
    -1.0240  -0.4328  -0.0086   0.3756   3.9972   7.0542   7.2751   7.5220
     7.6699   9.4978  10.2749  11.4717  11.7790  12.0384  12.0998  13.2952
    14.1971  14.3743

          k = 0.1250 0.0000 0.0000 (  6449 PWs)   bands (ev):

   -44.9578 -23.1732 -22.8379 -22.8245 -12.6665 -12.1526  -1.9712  -0.2460
     0.0412   0.1013   0.9473   1.1811   4.2648   5.8275   5.9492   6.4900
     6.7847   7.2006   8.7016   9.9757  11.5055  12.6934  13.7830  14.2530
    14.5404  14.7437

          k = 0.1875 0.1067 0.0000 (  6401 PWs)   bands (ev):

   -44.9515 -23.1539 -22.9172 -22.8354 -12.5411 -12.0855  -1.7548  -0.6991
    -0.1660   0.0176   0.3978   1.0572   4.1676   5.7786   6.2225   6.5460
     7.0186   7.8374   9.3020  10.7247  11.7819  12.1462  13.5330  14.2443
    14.4916  15.1289

          k = 0.1875 0.1778 0.0000 (  6409 PWs)   bands (ev):

   -44.9480 -23.1429 -22.9583 -22.8445 -12.4725 -12.0443  -1.6358  -0.9221
    -0.3488  -0.0947   0.2647   0.9598   4.1025   5.7795   6.4679   6.6544
     7.1169   8.1520   9.5900  11.0068  11.8792  12.0992  13.3738  13.9819
    14.7875  15.0599

          k = 0.1875 0.2489 0.0000 (  6412 PWs)   bands (ev):

   -44.9435 -23.1284 -23.0051 -22.8628 -12.3874 -11.9828  -1.4841  -1.1704
    -0.5917  -0.3232   0.2006   0.7818   4.0675   5.7950   6.7841   6.8813
     7.2389   8.5634   9.8770  11.2672  11.9933  12.3036  13.1415  13.7244
    14.4146  14.8458

          k = 0.1875 0.3200 0.0000 (  6401 PWs)   bands (ev):

   -44.9386 -23.1128 -23.0512 -22.8867 -12.3029 -11.9047  -1.4414  -1.2992
    -0.9054  -0.4800   0.1215   0.5592   4.0781   5.9067   6.9773   7.2477
     7.4124   9.0321  10.0115  11.4791  12.2096  12.4151  13.1800  13.4663
    13.6395  14.7367

          k = 0.1875 0.3911 0.0000 (  6389 PWs)   bands (ev):

   -44.9341 -23.0988 -23.0904 -22.9112 -12.2328 -11.8203  -1.6466  -1.2257
    -1.1579  -0.5535   0.0227   0.3398   4.1342   6.1412   7.0917   7.4737
     7.6810   9.5566   9.9687  11.6381  12.1187  12.3245  13.0773  13.3483
    13.9077  14.4612

          k = 0.1875 0.4622 0.0000 (  6382 PWs)   bands (ev):

   -44.9306 -23.1202 -23.0869 -22.9310 -12.1841 -11.7478  -1.8039  -1.4579
    -1.0633  -0.5789  -0.0621   0.1606   4.2156   6.4746   7.1284   7.6462
     7.7626   9.8195  10.1678  11.6742  11.8238  12.2563  12.8137  13.4661
    14.2008  14.4578

          k = 0.1875 0.5333 0.0000 (  6363 PWs)   bands (ev):

   -44.9288 -23.1354 -23.0809 -22.9420 -12.1593 -11.7059  -1.8875  -1.5852
    -1.0129  -0.5825  -0.1020   0.0511   4.2775   6.8039   7.1351   7.6261
     7.7459   9.6896  10.7277  11.5697  11.9044  12.1950  12.3138  13.4638
    14.2715  14.4465

          k = 0.1875-0.0356 0.0000 (  6417 PWs)   bands (ev):

   -44.9534 -23.1599 -22.8903 -22.8351 -12.5792 -12.1061  -1.8195  -0.5459
    -0.0926   0.0349   0.5379   1.0812   4.2229   5.7364   6.1454   6.4952
     6.9659   7.6671   9.1311  10.5356  11.7553  12.2429  13.6240  14.0629
    14.5555  15.0910

          k = 0.2500 0.1422 0.0000 (  6395 PWs)   bands (ev):

   -44.9453 -23.1350 -22.9880 -22.8515 -12.4252 -12.0079  -1.5742  -1.0920
    -0.5450  -0.0809   0.1758   0.9416   4.0238   5.9644   6.5214   6.6566
     7.2228   8.3131   9.7328  11.1213  11.7182  12.0098  13.7042  13.9603
    14.8974  15.0223

          k = 0.2500 0.2133 0.0000 (  6393 PWs)   bands (ev):

   -44.9419 -23.1239 -23.0253 -22.8637 -12.3619 -11.9580  -1.5076  -1.2479
    -0.7622  -0.2281   0.1565   0.8220   3.9822   6.0263   6.7479   6.8524
     7.3084   8.6061   9.8752  11.2699  11.7528  12.0361  13.7016  13.9602
    14.5006  14.8865

          k = 0.2500 0.2844 0.0000 (  6397 PWs)   bands (ev):

   -44.9378 -23.1109 -23.0602 -22.8872 -12.2925 -11.8909  -1.5395  -1.2657
    -0.9810  -0.4334   0.1273   0.5878   4.0294   6.0496   6.9315   7.2461
     7.4122   9.0260   9.9663  11.4372  11.9749  12.1641  13.4932  13.6360
    13.9723  14.6860

          k = 0.2500 0.3555 0.0000 (  6390 PWs)   bands (ev):

   -44.9337 -23.0982 -23.0870 -22.9183 -12.2292 -11.8144  -1.6332  -1.2222
    -1.1588  -0.5800   0.0154   0.3176   4.1595   6.1369   7.0604   7.4804
     7.6700   9.5579   9.9786  11.6466  12.1178  12.2712  13.0198  13.4310
    13.9800  14.5073

          k = 0.2500 0.4266 0.0000 (  6372 PWs)   bands (ev):

   -44.9302 -23.1044 -23.0864 -22.9508 -12.1801 -11.7423  -1.6912  -1.4126
    -1.0790  -0.6580  -0.1914   0.1251   4.3394   6.3118   7.0686   7.7071
     7.7798   9.9465  10.2065  11.5879  11.8956  12.4636  13.1276  13.5152
    14.1299  14.2491

          k = 0.2500 0.4977 0.0000 (  6380 PWs)   bands (ev):

   -44.9279 -23.1114 -23.0791 -22.9765 -12.1492 -11.6906  -1.7121  -1.5438
    -1.0157  -0.7109  -0.3701   0.0141   4.5064   6.5459   7.0343   7.6171
     7.9160   9.9137  10.8045  11.3675  12.0727  12.5539  12.8909  13.6551
    14.1081  14.3734

          k = 0.2500 0.5688 0.0000 (  6368 PWs)   bands (ev):

   -44.9271 -23.1129 -23.0765 -22.9866 -12.1387 -11.6718  -1.7192  -1.5830
    -0.9925  -0.7420  -0.4267  -0.0262   4.5767   6.6943   7.0140   7.4745
     7.9898   9.8892  10.9183  11.6544  12.1690  12.4947  12.5600  13.5938
    14.3797  14.4117

          k = 0.2500-0.0711 0.0000 (  6400 PWs)   bands (ev):

   -44.9476 -23.1424 -22.9566 -22.8498 -12.4694 -12.0381  -1.6337  -0.9283
    -0.3524  -0.1098   0.2619   0.9580   4.1124   5.7948   6.4464   6.5926
     7.1554   8.1523   9.6101  10.9986  11.8568  12.0724  13.3709  13.9846
    14.7856  15.0837

          k = 0.2500 0.0000 0.0000 (  6409 PWs)   bands (ev):

   -44.9484 -23.1450 -22.9433 -22.8514 -12.4853 -12.0482  -1.6556  -0.8525
    -0.2655  -0.1553   0.3001   0.9486   4.1602   5.7029   6.4466   6.5730
     7.1313   8.1035   9.5621  10.9529  11.9788  12.1135  13.1593  13.9192
    14.7724  14.9890

          k = 0.3125 0.1778 0.0000 (  6393 PWs)   bands (ev):

   -44.9391 -23.1161 -23.0578 -22.8673 -12.3185 -11.9150  -1.6107  -1.2762
    -0.9751  -0.1890   0.0953   0.8441   3.8893   6.2931   6.7991   6.9041
     7.3916   8.7359   9.8738  11.2312  11.6135  11.9829  13.6589  14.2528
    14.5778  14.7992

          k = 0.3125 0.2489 0.0000 (  6389 PWs)   bands (ev):

   -44.9361 -23.1066 -23.0870 -22.8807 -12.2691 -11.8623  -1.7286  -1.2572
    -1.1248  -0.3194   0.0983   0.7098   3.8980   6.3956   6.8961   7.2209
     7.4559   9.0221   9.8680  11.2466  11.7078  12.0265  13.4623  13.9344
    14.3952  14.7104

          k = 0.3125 0.3200 0.0000 (  6378 PWs)   bands (ev):

   -44.9328 -23.1080 -23.0953 -22.9072 -12.2193 -11.7995  -1.7955  -1.3403
    -1.1264  -0.4910   0.0725   0.4274   4.0288   6.4271   7.0420   7.4651
     7.6105   9.4991   9.8503  11.4368  11.9020  12.0660  13.0012  13.5259
    14.3533  14.6411

          k = 0.3125 0.3911 0.0000 (  6375 PWs)   bands (ev):

   -44.9298 -23.1147 -23.0859 -22.9435 -12.1763 -11.7363  -1.7837  -1.4623
    -1.0694  -0.6242  -0.0847   0.1455   4.2549   6.4810   7.0893   7.6324
     7.7429   9.8432  10.1682  11.6668  11.8004  12.2066  12.8214  13.5055
    14.2685  14.5220

          k = 0.3125 0.4622 0.0000 (  6377 PWs)   bands (ev):

   -44.9275 -23.1081 -23.0785 -22.9833 -12.1451 -11.6848  -1.7043  -1.5482
    -1.0197  -0.7293  -0.3947   0.0251   4.5203   6.5574   7.0257   7.6109
     7.8918   9.9318  10.7957  11.3531  12.0691  12.5199  12.9429  13.6059
    14.1369  14.3897

          k = 0.3125 0.5333 0.0000 (  6377 PWs)   bands (ev):

   -44.9262 -23.0943 -23.0746 -23.0152 -12.1288 -11.6559  -1.6771  -1.4984
    -0.9893  -0.8854  -0.5575  -0.0323   4.7193   6.6203   6.9657   7.4206
     8.0674  10.0660  10.6690  11.9422  12.2518  12.7476  12.8927  13.2117
    14.2475  14.5429

          k = 0.3125-0.1067 0.0000 (  6394 PWs)   bands (ev):

   -44.9415 -23.1235 -23.0263 -22.8662 -12.3586 -11.9518  -1.5103  -1.2577
    -0.7830  -0.2249   0.1556   0.8332   3.9793   6.0248   6.7249   6.8619
     7.3138   8.6049   9.8845  11.2533  11.7482  12.0113  13.6797  13.9128
    14.6068  14.8575

          k = 0.3125-0.0356 0.0000 (  6395 PWs)   bands (ev):

   -44.9427 -23.1275 -23.0040 -22.8709 -12.3810 -11.9705  -1.4814  -1.1874
    -0.6197  -0.3303   0.1980   0.7825   4.0777   5.7991   6.7095   6.8812
     7.2702   8.5639   9.9025  11.2462  11.9199  12.2882  13.1262  13.7183
    14.5464  14.8625

          k = 0.3750 0.2133 0.0000 (  6386 PWs)   bands (ev):

   -44.9339 -23.1168 -23.0994 -22.8805 -12.2371 -11.8218  -1.9000  -1.3702
    -1.1402  -0.2846   0.0641   0.7710   3.8130   6.6592   6.9574   7.3120
     7.5127   9.0923   9.7944  11.0672  11.6608  11.9808  13.1951  14.1454
    14.2504  14.5656

          k = 0.3750 0.2844 0.0000 (  6372 PWs)   bands (ev):

   -44.9317 -23.1349 -23.0925 -22.8933 -12.2046 -11.7775  -1.9867  -1.4791
    -1.1011  -0.3816   0.0655   0.6320   3.8667   6.7792   7.0452   7.4979
     7.5780   9.3612   9.7525  11.0994  11.7359  12.0035  12.8902  13.5802
    14.2963  14.5824

          k = 0.3750 0.3555 0.0000 (  6383 PWs)   bands (ev):

   -44.9295 -23.1397 -23.0855 -22.9203 -12.1733 -11.7308  -1.9772  -1.5570
    -1.0576  -0.5163   0.0396   0.3233   4.0504   6.8373   7.1439   7.5103
     7.6975   9.6127  10.0378  11.3856  11.8191  12.0350  12.5033  13.3176
    14.3059  14.5597

          k = 0.3750 0.4266 0.0000 (  6379 PWs)   bands (ev):

   -44.9276 -23.1298 -23.0795 -22.9575 -12.1477 -11.6894  -1.8695  -1.6045
    -1.0208  -0.6383  -0.1438   0.0619   4.3172   6.8235   7.1131   7.6115
     7.6923   9.7209  10.7338  11.5283  11.8330  12.2104  12.3803  13.4369
    14.3310  14.4663

          k = 0.3750 0.4977 0.0000 (  6379 PWs)   bands (ev):

   -44.9263 -23.1086 -23.0756 -22.9973 -12.1310 -11.6610  -1.7206  -1.5961
    -0.9958  -0.7685  -0.4612  -0.0018   4.5867   6.7162   7.0104   7.4914
     7.9275   9.9248  10.8693  11.6815  12.1292  12.5382  12.5540  13.4904
    14.4174  14.4311

          k = 0.3750 0.5688 0.0000 (  6392 PWs)   bands (ev):

   -44.9259 -23.0929 -23.0742 -23.0195 -12.1252 -11.6509  -1.6890  -1.5086
    -0.9787  -0.8994  -0.5644  -0.0214   4.7129   6.6289   6.9677   7.4501
     8.0310  10.0960  10.6260  12.0268  12.2049  12.7372  12.8658  13.1621
    14.3353  14.5122

          k = 0.3750-0.1422 0.0000 (  6376 PWs)   bands (ev):

   -44.9358 -23.1063 -23.0888 -22.8816 -12.2660 -11.8571  -1.7421  -1.2646
    -1.1383  -0.3128   0.0992   0.7241   3.8881   6.3765   6.8915   7.2800
     7.4291   9.0173   9.8732  11.2420  11.7013  12.0072  13.4554  14.0125
    14.3678  14.6294

          k = 0.3750-0.0711 0.0000 (  6390 PWs)   bands (ev):

   -44.9370 -23.1100 -23.0625 -22.8911 -12.2860 -11.8795  -1.5633  -1.2666
    -1.0236  -0.4244   0.1303   0.6066   4.0182   6.0444   6.9059   7.2871
     7.4021   9.0257   9.9739  11.4022  11.9645  12.1280  13.4826  13.7109
    13.8967  14.6886

          k = 0.3750 0.0000 0.0000 (  6385 PWs)   bands (ev):

   -44.9375 -23.1114 -23.0506 -22.8971 -12.2932 -11.8871  -1.4634  -1.2973
    -0.9509  -0.4873   0.1233   0.5574   4.0851   5.9030   6.9132   7.2773
     7.4188   9.0350  10.0273  11.4433  12.1198  12.3867  13.1886  13.5091
    13.6777  14.7895

          k = 0.4375 0.2489 0.0000 (  6370 PWs)   bands (ev):

   -44.9304 -23.1551 -23.0889 -22.8894 -12.1874 -11.7516  -2.1138  -1.5831
    -1.0783  -0.3495   0.0538   0.7256   3.7902   6.8655   7.1883   7.5615
     7.6686   9.3182   9.7006  10.9239  11.6554  11.9966  12.6738  13.6957
    14.0770  14.3293

          k = 0.4375 0.3200 0.0000 (  6380 PWs)   bands (ev):

   -44.9292 -23.1607 -23.0852 -22.9001 -12.1715 -11.7269  -2.1328  -1.6312
    -1.0551  -0.4132   0.0517   0.5943   3.8637   6.9532   7.2658   7.5391
     7.7177   9.4203   9.8329  11.0189  11.6771  12.0401  12.4634  13.3483
    14.1880  14.2904

          k = 0.4375 0.3911 0.0000 (  6370 PWs)   bands (ev):

   -44.9282 -23.1518 -23.0818 -22.9248 -12.1567 -11.7038  -2.0469  -1.6399
    -1.0333  -0.5213   0.0292   0.2921   4.0584   7.0246   7.2361   7.4774
     7.6890   9.5334  10.2965  11.3724  11.7978  12.0956  12.1155  13.2838
    14.2621  14.3916

          k = 0.4375 0.4622 0.0000 (  6371 PWs)   bands (ev):

   -44.9274 -23.1312 -23.0793 -22.9580 -12.1454 -11.6859  -1.8804  -1.6186
    -1.0189  -0.6367  -0.1399   0.0695   4.3071   6.8049   7.1262   7.6351
     7.6931   9.7278  10.7386  11.5481  11.8014  12.2256  12.3283  13.4600
    14.3289  14.4452

          k = 0.4375 0.5333 0.0000 (  6366 PWs)   bands (ev):

   -44.9269 -23.1096 -23.0779 -22.9866 -12.1392 -11.6762  -1.7266  -1.5782
    -1.0139  -0.7342  -0.3894   0.0400   4.5021   6.5547   7.0399   7.6981
     7.8198   9.9529  10.7717  11.4053  11.9820  12.5713  12.8373  13.6238
    14.1643  14.4153

          k = 0.4375-0.1778 0.0000 (  6370 PWs)   bands (ev):

   -44.9314 -23.1365 -23.0923 -22.8936 -12.2023 -11.7740  -1.9972  -1.4933
    -1.1005  -0.3767   0.0668   0.6430   3.8571   6.7606   7.0340   7.4804
     7.6420   9.3629   9.7533  11.1056  11.7195  11.9930  12.8692  13.6724
    14.2527  14.5156

          k = 0.4375-0.1067 0.0000 (  6389 PWs)   bands (ev):

   -44.9323 -23.1111 -23.0947 -22.9087 -12.2138 -11.7907  -1.8200  -1.3742
    -1.1264  -0.4816   0.0764   0.4494   4.0097   6.4058   7.0779   7.3849
     7.7045   9.4964   9.8599  11.4155  11.8815  12.0551  13.0247  13.5353
    14.3202  14.5574

          k = 0.4375-0.0356 0.0000 (  6381 PWs)   bands (ev):

   -44.9327 -23.0973 -23.0894 -22.9237 -12.2201 -11.7996  -1.6664  -1.2696
    -1.1610  -0.5755   0.0244   0.3354   4.1422   6.1339   7.0847   7.3895
     7.7594   9.5654   9.9846  11.5819  12.0731  12.2978  13.0372  13.3953
    13.9372  14.5233

          k =-0.5000-0.2844 0.0000 (  6382 PWs)   bands (ev):

   -44.9292 -23.1685 -23.0851 -22.8925 -12.1708 -11.7256  -2.1900  -1.6581
    -1.0553  -0.3724   0.0517   0.7102   3.7884   6.9098   7.3244   7.5897
     7.7964   9.3548   9.7085  10.8781  11.5875  12.0441  12.4784  13.5061
    13.9838  14.1984

          k =-0.5000-0.2133 0.0000 (  6373 PWs)   bands (ev):

   -44.9292 -23.1613 -23.0851 -22.9001 -12.1706 -11.7257  -2.1367  -1.6363
    -1.0546  -0.4114   0.0522   0.5983   3.8598   6.9612   7.2276   7.5281
     7.7669   9.4365   9.8186  11.0231  11.6757  12.0336  12.4413  13.3954
    14.1607  14.2740

          k =-0.5000-0.1422 0.0000 (  6377 PWs)   bands (ev):

   -44.9292 -23.1419 -23.0851 -22.9206 -12.1702 -11.7260  -1.9918  -1.5766
    -1.0560  -0.5111   0.0414   0.3377   4.0368   6.8085   7.1769   7.4311
     7.7993   9.6307  10.0317  11.3816  11.8042  12.0357  12.4584  13.3754
    14.2859  14.5016

          k =-0.5000-0.0711 0.0000 (  6377 PWs)   bands (ev):

   -44.9292 -23.1179 -23.0852 -22.9457 -12.1698 -11.7264  -1.8117  -1.5012
    -1.0657  -0.6196  -0.0752   0.1641   4.2322   6.4666   7.1347   7.5263
     7.8576   9.8539  10.1829  11.6274  11.7523  12.2624  12.7547  13.5261
    14.2536  14.4655

          k =-0.5000 0.0000 0.0000 (  6382 PWs)   bands (ev):

   -44.9292 -23.1057 -23.0851 -22.9584 -12.1696 -11.7265  -1.7196  -1.4619
    -1.0753  -0.6681  -0.1886   0.1446   4.3239   6.3135   7.0926   7.6027
     7.8815   9.9708  10.2190  11.5571  11.8136  12.5006  13.0084  13.5576
    14.1546  14.2671

     highest occupied, lowest unoccupied level (ev):     4.7193    5.6783

!    total energy              =    -591.24369015 Ry
     total all-electron energy =    -13333.876966 Ry
     estimated scf accuracy    <          1.4E-10 Ry

     The total energy is the sum of the following terms:
     one-electron contribution =    -203.17892467 Ry
     hartree contribution      =     109.36810638 Ry
     xc contribution           =     -37.58231417 Ry
     ewald contribution        =     -28.73542530 Ry
     one-center paw contrib.   =    -431.11513239 Ry

     convergence has been achieved in   6 iterations

     Forces acting on atoms (cartesian axes, Ry/au):

     atom    1 type  1   force =     0.00000000   -0.00589367   -0.00001728
     atom    2 type  2   force =     0.00000000    0.00300475   -0.00254199
     atom    3 type  3   force =     0.00000000    0.00288892    0.00255927
     The non-local contrib.  to forces
     atom    1 type  1   force =     0.00000000   -0.00012545   -0.00071702
     atom    2 type  2   force =     0.00000000    0.00256609   -0.21364635
     atom    3 type  3   force =     0.00000000    0.00261990    0.21015888
     The ionic contribution  to forces
     atom    1 type  1   force =    -0.00000001    0.03472024   -0.31220694
     atom    2 type  2   force =     0.00000000   -0.01873426   20.83274683
     atom    3 type  3   force =     0.00000000   -0.01598598  -20.52053989
     The local contribution  to forces
     atom    1 type  1   force =    -0.00000000   -0.04030849    0.31253174
     atom    2 type  2   force =     0.00000003    0.01921413  -20.62973582
     atom    3 type  3   force =    -0.00000000    0.01641983   20.31684511
     The core correction contribution to forces
     atom    1 type  1   force =     0.00000000   -0.00013698    0.00038367
     atom    2 type  2   force =    -0.00000000    0.00000230    0.00814200
     atom    3 type  3   force =    -0.00000000   -0.00012874   -0.00386190
     The Hubbard contrib.    to forces
     atom    1 type  1   force =     0.00000000    0.00000000    0.00000000
     atom    2 type  2   force =     0.00000000    0.00000000    0.00000000
     atom    3 type  3   force =     0.00000000    0.00000000    0.00000000
     The SCF correction term to forces
     atom    1 type  1   force =     0.00000000   -0.00000874    0.00003915
     atom    2 type  2   force =    -0.00000000   -0.00000925   -0.00000077
     atom    3 type  3   force =    -0.00000000   -0.00000184    0.00000495

     Total force =     0.008070     Total SCF correction =     0.000042
     Energy error            =      9.9E-05 Ry
     Gradient error          =      5.9E-03 Ry/Bohr

     number of scf cycles    =   2
     number of bfgs steps    =   1

     energy             old  =    -591.2435914684 Ry
     energy             new  =    -591.2436901540 Ry

     CASE: energy            _new < energy            _old

     new trust radius        =       0.0087179648 bohr
     new conv_thr            =       0.0000000010 Ry


ATOMIC_POSITIONS (angstrom)
Zr            0.0000000000       -0.0088070354       10.2766709152
Cl           -0.0000000017        2.0189032835       11.9612491762
Br           -0.0000000017        2.0187605965        8.4252286830



     Writing config-only to output data dir ./tmp/ZrClBr.save/
     NEW-OLD atomic charge density approx. for the potential

     Check: negative core charge=   -0.000004

     total cpu time spent up to now is       31.8 secs

     Self-consistent Calculation

     iteration #  1     ecut=    65.00 Ry     beta= 0.70
     Davidson diagonalization with overlap
     ethr =  1.00E-06,  avg # of iterations =  3.1

     Threshold (ethr) on eigenvalues was too large:
     Diagonalizing with lowered threshold

     Davidson diagonalization with overlap
     ethr =  1.95E-08,  avg # of iterations =  3.2

     total cpu time spent up to now is       35.8 secs

     total energy              =    -591.24376766 Ry
     estimated scf accuracy    <       0.00000549 Ry

     iteration #  2     ecut=    65.00 Ry     beta= 0.70
     Davidson diagonalization with overlap
     ethr =  2.11E-08,  avg # of iterations =  2.0

     total cpu time spent up to now is       37.4 secs

     total energy              =    -591.24376718 Ry
     estimated scf accuracy    <       0.00001062 Ry

     iteration #  3     ecut=    65.00 Ry     beta= 0.70
     Davidson diagonalization with overlap
     ethr =  2.11E-08,  avg # of iterations =  2.0

     total cpu time spent up to now is       38.9 secs

     total energy              =    -591.24376965 Ry
     estimated scf accuracy    <       0.00000074 Ry

     iteration #  4     ecut=    65.00 Ry     beta= 0.70
     Davidson diagonalization with overlap
     ethr =  2.85E-09,  avg # of iterations =  1.0

     total cpu time spent up to now is       40.2 secs

     total energy              =    -591.24376978 Ry
     estimated scf accuracy    <       0.00000004 Ry

     iteration #  5     ecut=    65.00 Ry     beta= 0.70
     Davidson diagonalization with overlap
     ethr =  1.54E-10,  avg # of iterations =  2.0

     total cpu time spent up to now is       41.8 secs

     total energy              =    -591.24376979 Ry
     estimated scf accuracy    <       0.00000003 Ry

     iteration #  6     ecut=    65.00 Ry     beta= 0.70
     Davidson diagonalization with overlap
     ethr =  9.92E-11,  avg # of iterations =  1.2

     total cpu time spent up to now is       43.2 secs

     End of self-consistent calculation

          k = 0.0000 0.0000 0.0000 (  6439 PWs)   bands (ev):

   -44.9563 -23.1801 -22.8112 -22.7898 -12.7435 -12.1894  -2.1025  -0.0423
     0.1186   0.2026   1.2686   1.3819   4.2670   5.8324   6.0112   6.5887
     6.5968   6.7103   8.3301   9.3519  11.3111  13.4436  13.6241  13.8720
    14.5641  15.0550

          k = 0.0000 0.0711 0.0000 (  6441 PWs)   bands (ev):

   -44.9551 -23.1765 -22.8254 -22.7926 -12.7191 -12.1790  -2.0593  -0.1325
     0.0918   0.1916   1.1175   1.3489   4.2636   5.7822   6.0431   6.5577
     6.6543   6.8874   8.4486   9.5788  11.3735  13.0461  13.7457  14.1978
    14.5451  14.6783

          k = 0.0000 0.1422 0.0000 (  6417 PWs)   bands (ev):

   -44.9519 -23.1661 -22.8656 -22.8008 -12.6502 -12.1479  -1.9377  -0.3842
     0.0060   0.1561   0.7479   1.2624   4.2284   5.7070   6.1454   6.5297
     6.8086   7.3226   8.7827  10.1261  11.5579  12.5136  13.8979  14.0920
    14.4401  14.7579

          k = 0.0000 0.2133 0.0000 (  6433 PWs)   bands (ev):

   -44.9470 -23.1506 -22.9251 -22.8129 -12.5495 -12.0964  -1.7619  -0.7418
    -0.1971   0.0929   0.3657   1.1514   4.1198   5.7472   6.3313   6.5780
     7.0153   7.8349   9.2628  10.7135  11.7794  12.1175  13.4265  14.2375
    14.5952  15.0050

          k = 0.0000 0.2844 0.0000 (  6391 PWs)   bands (ev):

   -44.9412 -23.1321 -22.9941 -22.8272 -12.4366 -12.0253  -1.5821  -1.1252
    -0.5816   0.0055   0.1611   1.0427   3.9592   5.9607   6.6067   6.7005
     7.2258   8.3161   9.6944  11.1055  11.7232  11.9821  13.6127  13.9166
    14.8456  15.0387

          k = 0.0000 0.3555 0.0000 (  6383 PWs)   bands (ev):

   -44.9354 -23.1137 -23.0620 -22.8414 -12.3335 -11.9387  -1.6315  -1.2883
    -0.9939  -0.0921   0.0725   0.9518   3.8182   6.3076   6.8565   6.9551
     7.4039   8.7449   9.8353  11.2089  11.6417  11.9643  13.5592  14.1652
    14.4882  14.8854

          k = 0.0000 0.4266 0.0000 (  6391 PWs)   bands (ev):

   -44.9306 -23.1192 -23.0976 -22.8535 -12.2560 -11.8505  -1.9243  -1.3669
    -1.1446  -0.1799   0.0299   0.8844   3.7387   6.6964   7.0193   7.3249
     7.5334   9.1079   9.7354  11.0964  11.6566  11.9670  13.0792  14.0986
    14.3317  14.4612

          k = 0.0000 0.4977 0.0000 (  6374 PWs)   bands (ev):

   -44.9273 -23.1566 -23.0872 -22.8615 -12.2094 -11.7835  -2.1383  -1.5661
    -1.0775  -0.2402   0.0113   0.8430   3.7137   6.9396   7.2369   7.5838
     7.6520   9.3261   9.6294  10.9971  11.6196  11.9407  12.5949  13.8580
    13.9831  14.2482

          k = 0.0000-0.5688 0.0000 (  6362 PWs)   bands (ev):

   -44.9261 -23.1696 -23.0835 -22.8643 -12.1940 -11.7585  -2.2145  -1.6363
    -1.0527  -0.2615   0.0064   0.8289   3.7111   6.9943   7.3731   7.6197
     7.7608   9.3327   9.6572  10.9662  11.5330  11.9614  12.4256  13.6741
    13.9058  14.1308

          k = 0.0625 0.0356 0.0000 (  6441 PWs)   bands (ev):

   -44.9550 -23.1764 -22.8183 -22.8005 -12.7185 -12.1780  -2.0587  -0.1123
     0.1021   0.1569   1.1747   1.2837   4.2701   5.8349   5.9785   6.5551
     6.6522   6.8908   8.4560   9.5846  11.3746  13.1055  13.6156  14.2536
    14.5891  14.7899

          k = 0.0625 0.1067 0.0000 (  6425 PWs)   bands (ev):

   -44.9528 -23.1694 -22.8486 -22.8029 -12.6719 -12.1572  -1.9762  -0.2853
     0.0311   0.1517   0.8842   1.2531   4.2532   5.7336   6.0848   6.5396
     6.7483   7.1949   8.6813   9.9683  11.5023  12.6751  13.8802  14.1375
    14.4835  14.7106

          k = 0.0625 0.1778 0.0000 (  6423 PWs)   bands (ev):

   -44.9488 -23.1564 -22.8991 -22.8125 -12.5870 -12.1158  -1.8265  -0.5864
    -0.1055   0.0953   0.5035   1.1557   4.1870   5.6861   6.2628   6.5647
     6.9247   7.6629   9.0917  10.5268  11.7560  12.2477  13.5224  14.1105
    14.5833  15.0034

          k = 0.0625 0.2489 0.0000 (  6405 PWs)   bands (ev):

   -44.9434 -23.1394 -22.9626 -22.8263 -12.4802 -12.0542  -1.6419  -0.9556
    -0.3835  -0.0427   0.2602   1.0345   4.0599   5.7853   6.5280   6.6686
     7.1278   8.1529   9.5649  10.9941  11.8752  12.0726  13.2971  13.9759
    14.8145  15.0177

          k = 0.0625 0.3200 0.0000 (  6400 PWs)   bands (ev):

   -44.9377 -23.1210 -23.0299 -22.8417 -12.3728 -11.9743  -1.5200  -1.2737
    -0.7968  -0.1591   0.1554   0.9150   3.9215   6.0413   6.7957   6.9016
     7.3128   8.6109   9.8489  11.2417  11.7729  12.0154  13.6302  13.8712
    14.4924  14.8668

          k = 0.0625 0.3911 0.0000 (  6385 PWs)   bands (ev):

   -44.9323 -23.1042 -23.0907 -22.8561 -12.2839 -11.8848  -1.7566  -1.2643
    -1.1390  -0.2369   0.0846   0.8137   3.8285   6.4102   6.9619   7.2701
     7.4550   9.0311   9.8292  11.2452  11.7308  12.0114  13.3591  13.9421
    14.3496  14.6375

          k = 0.0625 0.4622 0.0000 (  6380 PWs)   bands (ev):

   -44.9283 -23.1374 -23.0905 -22.8671 -12.2233 -11.8049  -2.0147  -1.4741
    -1.1020  -0.2869   0.0358   0.7412   3.7940   6.8086   7.1060   7.5159
     7.6006   9.3801   9.6862  11.1576  11.7165  11.9737  12.8003  13.6628
    14.2245  14.4931

          k = 0.0625 0.5333 0.0000 (  6366 PWs)   bands (ev):

   -44.9260 -23.1621 -23.0834 -22.8730 -12.1930 -11.7576  -2.1581  -1.6127
    -1.0529  -0.3119   0.0112   0.7036   3.7918   7.0340   7.2884   7.5599
     7.7194   9.4016   9.7883  11.1084  11.6349  11.9661  12.4143  13.4437
    14.1319  14.2371

          k = 0.1250 0.0711 0.0000 (  6421 PWs)   bands (ev):

   -44.9515 -23.1657 -22.8530 -22.8163 -12.6478 -12.1438  -1.9354  -0.3446
     0.0222   0.0880   0.8068   1.1730   4.2544   5.7765   6.0365   6.5162
     6.8087   7.3291   8.8072  10.1395  11.5629  12.5469  13.9684  14.0168
    14.4551  14.8482

          k = 0.1250 0.1422 0.0000 (  6411 PWs)   bands (ev):

   -44.9485 -23.1561 -22.8930 -22.8207 -12.5853 -12.1127  -1.8250  -0.5645
    -0.1004   0.0647   0.5258   1.1054   4.2081   5.7001   6.2206   6.5649
     6.9167   7.6655   9.1076  10.5332  11.7602  12.2676  13.5751  14.0932
    14.5494  15.0570

          k = 0.1250 0.2133 0.0000 (  6418 PWs)   bands (ev):

   -44.9440 -23.1417 -22.9459 -22.8336 -12.4944 -12.0611  -1.6632  -0.8631
    -0.2856  -0.1082   0.3031   0.9777   4.1318   5.6906   6.5059   6.6708
     7.0755   8.1036   9.5244  10.9542  12.0273  12.1421  13.1096  13.9214
    14.7708  14.9614

          k = 0.1250 0.2844 0.0000 (  6391 PWs)   bands (ev):

   -44.9387 -23.1246 -23.0051 -22.8512 -12.3934 -11.9898  -1.4895  -1.1890
    -0.6179  -0.2929   0.2038   0.8164   4.0452   5.8091   6.8039   6.9020
     7.2427   8.5654   9.8710  11.2532  11.9725  12.3383  13.0862  13.7119
    14.4359  14.8171

          k = 0.1250 0.3555 0.0000 (  6393 PWs)   bands (ev):

   -44.9334 -23.1076 -23.0624 -22.8698 -12.3018 -11.9041  -1.5630  -1.2722
    -1.0048  -0.3840   0.1290   0.6491   3.9855   6.0671   6.9842   7.2695
     7.4096   9.0297   9.9514  11.4137  12.0141  12.1659  13.4486  13.6497
    13.8843  14.6263

          k = 0.1250 0.4266 0.0000 (  6390 PWs)   bands (ev):

   -44.9288 -23.1105 -23.0927 -22.8859 -12.2326 -11.8187  -1.8234  -1.3474
    -1.1291  -0.4268   0.0630   0.5035   3.9735   6.4354   7.1253   7.4514
     7.6434   9.5070   9.8169  11.4524  11.9224  12.0715  13.0159  13.4656
    14.2848  14.5459

          k = 0.1250 0.4977 0.0000 (  6371 PWs)   bands (ev):

   -44.9258 -23.1417 -23.0831 -22.8967 -12.1905 -11.7549  -2.0033  -1.5475
    -1.0564  -0.4403   0.0149   0.4049   3.9929   6.8391   7.2185   7.5163
     7.7305   9.5911  10.0183  11.4611  11.8224  12.0043  12.4561  13.3436
    14.2352  14.5029

          k = 0.1250 0.5688 0.0000 (  6366 PWs)   bands (ev):

   -44.9247 -23.1527 -23.0797 -22.9005 -12.1765 -11.7313  -2.0669  -1.6171
    -1.0314  -0.4418  -0.0033   0.3702   4.0059   7.0545   7.2765   7.5238
     7.6776   9.4935  10.2843  11.4733  11.7788  12.0377  12.1058  13.2990
    14.1949  14.3902

          k = 0.1250 0.0000 0.0000 (  6449 PWs)   bands (ev):

   -44.9526 -23.1690 -22.8338 -22.8200 -12.6701 -12.1542  -1.9744  -0.2527
     0.0380   0.1021   0.9378   1.1805   4.2695   5.8312   5.9596   6.5026
     6.7736   7.2007   8.7004   9.9788  11.5039  12.7006  13.7731  14.2446
    14.5507  14.7357

          k = 0.1875 0.1067 0.0000 (  6401 PWs)   bands (ev):

   -44.9463 -23.1496 -22.9132 -22.8310 -12.5444 -12.0875  -1.7580  -0.7051
    -0.1686   0.0144   0.3962   1.0535   4.1696   5.7851   6.2292   6.5537
     7.0157   7.8392   9.3036  10.7251  11.7851  12.1479  13.5248  14.2534
    14.4898  15.1219

          k = 0.1875 0.1778 0.0000 (  6409 PWs)   bands (ev):

   -44.9429 -23.1386 -22.9542 -22.8402 -12.4758 -12.0463  -1.6393  -0.9272
    -0.3520  -0.0986   0.2647   0.9548   4.1055   5.7860   6.4739   6.6596
     7.1183   8.1538   9.5934  11.0028  11.8812  12.1003  13.3689  13.9961
    14.7795  15.0618

          k = 0.1875 0.2489 0.0000 (  6412 PWs)   bands (ev):

   -44.9383 -23.1241 -23.0009 -22.8586 -12.3907 -11.9850  -1.4884  -1.1746
    -0.5963  -0.3247   0.1995   0.7764   4.0711   5.8013   6.7897   6.8871
     7.2410   8.5645   9.8834  11.2608  11.9880  12.3088  13.1419  13.7359
    14.4171  14.8455

          k = 0.1875 0.3200 0.0000 (  6401 PWs)   bands (ev):

   -44.9335 -23.1085 -23.0468 -22.8827 -12.3061 -11.9070  -1.4457  -1.3031
    -0.9104  -0.4816   0.1202   0.5544   4.0822   5.9128   6.9846   7.2518
     7.4141   9.0325  10.0200  11.4729  12.2016  12.4169  13.1877  13.4711
    13.6461  14.7382

          k = 0.1875 0.3911 0.0000 (  6389 PWs)   bands (ev):

   -44.9289 -23.0945 -23.0860 -22.9072 -12.2358 -11.8229  -1.6492  -1.2304
    -1.1636  -0.5565   0.0216   0.3365   4.1390   6.1467   7.0999   7.4733
     7.6855   9.5571   9.9762  11.6331  12.1167  12.3258  13.0788  13.3533
    13.9150  14.4659

          k = 0.1875 0.4622 0.0000 (  6382 PWs)   bands (ev):

   -44.9255 -23.1157 -23.0826 -22.9270 -12.1870 -11.7506  -1.8054  -1.4632
    -1.0695  -0.5836  -0.0639   0.1599   4.2213   6.4789   7.1359   7.6449
     7.7682   9.8206  10.1722  11.6756  11.8231  12.2578  12.8141  13.4687
    14.2063  14.4611

          k = 0.1875 0.5333 0.0000 (  6363 PWs)   bands (ev):

   -44.9236 -23.1309 -23.0766 -22.9381 -12.1621 -11.7088  -1.8883  -1.5907
    -1.0195  -0.5885  -0.1055   0.0537   4.2838   6.8066   7.1421   7.6335
     7.7438   9.6882  10.7354  11.5727  11.9038  12.1960  12.3140  13.4659
    14.2733  14.4557

          k = 0.1875-0.0356 0.0000 (  6417 PWs)   bands (ev):

   -44.9482 -23.1556 -22.8864 -22.8305 -12.5825 -12.1081  -1.8224  -0.5532
    -0.0967   0.0366   0.5321   1.0796   4.2241   5.7426   6.1534   6.5062
     6.9581   7.6684   9.1320  10.5388  11.7572  12.2489  13.6127  14.0527
    14.5729  15.0831

          k = 0.2500 0.1422 0.0000 (  6395 PWs)   bands (ev):

   -44.9401 -23.1306 -22.9842 -22.8471 -12.4282 -12.0105  -1.5774  -1.0972
    -0.5498  -0.0835   0.1769   0.9380   4.0232   5.9720   6.5267   6.6654
     7.2225   8.3157   9.7379  11.1195  11.7229  12.0110  13.6971  13.9668
    14.9008  15.0144

          k = 0.2500 0.2133 0.0000 (  6393 PWs)   bands (ev):

   -44.9367 -23.1195 -23.0214 -22.8594 -12.3650 -11.9606  -1.5118  -1.2518
    -0.7674  -0.2281   0.1555   0.8176   3.9826   6.0332   6.7574   6.8596
     7.3074   8.6082   9.8816  11.2653  11.7589  12.0344  13.7058  13.9590
    14.5040  14.8813

          k = 0.2500 0.2844 0.0000 (  6397 PWs)   bands (ev):

   -44.9326 -23.1065 -23.0562 -22.8830 -12.2956 -11.8936  -1.5446  -1.2687
    -0.9867  -0.4323   0.1256   0.5832   4.0303   6.0566   6.9457   7.2511
     7.4092   9.0269   9.9741  11.4326  11.9798  12.1599  13.5020  13.6359
    13.9723  14.6864

          k = 0.2500 0.3555 0.0000 (  6390 PWs)   bands (ev):

   -44.9285 -23.0938 -23.0828 -22.9142 -12.2323 -11.8172  -1.6374  -1.2279
    -1.1626  -0.5796   0.0135   0.3140   4.1609   6.1440   7.0761   7.4763
     7.6748   9.5577   9.9873  11.6412  12.1136  12.2766  13.0218  13.4354
    13.9836  14.5107

          k = 0.2500 0.4266 0.0000 (  6372 PWs)   bands (ev):

   -44.9250 -23.1002 -23.0819 -22.9469 -12.1831 -11.7451  -1.6942  -1.4186
    -1.0833  -0.6594  -0.1947   0.1246   4.3415   6.3181   7.0802   7.7073
     7.7841   9.9520  10.2078  11.5875  11.8905  12.4694  13.1258  13.5192
    14.1348  14.2552

          k = 0.2500 0.4977 0.0000 (  6380 PWs)   bands (ev):

   -44.9227 -23.1071 -23.0747 -22.9727 -12.1522 -11.6935  -1.7143  -1.5492
    -1.0207  -0.7142  -0.3743   0.0163   4.5096   6.5501   7.0435   7.6249
     7.9157   9.9169  10.8066  11.3706  12.0674  12.5580  12.8912  13.6560
    14.1155  14.3790

          k = 0.2500 0.5688 0.0000 (  6368 PWs)   bands (ev):

   -44.9219 -23.1085 -23.0721 -22.9828 -12.1417 -11.6747  -1.7216  -1.5877
    -0.9980  -0.7462  -0.4313  -0.0229   4.5804   6.6964   7.0226   7.4836
     7.9899   9.8911  10.9226  11.6576  12.1638  12.4948  12.5633  13.5950
    14.3851  14.4200

          k = 0.2500-0.0711 0.0000 (  6400 PWs)   bands (ev):

   -44.9424 -23.1380 -22.9529 -22.8452 -12.4725 -12.0407  -1.6365  -0.9343
    -0.3578  -0.1112   0.2617   0.9559   4.1106   5.8032   6.4513   6.6023
     7.1531   8.1547   9.6144  11.0000  11.8611  12.0777  13.3610  13.9824
    14.7943  15.0814

          k = 0.2500 0.0000 0.0000 (  6409 PWs)   bands (ev):

   -44.9433 -23.1406 -22.9397 -22.8468 -12.4883 -12.0508  -1.6583  -0.8589
    -0.2731  -0.1531   0.2983   0.9475   4.1578   5.7117   6.4518   6.5834
     7.1277   8.1057   9.5662  10.9554  11.9853  12.1203  13.1468  13.9117
    14.7837  14.9891

          k = 0.3125 0.1778 0.0000 (  6393 PWs)   bands (ev):

   -44.9339 -23.1116 -23.0542 -22.8629 -12.3215 -11.9179  -1.6156  -1.2790
    -0.9789  -0.1913   0.0958   0.8408   3.8873   6.3014   6.8099   6.9076
     7.3935   8.7398   9.8799  11.2290  11.6195  11.9842  13.6606  14.2511
    14.5790  14.7964

          k = 0.3125 0.2489 0.0000 (  6389 PWs)   bands (ev):

   -44.9309 -23.1021 -23.0833 -22.8764 -12.2721 -11.8653  -1.7337  -1.2602
    -1.1284  -0.3188   0.0962   0.7059   3.8968   6.4027   6.9106   7.2277
     7.4531   9.0250   9.8739  11.2476  11.7110  12.0261  13.4647  13.9358
    14.3938  14.7087

          k = 0.3125 0.3200 0.0000 (  6378 PWs)   bands (ev):

   -44.9276 -23.1042 -23.0908 -22.9030 -12.2223 -11.8024  -1.8005  -1.3450
    -1.1290  -0.4899   0.0705   0.4233   4.0281   6.4341   7.0623   7.4593
     7.6157   9.5009   9.8563  11.4384  11.9027  12.0654  13.0044  13.5279
    14.3529  14.6398

          k = 0.3125 0.3911 0.0000 (  6375 PWs)   bands (ev):

   -44.9246 -23.1108 -23.0814 -22.9394 -12.1794 -11.7392  -1.7881  -1.4675
    -1.0720  -0.6238  -0.0866   0.1425   4.2547   6.4876   7.1059   7.6297
     7.7493   9.8518  10.1667  11.6646  11.7997  12.2109  12.8230  13.5084
    14.2706  14.5220

          k = 0.3125 0.4622 0.0000 (  6377 PWs)   bands (ev):

   -44.9223 -23.1042 -23.0740 -22.9793 -12.1482 -11.6877  -1.7083  -1.5532
    -1.0226  -0.7311  -0.3969   0.0245   4.5208   6.5622   7.0369   7.6187
     7.8943   9.9389  10.7931  11.3563  12.0638  12.5245  12.9450  13.6064
    14.1421  14.3944

          k = 0.3125 0.5333 0.0000 (  6377 PWs)   bands (ev):

   -44.9210 -23.0903 -23.0701 -23.0112 -12.1319 -11.6589  -1.6823  -1.5015
    -0.9921  -0.8900  -0.5590  -0.0314   4.7208   6.6215   6.9752   7.4304
     8.0723  10.0722  10.6687  11.9444  12.2479  12.7485  12.8939  13.2134
    14.2563  14.5460

          k = 0.3125-0.1067 0.0000 (  6394 PWs)   bands (ev):

   -44.9363 -23.1189 -23.0228 -22.8617 -12.3615 -11.9548  -1.5141  -1.2617
    -0.7866  -0.2291   0.1575   0.8312   3.9761   6.0339   6.7323   6.8651
     7.3180   8.6086   9.8916  11.2521  11.7526  12.0150  13.6784  13.9102
    14.6023  14.8593

          k = 0.3125-0.0356 0.0000 (  6395 PWs)   bands (ev):

   -44.9375 -23.1230 -23.0006 -22.8663 -12.3839 -11.9735  -1.4843  -1.1925
    -0.6231  -0.3346   0.1989   0.7818   4.0736   5.8086   6.7172   6.8834
     7.2745   8.5670   9.9104  11.2474  11.9264  12.2930  13.1185  13.7127
    14.5425  14.8650

          k = 0.3750 0.2133 0.0000 (  6386 PWs)   bands (ev):

   -44.9287 -23.1133 -23.0948 -22.8762 -12.2402 -11.8249  -1.9052  -1.3726
    -1.1424  -0.2869   0.0635   0.7682   3.8106   6.6686   6.9693   7.3139
     7.5159   9.0993   9.7972  11.0692  11.6647  11.9841  13.1945  14.1489
    14.2456  14.5651

          k = 0.3750 0.2844 0.0000 (  6372 PWs)   bands (ev):

   -44.9265 -23.1314 -23.0879 -22.8890 -12.2077 -11.7806  -1.9918  -1.4819
    -1.1032  -0.3817   0.0631   0.6288   3.8649   6.7894   7.0584   7.4994
     7.5810   9.3684   9.7528  11.1045  11.7384  12.0050  12.8873  13.5870
    14.2936  14.5783

          k = 0.3750 0.3555 0.0000 (  6383 PWs)   bands (ev):

   -44.9243 -23.1362 -23.0809 -22.9160 -12.1765 -11.7338  -1.9821  -1.5602
    -1.0598  -0.5162   0.0376   0.3200   4.0490   6.8452   7.1628   7.5053
     7.7045   9.6213  10.0355  11.3900  11.8242  12.0343  12.4994  13.3249
    14.3035  14.5568

          k = 0.3750 0.4266 0.0000 (  6379 PWs)   bands (ev):

   -44.9224 -23.1263 -23.0749 -22.9533 -12.1510 -11.6924  -1.8743  -1.6082
    -1.0232  -0.6390  -0.1453   0.0597   4.3163   6.8287   7.1260   7.6191
     7.6957   9.7271  10.7337  11.5316  11.8331  12.2115  12.3811  13.4410
    14.3296  14.4666

          k = 0.3750 0.4977 0.0000 (  6379 PWs)   bands (ev):

   -44.9211 -23.1051 -23.0709 -22.9929 -12.1343 -11.6640  -1.7252  -1.6002
    -0.9989  -0.7703  -0.4624  -0.0024   4.5866   6.7180   7.0202   7.4995
     7.9366   9.9296  10.8733  11.6817  12.1282  12.5416  12.5520  13.4940
    14.4189  14.4312

          k = 0.3750 0.5688 0.0000 (  6392 PWs)   bands (ev):

   -44.9207 -23.0896 -23.0696 -23.0150 -12.1285 -11.6539  -1.6934  -1.5130
    -0.9842  -0.8993  -0.5654  -0.0214   4.7134   6.6291   6.9769   7.4586
     8.0417  10.0996  10.6312  12.0265  12.2055  12.7359  12.8638  13.1664
    14.3365  14.5145

          k = 0.3750-0.1422 0.0000 (  6376 PWs)   bands (ev):

   -44.9306 -23.1017 -23.0855 -22.8772 -12.2690 -11.8602  -1.7473  -1.2666
    -1.1406  -0.3178   0.1008   0.7222   3.8848   6.3855   6.8995   7.2798
     7.4380   9.0239   9.8784  11.2397  11.7072  12.0127  13.4542  14.0095
    14.3681  14.6300

          k = 0.3750-0.0711 0.0000 (  6390 PWs)   bands (ev):

   -44.9318 -23.1054 -23.0593 -22.8865 -12.2889 -11.8827  -1.5686  -1.2689
    -1.0252  -0.4304   0.1317   0.6062   4.0141   6.0533   6.9102   7.2905
     7.4113   9.0306   9.9823  11.4017  11.9690  12.1333  13.4783  13.7086
    13.8936  14.6865

          k = 0.3750 0.0000 0.0000 (  6385 PWs)   bands (ev):

   -44.9323 -23.1068 -23.0475 -22.8924 -12.2961 -11.8903  -1.4692  -1.2992
    -0.9518  -0.4940   0.1241   0.5579   4.0807   5.9118   6.9164   7.2833
     7.4264   9.0389  10.0372  11.4448  12.1324  12.3817  13.1871  13.5024
    13.6737  14.7884

          k = 0.4375 0.2489 0.0000 (  6370 PWs)   bands (ev):

   -44.9252 -23.1517 -23.0842 -22.8850 -12.1907 -11.7548  -2.1190  -1.5845
    -1.0802  -0.3519   0.0525   0.7232   3.7878   6.8786   7.1982   7.5645
     7.6701   9.3303   9.6982  10.9280  11.6592  11.9990  12.6750  13.6949
    14.0744  14.3277

          k = 0.4375 0.3200 0.0000 (  6380 PWs)   bands (ev):

   -44.9240 -23.1573 -23.0805 -22.8957 -12.1747 -11.7300  -2.1380  -1.6328
    -1.0571  -0.4146   0.0496   0.5917   3.8617   6.9691   7.2728   7.5405
     7.7222   9.4298   9.8315  11.0239  11.6816  12.0410  12.4620  13.3529
    14.1839  14.2870

          k = 0.4375 0.3911 0.0000 (  6370 PWs)   bands (ev):

   -44.9230 -23.1484 -23.0772 -22.9205 -12.1600 -11.7069  -2.0520  -1.6418
    -1.0355  -0.5230   0.0278   0.2899   4.0567   7.0348   7.2487   7.4795
     7.6935   9.5390  10.2999  11.3747  11.8009  12.0974  12.1162  13.2856
    14.2588  14.3905

          k = 0.4375 0.4622 0.0000 (  6371 PWs)   bands (ev):

   -44.9221 -23.1279 -23.0746 -22.9536 -12.1487 -11.6890  -1.8855  -1.6208
    -1.0217  -0.6390  -0.1413   0.0689   4.3058   6.8096   7.1351   7.6458
     7.6981   9.7317  10.7467  11.5480  11.8008  12.2265  12.3314  13.4613
    14.3255  14.4450

          k = 0.4375 0.5333 0.0000 (  6366 PWs)   bands (ev):

   -44.9217 -23.1065 -23.0732 -22.9820 -12.1426 -11.6793  -1.7314  -1.5810
    -1.0178  -0.7361  -0.3905   0.0403   4.5013   6.5582   7.0471   7.7010
     7.8356   9.9550  10.7830  11.4057  11.9836  12.5649  12.8408  13.6286
    14.1582  14.4123

          k = 0.4375-0.1778 0.0000 (  6370 PWs)   bands (ev):

   -44.9262 -23.1332 -23.0876 -22.8892 -12.2055 -11.7771  -2.0024  -1.4945
    -1.1026  -0.3810   0.0672   0.6412   3.8543   6.7693   7.0444   7.4890
     7.6411   9.3753   9.7523  11.1057  11.7252  11.9976  12.8714  13.6637
    14.2539  14.5183

          k = 0.4375-0.1067 0.0000 (  6389 PWs)   bands (ev):

   -44.9271 -23.1079 -23.0901 -22.9042 -12.2170 -11.7939  -1.8253  -1.3750
    -1.1288  -0.4872   0.0772   0.4489   4.0065   6.4137   7.0790   7.4041
     7.7030   9.5059   9.8630  11.4129  11.8899  12.0606  13.0231  13.5305
    14.3192  14.5591

          k = 0.4375-0.0356 0.0000 (  6381 PWs)   bands (ev):

   -44.9275 -23.0928 -23.0862 -22.9191 -12.2232 -11.8028  -1.6717  -1.2700
    -1.1635  -0.5819   0.0243   0.3367   4.1387   6.1415   7.0811   7.4137
     7.7581   9.5705   9.9929  11.5835  12.0885  12.2903  13.0374  13.3889
    13.9350  14.5193

          k =-0.5000-0.2844 0.0000 (  6382 PWs)   bands (ev):

   -44.9239 -23.1652 -23.0804 -22.8881 -12.1741 -11.7287  -2.1952  -1.6591
    -1.0572  -0.3749   0.0502   0.7079   3.7861   6.9242   7.3334   7.5932
     7.7973   9.3662   9.7074  10.8825  11.5895  12.0458  12.4828  13.5035
    13.9820  14.1955

          k =-0.5000-0.2133 0.0000 (  6373 PWs)   bands (ev):

   -44.9239 -23.1580 -23.0804 -22.8957 -12.1739 -11.7288  -2.1419  -1.6374
    -1.0567  -0.4144   0.0512   0.5962   3.8575   6.9733   7.2384   7.5330
     7.7670   9.4459   9.8201  11.0258  11.6772  12.0363  12.4474  13.3893
    14.1609  14.2724

          k =-0.5000-0.1422 0.0000 (  6377 PWs)   bands (ev):

   -44.9239 -23.1386 -23.0805 -22.9162 -12.1735 -11.7292  -1.9970  -1.5776
    -1.0584  -0.5150   0.0411   0.3365   4.0345   6.8155   7.1837   7.4460
     7.7987   9.6377  10.0365  11.3803  11.8097  12.0382  12.4629  13.3694
    14.2848  14.5035

          k =-0.5000-0.0711 0.0000 (  6377 PWs)   bands (ev):

   -44.9239 -23.1148 -23.0805 -22.9411 -12.1731 -11.7295  -1.8169  -1.5022
    -1.0686  -0.6241  -0.0762   0.1651   4.2300   6.4728   7.1359   7.5482
     7.8565   9.8586  10.1899  11.6316  11.7575  12.2578  12.7589  13.5223
    14.2499  14.4666

          k =-0.5000 0.0000 0.0000 (  6382 PWs)   bands (ev):

   -44.9239 -23.1027 -23.0804 -22.9537 -12.1729 -11.7296  -1.7249  -1.4628
    -1.0786  -0.6727  -0.1896   0.1461   4.3218   6.3193   7.0942   7.6248
     7.8803   9.9731  10.2282  11.5656  11.8172  12.4885  13.0194  13.5507
    14.1532  14.2629

     highest occupied, lowest unoccupied level (ev):     4.7208    5.6861

!    total energy              =    -591.24376979 Ry
     total all-electron energy =    -13333.877046 Ry
     estimated scf accuracy    <          1.8E-10 Ry

     The total energy is the sum of the following terms:
     one-electron contribution =    -203.49008962 Ry
     hartree contribution      =     109.52464956 Ry
     xc contribution           =     -37.58417866 Ry
     ewald contribution        =     -28.57891787 Ry
     one-center paw contrib.   =    -431.11523321 Ry

     convergence has been achieved in   6 iterations

     Forces acting on atoms (cartesian axes, Ry/au):

     atom    1 type  1   force =     0.00000000   -0.00365794    0.00002241
     atom    2 type  2   force =     0.00000000    0.00189173   -0.00199087
     atom    3 type  3   force =     0.00000000    0.00176621    0.00196846
     The non-local contrib.  to forces
     atom    1 type  1   force =     0.00000000    0.00068236   -0.00071391
     atom    2 type  2   force =     0.00000000    0.00213379   -0.21332006
     atom    3 type  3   force =     0.00000000    0.00214957    0.20990813
     The ionic contribution  to forces
     atom    1 type  1   force =    -0.00000001    0.06141607   -0.30998514
     atom    2 type  2   force =     0.00000000   -0.03412320   20.84890351
     atom    3 type  3   force =     0.00000000   -0.02729287  -20.53891837
     The local contribution  to forces
     atom    1 type  1   force =     0.00000000   -0.06559956    0.31033090
     atom    2 type  2   force =     0.00000003    0.03386319  -20.64561549
     atom    3 type  3   force =    -0.00000000    0.02699809   20.33483739
     The core correction contribution to forces
     atom    1 type  1   force =     0.00000000   -0.00011251    0.00038285
     atom    2 type  2   force =    -0.00000000    0.00006183    0.00807598
     atom    3 type  3   force =    -0.00000000   -0.00005166   -0.00382283
     The Hubbard contrib.    to forces
     atom    1 type  1   force =     0.00000000    0.00000000    0.00000000
     atom    2 type  2   force =     0.00000000    0.00000000    0.00000000
     atom    3 type  3   force =     0.00000000    0.00000000    0.00000000
     The SCF correction term to forces
     atom    1 type  1   force =     0.00000000   -0.00000961    0.00004516
     atom    2 type  2   force =    -0.00000000   -0.00000920    0.00000264
     atom    3 type  3   force =    -0.00000000   -0.00000224    0.00000158

     Total force =     0.005284     Total SCF correction =     0.000047
     Energy error            =      8.0E-05 Ry
     Gradient error          =      3.7E-03 Ry/Bohr

     number of scf cycles    =   3
     number of bfgs steps    =   2

     energy             old  =    -591.2436901540 Ry
     energy             new  =    -591.2437697948 Ry

     CASE: energy            _new < energy            _old

     new trust radius        =       0.0130769472 bohr
     new conv_thr            =       0.0000000008 Ry


ATOMIC_POSITIONS (angstrom)
Zr            0.0000000000       -0.0157270297       10.2766906541
Cl           -0.0000000017        2.0224640856       11.9577598564
Br           -0.0000000017        2.0221197887        8.4286982639



     Writing config-only to output data dir ./tmp/ZrClBr.save/
     NEW-OLD atomic charge density approx. for the potential

     Check: negative core charge=   -0.000004

     total cpu time spent up to now is       43.7 secs

     Self-consistent Calculation

     iteration #  1     ecut=    65.00 Ry     beta= 0.70
     Davidson diagonalization with overlap
     ethr =  1.00E-06,  avg # of iterations =  4.0

     Threshold (ethr) on eigenvalues was too large:
     Diagonalizing with lowered threshold

     Davidson diagonalization with overlap
     ethr =  5.24E-08,  avg # of iterations =  2.0

     total cpu time spent up to now is       47.7 secs

     total energy              =    -591.24382205 Ry
     estimated scf accuracy    <       0.00001417 Ry

     iteration #  2     ecut=    65.00 Ry     beta= 0.70
     Davidson diagonalization with overlap
     ethr =  5.45E-08,  avg # of iterations =  2.0

     total cpu time spent up to now is       49.3 secs

     total energy              =    -591.24382075 Ry
     estimated scf accuracy    <       0.00003034 Ry

     iteration #  3     ecut=    65.00 Ry     beta= 0.70
     Davidson diagonalization with overlap
     ethr =  5.45E-08,  avg # of iterations =  2.0

     total cpu time spent up to now is       50.8 secs

     total energy              =    -591.24382753 Ry
     estimated scf accuracy    <       0.00000152 Ry

     iteration #  4     ecut=    65.00 Ry     beta= 0.70
     Davidson diagonalization with overlap
     ethr =  5.85E-09,  avg # of iterations =  1.0

     total cpu time spent up to now is       52.2 secs

     total energy              =    -591.24382778 Ry
     estimated scf accuracy    <       0.00000012 Ry

     iteration #  5     ecut=    65.00 Ry     beta= 0.70
     Davidson diagonalization with overlap
     ethr =  4.50E-10,  avg # of iterations =  2.0

     total cpu time spent up to now is       53.7 secs

     total energy              =    -591.24382782 Ry
     estimated scf accuracy    <       0.00000006 Ry

     iteration #  6     ecut=    65.00 Ry     beta= 0.70
     Davidson diagonalization with overlap
     ethr =  2.12E-10,  avg # of iterations =  1.3

     total cpu time spent up to now is       55.1 secs

     End of self-consistent calculation

          k = 0.0000 0.0000 0.0000 (  6439 PWs)   bands (ev):

   -44.9473 -23.1731 -22.8034 -22.7824 -12.7503 -12.1914  -2.1088  -0.0398
     0.1134   0.1862   1.2690   1.3627   4.2803   5.8548   6.0109   6.5686
     6.6215   6.7108   8.3259   9.3527  11.3047  13.4295  13.6344  13.8836
    14.5623  15.0870

          k = 0.0000 0.0711 0.0000 (  6441 PWs)   bands (ev):

   -44.9462 -23.1694 -22.8176 -22.7853 -12.7260 -12.1809  -2.0658  -0.1309
     0.0873   0.1749   1.1180   1.3303   4.2772   5.8023   6.0431   6.5401
     6.6785   6.8891   8.4449   9.5771  11.3672  13.0408  13.7556  14.2026
    14.5521  14.6984

          k = 0.0000 0.1422 0.0000 (  6417 PWs)   bands (ev):

   -44.9429 -23.1590 -22.8578 -22.7934 -12.6572 -12.1498  -1.9449  -0.3853
     0.0040   0.1389   0.7482   1.2454   4.2426   5.7235   6.1462   6.5171
     6.8317   7.3251   8.7808  10.1191  11.5517  12.5123  13.9270  14.1009
    14.4360  14.7612

          k = 0.0000 0.2133 0.0000 (  6433 PWs)   bands (ev):

   -44.9380 -23.1435 -22.9173 -22.8056 -12.5564 -12.0985  -1.7703  -0.7454
    -0.1962   0.0750   0.3657   1.1362   4.1347   5.7601   6.3333   6.5693
     7.0369   7.8366   9.2654  10.7016  11.7735  12.1186  13.4545  14.2290
    14.6028  15.0129

          k = 0.0000 0.2844 0.0000 (  6391 PWs)   bands (ev):

   -44.9322 -23.1250 -22.9864 -22.8199 -12.4433 -12.0276  -1.5922  -1.1296
    -0.5813  -0.0130   0.1635   1.0292   3.9749   5.9701   6.6099   6.6936
     7.2460   8.3169   9.7040  11.0942  11.7185  11.9843  13.6311  13.9063
    14.8593  15.0463

          k = 0.0000 0.3555 0.0000 (  6383 PWs)   bands (ev):

   -44.9265 -23.1066 -23.0543 -22.8341 -12.3398 -11.9416  -1.6388  -1.2960
    -0.9966  -0.1109   0.0783   0.9395   3.8343   6.3132   6.8501   6.9595
     7.4228   8.7470   9.8482  11.2090  11.6324  11.9627  13.5572  14.1700
    14.5010  14.8944

          k = 0.0000 0.4266 0.0000 (  6391 PWs)   bands (ev):

   -44.9216 -23.1116 -23.0905 -22.8462 -12.2617 -11.8542  -1.9286  -1.3715
    -1.1559  -0.1987   0.0382   0.8729   3.7554   6.6966   7.0144   7.3306
     7.5512   9.1157   9.7415  11.1000  11.6523  11.9624  13.0858  14.1091
    14.3406  14.4713

          k = 0.0000 0.4977 0.0000 (  6374 PWs)   bands (ev):

   -44.9183 -23.1489 -23.0801 -22.8542 -12.2146 -11.7878  -2.1411  -1.5721
    -1.0902  -0.2589   0.0212   0.8318   3.7307   6.9318   7.2384   7.5980
     7.6615   9.3332   9.6332  10.9983  11.6222  11.9400  12.6005  13.8667
    14.0066  14.2523

          k = 0.0000-0.5688 0.0000 (  6362 PWs)   bands (ev):

   -44.9171 -23.1620 -23.0764 -22.8570 -12.1990 -11.7630  -2.2168  -1.6429
    -1.0657  -0.2802   0.0167   0.8179   3.7282   6.9845   7.3770   7.6366
     7.7676   9.3243   9.6756  10.9663  11.5363  11.9629  12.4304  13.6827
    13.9418  14.1233

          k = 0.0625 0.0356 0.0000 (  6441 PWs)   bands (ev):

   -44.9461 -23.1693 -22.8105 -22.7932 -12.7252 -12.1801  -2.0649  -0.1150
     0.0979   0.1453   1.1688   1.2714   4.2824   5.8539   5.9810   6.5626
     6.6490   6.8917   8.4526   9.5861  11.3690  13.1109  13.6087  14.2631
    14.5875  14.7936

          k = 0.0625 0.1067 0.0000 (  6425 PWs)   bands (ev):

   -44.9439 -23.1623 -22.8409 -22.7956 -12.6786 -12.1593  -1.9829  -0.2880
     0.0280   0.1378   0.8822   1.2383   4.2659   5.7493   6.0881   6.5316
     6.7642   7.1973   8.6789   9.9653  11.4971  12.6744  13.8847  14.1555
    14.4957  14.7015

          k = 0.0625 0.1778 0.0000 (  6423 PWs)   bands (ev):

   -44.9398 -23.1493 -22.8913 -22.8051 -12.5938 -12.1180  -1.8340  -0.5902
    -0.1059   0.0789   0.5031   1.1412   4.2005   5.6990   6.2664   6.5561
     6.9448   7.6652   9.0924  10.5178  11.7512  12.2470  13.5465  14.1145
    14.5858  15.0036

          k = 0.0625 0.2489 0.0000 (  6405 PWs)   bands (ev):

   -44.9345 -23.1323 -22.9549 -22.8191 -12.4869 -12.0566  -1.6509  -0.9604
    -0.3823  -0.0590   0.2595   1.0212   4.0741   5.7955   6.5319   6.6620
     7.1478   8.1542   9.5715  10.9817  11.8710  12.0715  13.3208  13.9723
    14.8194  15.0250

          k = 0.0625 0.3200 0.0000 (  6400 PWs)   bands (ev):

   -44.9287 -23.1138 -23.0222 -22.8345 -12.3792 -11.9771  -1.5297  -1.2790
    -0.7982  -0.1731   0.1558   0.9030   3.9363   6.0488   6.7910   6.9051
     7.3317   8.6119   9.8618  11.2341  11.7670  12.0147  13.6338  13.8750
    14.5084  14.8736

          k = 0.0625 0.3911 0.0000 (  6385 PWs)   bands (ev):

   -44.9233 -23.0970 -23.0831 -22.8489 -12.2898 -11.8883  -1.7619  -1.2712
    -1.1462  -0.2515   0.0884   0.8025   3.8438   6.4149   6.9557   7.2759
     7.4723   9.0352   9.8401  11.2476  11.7229  12.0076  13.3631  13.9565
    14.3479  14.6460

          k = 0.0625 0.4622 0.0000 (  6380 PWs)   bands (ev):

   -44.9193 -23.1298 -23.0834 -22.8599 -12.2287 -11.8091  -2.0180  -1.4798
    -1.1141  -0.3032   0.0432   0.7305   3.8098   6.8093   7.1010   7.5303
     7.6093   9.3903   9.6876  11.1606  11.7161  11.9704  12.8079  13.6765
    14.2232  14.5098

          k = 0.0625 0.5333 0.0000 (  6366 PWs)   bands (ev):

   -44.9170 -23.1545 -23.0763 -22.8658 -12.1981 -11.7621  -2.1604  -1.6195
    -1.0656  -0.3295   0.0209   0.6931   3.8079   7.0268   7.2897   7.5754
     7.7286   9.3962   9.8032  11.1098  11.6376  11.9665  12.4206  13.4561
    14.1336  14.2568

          k = 0.1250 0.0711 0.0000 (  6421 PWs)   bands (ev):

   -44.9426 -23.1585 -22.8457 -22.8088 -12.6542 -12.1464  -1.9414  -0.3542
     0.0206   0.0810   0.7978   1.1664   4.2632   5.7870   6.0473   6.5267
     6.8033   7.3313   8.8061  10.1414  11.5606  12.5524  13.9598  14.0118
    14.4720  14.8376

          k = 0.1250 0.1422 0.0000 (  6411 PWs)   bands (ev):

   -44.9395 -23.1489 -22.8855 -22.8133 -12.5917 -12.1154  -1.8316  -0.5721
    -0.1009   0.0519   0.5235   1.0950   4.2178   5.7116   6.2283   6.5653
     6.9254   7.6683   9.1084  10.5288  11.7602  12.2667  13.5803  14.1047
    14.5490  15.0506

          k = 0.1250 0.2133 0.0000 (  6418 PWs)   bands (ev):

   -44.9350 -23.1345 -22.9384 -22.8263 -12.5008 -12.0638  -1.6708  -0.8698
    -0.2850  -0.1229   0.3023   0.9666   4.1423   5.7011   6.5128   6.6684
     7.0900   8.1058   9.5298  10.9439  12.0236  12.1410  13.1240  13.9334
    14.7673  14.9640

          k = 0.1250 0.2844 0.0000 (  6391 PWs)   bands (ev):

   -44.9297 -23.1174 -22.9975 -22.8440 -12.3997 -11.9928  -1.4985  -1.1948
    -0.6204  -0.3035   0.2024   0.8060   4.0564   5.8183   6.8022   6.9087
     7.2576   8.5666   9.8829  11.2420  11.9658  12.3324  13.1076  13.7171
    14.4449  14.8199

          k = 0.1250 0.3555 0.0000 (  6393 PWs)   bands (ev):

   -44.9244 -23.1004 -23.0548 -22.8627 -12.3077 -11.9077  -1.5691  -1.2807
    -1.0100  -0.3939   0.1294   0.6395   3.9973   6.0749   6.9822   7.2796
     7.4203   9.0313   9.9654  11.4076  12.0079  12.1621  13.4542  13.6622
    13.8933  14.6321

          k = 0.1250 0.4266 0.0000 (  6390 PWs)   bands (ev):

   -44.9198 -23.1028 -23.0854 -22.8788 -12.2381 -11.8228  -1.8274  -1.3535
    -1.1402  -0.4384   0.0664   0.4946   3.9862   6.4416   7.1246   7.4621
     7.6507   9.5121   9.8244  11.4532  11.9200  12.0682  13.0259  13.4714
    14.2853  14.5529

          k = 0.1250 0.4977 0.0000 (  6371 PWs)   bands (ev):

   -44.9168 -23.1341 -23.0759 -22.8897 -12.1957 -11.7595  -2.0058  -1.5549
    -1.0683  -0.4540   0.0216   0.3964   4.0063   6.8431   7.2199   7.5231
     7.7405   9.5894  10.0290  11.4641  11.8263  12.0028  12.4620  13.3508
    14.2336  14.5208

          k = 0.1250 0.5688 0.0000 (  6366 PWs)   bands (ev):

   -44.9157 -23.1450 -23.0725 -22.8935 -12.1815 -11.7360  -2.0689  -1.6250
    -1.0436  -0.4567   0.0049   0.3617   4.0196   7.0560   7.2795   7.5286
     7.6905   9.4876  10.2998  11.4764  11.7789  12.0364  12.1156  13.3056
    14.1907  14.4154

          k = 0.1250 0.0000 0.0000 (  6449 PWs)   bands (ev):

   -44.9436 -23.1618 -22.8268 -22.8121 -12.6765 -12.1568  -1.9802  -0.2642
     0.0323   0.1022   0.9226   1.1789   4.2779   5.8374   5.9760   6.5212
     6.7581   7.2021   8.6988   9.9833  11.5008  12.7122  13.7576  14.2316
    14.5681  14.7234

          k = 0.1875 0.1067 0.0000 (  6401 PWs)   bands (ev):

   -44.9373 -23.1423 -22.9062 -22.8234 -12.5504 -12.0909  -1.7637  -0.7155
    -0.1736   0.0085   0.3936   1.0471   4.1734   5.7962   6.2398   6.5648
     7.0135   7.8426   9.3069  10.7250  11.7902  12.1509  13.5126  14.2656
    14.4888  15.1116

          k = 0.1875 0.1778 0.0000 (  6409 PWs)   bands (ev):

   -44.9339 -23.1312 -22.9471 -22.8328 -12.4818 -12.0498  -1.6457  -0.9361
    -0.3581  -0.1054   0.2647   0.9463   4.1106   5.7970   6.4836   6.6668
     7.1228   8.1571   9.5998  10.9962  11.8841  12.1031  13.3615  14.0176
    14.7672  15.0654

          k = 0.1875 0.2489 0.0000 (  6412 PWs)   bands (ev):

   -44.9293 -23.1168 -22.9936 -22.8514 -12.3966 -11.9885  -1.4960  -1.1820
    -0.6046  -0.3276   0.1977   0.7677   4.0770   5.8123   6.7976   6.8963
     7.2467   8.5667   9.8947  11.2506  11.9799  12.3171  13.1434  13.7533
    14.4214  14.8449

          k = 0.1875 0.3200 0.0000 (  6401 PWs)   bands (ev):

   -44.9244 -23.1011 -23.0395 -22.8756 -12.3119 -11.9108  -1.4535  -1.3099
    -0.9189  -0.4848   0.1182   0.5468   4.0887   5.9235   6.9952   7.2593
     7.4189   9.0335  10.0348  11.4628  12.1896  12.4193  13.2006  13.4785
    13.6569  14.7408

          k = 0.1875 0.3911 0.0000 (  6389 PWs)   bands (ev):

   -44.9199 -23.0871 -23.0785 -22.9003 -12.2414 -11.8271  -1.6543  -1.2383
    -1.1733  -0.5619   0.0196   0.3314   4.1466   6.1564   7.1128   7.4747
     7.6931   9.5580   9.9894  11.6251  12.1144  12.3276  13.0811  13.3612
    13.9269  14.4734

          k = 0.1875 0.4622 0.0000 (  6382 PWs)   bands (ev):

   -44.9164 -23.1082 -23.0752 -22.9202 -12.1923 -11.7552  -1.8087  -1.4719
    -1.0799  -0.5916  -0.0671   0.1592   4.2302   6.4867   7.1485   7.6443
     7.7777   9.8230  10.1797  11.6779  11.8226  12.2601  12.8152  13.4729
    14.2147  14.4664

          k = 0.1875 0.5333 0.0000 (  6363 PWs)   bands (ev):

   -44.9146 -23.1233 -23.0692 -22.9313 -12.1673 -11.7136  -1.8905  -1.5999
    -1.0305  -0.5984  -0.1116   0.0581   4.2938   6.8115   7.1542   7.6455
     7.7425   9.6867  10.7482  11.5778  11.9027  12.1976  12.3149  13.4696
    14.2754  14.4707

          k = 0.1875-0.0356 0.0000 (  6417 PWs)   bands (ev):

   -44.9392 -23.1482 -22.8796 -22.8227 -12.5884 -12.1115  -1.8278  -0.5657
    -0.1034   0.0378   0.5231   1.0764   4.2268   5.7534   6.1657   6.5227
     6.9478   7.6713   9.1339  10.5432  11.7599  12.2586  13.5963  14.0375
    14.6002  15.0693

          k = 0.2500 0.1422 0.0000 (  6395 PWs)   bands (ev):

   -44.9311 -23.1231 -22.9776 -22.8395 -12.4337 -12.0147  -1.5832  -1.1063
    -0.5580  -0.0888   0.1790   0.9316   4.0230   5.9850   6.5350   6.6783
     7.2243   8.3203   9.7471  11.1160  11.7306  12.0136  13.6862  13.9766
    14.9054  15.0045

          k = 0.2500 0.2133 0.0000 (  6393 PWs)   bands (ev):

   -44.9277 -23.1120 -23.0147 -22.8520 -12.3705 -11.9648  -1.5194  -1.2588
    -0.7760  -0.2293   0.1542   0.8100   3.9838   6.0449   6.7714   6.8708
     7.3082   8.6120   9.8928  11.2580  11.7681  12.0324  13.7114  13.9579
    14.5099  14.8739

          k = 0.2500 0.2844 0.0000 (  6397 PWs)   bands (ev):

   -44.9236 -23.0990 -23.0493 -22.8757 -12.3011 -11.8979  -1.5535  -1.2741
    -0.9961  -0.4317   0.1231   0.5757   4.0322   6.0685   6.9672   7.2592
     7.4073   9.0288   9.9878  11.4253  11.9870  12.1542  13.5154  13.6363
    13.9729  14.6874

          k = 0.2500 0.3555 0.0000 (  6390 PWs)   bands (ev):

   -44.9195 -23.0863 -23.0758 -22.9072 -12.2378 -11.8217  -1.6449  -1.2375
    -1.1692  -0.5799   0.0104   0.3086   4.1632   6.1560   7.1008   7.4711
     7.6831   9.5576  10.0023  11.6326  12.1075  12.2851  13.0250  13.4425
    13.9901  14.5161

          k = 0.2500 0.4266 0.0000 (  6372 PWs)   bands (ev):

   -44.9160 -23.0930 -23.0744 -22.9400 -12.1885 -11.7499  -1.6998  -1.4285
    -1.0906  -0.6622  -0.2002   0.1241   4.3450   6.3288   7.0991   7.7082
     7.7922   9.9609  10.2111  11.5876  11.8824  12.4781  13.1233  13.5255
    14.1431  14.2651

          k = 0.2500 0.4977 0.0000 (  6380 PWs)   bands (ev):

   -44.9137 -23.0997 -23.0671 -22.9661 -12.1575 -11.6984  -1.7188  -1.5583
    -1.0292  -0.7200  -0.3812   0.0199   4.5148   6.5572   7.0590   7.6377
     7.9167   9.9225  10.8107  11.3760  12.0589  12.5641  12.8920  13.6577
    14.1274  14.3882

          k = 0.2500 0.5688 0.0000 (  6368 PWs)   bands (ev):

   -44.9129 -23.1010 -23.0645 -22.9763 -12.1470 -11.6797  -1.7264  -1.5955
    -1.0071  -0.7533  -0.4386  -0.0176   4.5865   6.6999   7.0373   7.4989
     7.9917   9.8949  10.9302  11.6627  12.1555  12.4954  12.5684  13.5973
    14.3926  14.4335

          k = 0.2500-0.0711 0.0000 (  6400 PWs)   bands (ev):

   -44.9334 -23.1304 -22.9465 -22.8374 -12.4779 -12.0449  -1.6417  -0.9446
    -0.3668  -0.1142   0.2615   0.9519   4.1085   5.8176   6.4589   6.6167
     7.1518   8.1590   9.6222  11.0013  11.8681  12.0862  13.3464  13.9792
    14.8079  15.0779

          k = 0.2500 0.0000 0.0000 (  6409 PWs)   bands (ev):

   -44.9342 -23.1330 -22.9334 -22.8389 -12.4938 -12.0550  -1.6632  -0.8700
    -0.2854  -0.1512   0.2956   0.9451   4.1547   5.7265   6.4598   6.5988
     7.1241   8.1097   9.5734  10.9583  11.9956  12.1313  13.1286  13.9008
    14.8011  14.9893

          k = 0.3125 0.1778 0.0000 (  6393 PWs)   bands (ev):

   -44.9249 -23.1039 -23.0479 -22.8553 -12.3268 -11.9228  -1.6242  -1.2840
    -0.9853  -0.1962   0.0970   0.8350   3.8851   6.3152   6.8257   6.9133
     7.3990   8.7464   9.8907  11.2259  11.6291  11.9863  13.6630  14.2485
    14.5815  14.7934

          k = 0.3125 0.2489 0.0000 (  6389 PWs)   bands (ev):

   -44.9219 -23.0944 -23.0769 -22.8690 -12.2776 -11.8701  -1.7427  -1.2656
    -1.1345  -0.3192   0.0935   0.6991   3.8958   6.4146   6.9322   7.2385
     7.4514   9.0301   9.8841  11.2497  11.7164  12.0258  13.4686  13.9384
    14.3916  14.7067

          k = 0.3125 0.3200 0.0000 (  6378 PWs)   bands (ev):

   -44.9186 -23.0977 -23.0831 -22.8957 -12.2279 -11.8072  -1.8090  -1.3527
    -1.1338  -0.4893   0.0675   0.4166   4.0276   6.4457   7.0939   7.4514
     7.6250   9.5043   9.8667  11.4410  11.9039  12.0649  13.0100  13.5312
    14.3520  14.6384

          k = 0.3125 0.3911 0.0000 (  6375 PWs)   bands (ev):

   -44.9156 -23.1042 -23.0737 -22.9322 -12.1850 -11.7441  -1.7959  -1.4762
    -1.0770  -0.6242  -0.0900   0.1382   4.2547   6.4987   7.1322   7.6268
     7.7600   9.8656  10.1653  11.6617  11.7987  12.2179  12.8261  13.5129
    14.2741  14.5225

          k = 0.3125 0.4622 0.0000 (  6377 PWs)   bands (ev):

   -44.9133 -23.0975 -23.0663 -22.9723 -12.1539 -11.6927  -1.7156  -1.5618
    -1.0279  -0.7346  -0.4007   0.0241   4.5220   6.5702   7.0553   7.6316
     7.8996   9.9505  10.7900  11.3617  12.0554  12.5317  12.9487  13.6072
    14.1506  14.4023

          k = 0.3125 0.5333 0.0000 (  6377 PWs)   bands (ev):

   -44.9120 -23.0834 -23.0623 -23.0044 -12.1375 -11.6639  -1.6913  -1.5071
    -0.9974  -0.8977  -0.5615  -0.0299   4.7234   6.6235   6.9912   7.4470
     8.0812  10.0828  10.6688  11.9479  12.2416  12.7499  12.8961  13.2163
    14.2707  14.5513

          k = 0.3125-0.1067 0.0000 (  6394 PWs)   bands (ev):

   -44.9272 -23.1112 -23.0167 -22.8539 -12.3667 -11.9597  -1.5211  -1.2686
    -0.7930  -0.2365   0.1604   0.8272   3.9720   6.0492   6.7428   6.8703
     7.3268   8.6148   9.9040  11.2497  11.7601  12.0208  13.6766  13.9064
    14.5964  14.8626

          k = 0.3125-0.0356 0.0000 (  6395 PWs)   bands (ev):

   -44.9285 -23.1152 -22.9947 -22.8584 -12.3891 -11.9784  -1.4897  -1.2013
    -0.6293  -0.3415   0.2000   0.7800   4.0678   5.8245   6.7284   6.8869
     7.2837   8.5722   9.9241  11.2482  11.9360  12.3007  13.1080  13.7048
    14.5369  14.8690

          k = 0.3750 0.2133 0.0000 (  6386 PWs)   bands (ev):

   -44.9196 -23.1073 -23.0870 -22.8686 -12.2457 -11.8300  -1.9141  -1.3766
    -1.1466  -0.2919   0.0632   0.7630   3.8078   6.6835   6.9870   7.3170
     7.5240   9.1108   9.8023  11.0732  11.6708  11.9893  13.1940  14.1548
    14.2388  14.5654

          k = 0.3750 0.2844 0.0000 (  6372 PWs)   bands (ev):

   -44.9174 -23.1253 -23.0801 -22.8816 -12.2133 -11.7856  -2.0006  -1.4866
    -1.1073  -0.3832   0.0599   0.6230   3.8630   6.8051   7.0784   7.5033
     7.5874   9.3807   9.7537  11.1133  11.7424  12.0075  12.8836  13.5981
    14.2892  14.5732

          k = 0.3750 0.3555 0.0000 (  6383 PWs)   bands (ev):

   -44.9152 -23.1301 -23.0730 -22.9086 -12.1823 -11.7388  -1.9906  -1.5658
    -1.0641  -0.5172   0.0347   0.3143   4.0476   6.8576   7.1922   7.4997
     7.7161   9.6353  10.0326  11.3975  11.8321  12.0334  12.4942  13.3367
    14.2997  14.5535

          k = 0.3750 0.4266 0.0000 (  6379 PWs)   bands (ev):

   -44.9133 -23.1202 -23.0670 -22.9459 -12.1568 -11.6974  -1.8824  -1.6146
    -1.0279  -0.6409  -0.1481   0.0564   4.3156   6.8370   7.1462   7.6318
     7.7030   9.7373  10.7344  11.5371  11.8337  12.2134  12.3828  13.4475
    14.3273  14.4679

          k = 0.3750 0.4977 0.0000 (  6379 PWs)   bands (ev):

   -44.9121 -23.0991 -23.0631 -22.9854 -12.1401 -11.6690  -1.7332  -1.6072
    -1.0046  -0.7736  -0.4644  -0.0030   4.5869   6.7209   7.0363   7.5134
     7.9522   9.9378  10.8801  11.6822  12.1264  12.5451  12.5512  13.4995
    14.4212  14.4325

          k = 0.3750 0.5688 0.0000 (  6392 PWs)   bands (ev):

   -44.9116 -23.0838 -23.0617 -23.0073 -12.1343 -11.6589  -1.7012  -1.5204
    -0.9936  -0.8996  -0.5671  -0.0212   4.7144   6.6295   6.9923   7.4731
     8.0596  10.1064  10.6395  12.0262  12.2062  12.7329  12.8619  13.1734
    14.3374  14.5207

          k = 0.3750-0.1422 0.0000 (  6376 PWs)   bands (ev):

   -44.9215 -23.0939 -23.0795 -22.8695 -12.2744 -11.8654  -1.7563  -1.2705
    -1.1448  -0.3264   0.1034   0.7185   3.8806   6.4003   6.9107   7.2800
     7.4548   9.0345   9.8877  11.2366  11.7164  12.0209  13.4523  14.0059
    14.3686  14.6318

          k = 0.3750-0.0711 0.0000 (  6390 PWs)   bands (ev):

   -44.9228 -23.0976 -23.0536 -22.8787 -12.2942 -11.8879  -1.5778  -1.2731
    -1.0283  -0.4403   0.1336   0.6050   4.0085   6.0681   6.9158   7.2956
     7.4288   9.0382   9.9969  11.4004  11.9758  12.1419  13.4723  13.7060
    13.8900  14.6836

          k = 0.3750 0.0000 0.0000 (  6385 PWs)   bands (ev):

   -44.9232 -23.0989 -23.0419 -22.8845 -12.3013 -11.8956  -1.4792  -1.3030
    -0.9540  -0.5048   0.1250   0.5582   4.0743   5.9268   6.9206   7.2923
     7.4415   9.0451  10.0542  11.4463  12.1510  12.3742  13.1863  13.4932
    13.6683  14.7866

          k = 0.4375 0.2489 0.0000 (  6370 PWs)   bands (ev):

   -44.9161 -23.1459 -23.0762 -22.8774 -12.1964 -11.7599  -2.1278  -1.5870
    -1.0841  -0.3571   0.0511   0.7185   3.7851   6.8977   7.2136   7.5726
     7.6731   9.3500   9.6947  10.9355  11.6649  12.0030  12.6770  13.6944
    14.0722  14.3253

          k = 0.4375 0.3200 0.0000 (  6380 PWs)   bands (ev):

   -44.9150 -23.1515 -23.0725 -22.8882 -12.1806 -11.7352  -2.1467  -1.6358
    -1.0610  -0.4182   0.0470   0.5869   3.8595   6.9924   7.2836   7.5467
     7.7296   9.4448   9.8303  11.0325  11.6887  12.0425  12.4598  13.3612
    14.1779  14.2825

          k = 0.4375 0.3911 0.0000 (  6370 PWs)   bands (ev):

   -44.9139 -23.1426 -23.0692 -22.9129 -12.1659 -11.7120  -2.0607  -1.6452
    -1.0399  -0.5268   0.0259   0.2859   4.0548   7.0497   7.2668   7.4871
     7.7016   9.5479  10.3061  11.3791  11.8058  12.1003  12.1172  13.2894
    14.2532  14.3904

          k = 0.4375 0.4622 0.0000 (  6371 PWs)   bands (ev):

   -44.9131 -23.1222 -23.0666 -22.9459 -12.1547 -11.6941  -1.8941  -1.6248
    -1.0269  -0.6433  -0.1439   0.0682   4.3044   6.8173   7.1488   7.6630
     7.7087   9.7383  10.7600  11.5483  11.8002  12.2278  12.3366  13.4638
    14.3204  14.4457

          k = 0.4375 0.5333 0.0000 (  6366 PWs)   bands (ev):

   -44.9126 -23.1011 -23.0652 -22.9741 -12.1486 -11.6844  -1.7397  -1.5858
    -1.0247  -0.7397  -0.3926   0.0410   4.5005   6.5642   7.0590   7.7065
     7.8617   9.9591  10.8009  11.4070  11.9856  12.5551  12.8465  13.6362
    14.1496  14.4081

          k = 0.4375-0.1778 0.0000 (  6370 PWs)   bands (ev):

   -44.9172 -23.1275 -23.0796 -22.8815 -12.2112 -11.7824  -2.0113  -1.4967
    -1.1068  -0.3888   0.0682   0.6376   3.8508   6.7830   7.0590   7.5055
     7.6409   9.3953   9.7511  11.1069  11.7338  12.0049  12.8752  13.6516
    14.2559  14.5234

          k = 0.4375-0.1067 0.0000 (  6389 PWs)   bands (ev):

   -44.9180 -23.1023 -23.0821 -22.8964 -12.2226 -11.7992  -1.8344  -1.3769
    -1.1333  -0.4966   0.0785   0.4476   4.0022   6.4269   7.0797   7.4361
     7.7019   9.5205   9.8693  11.4092  11.9022  12.0698  13.0210  13.5241
    14.3177  14.5622

          k = 0.4375-0.0356 0.0000 (  6381 PWs)   bands (ev):

   -44.9184 -23.0854 -23.0802 -22.9112 -12.2288 -11.8081  -1.6810  -1.2714
    -1.1683  -0.5922   0.0239   0.3384   4.1338   6.1543   7.0764   7.4515
     7.7572   9.5780  10.0077  11.5854  12.1114  12.2798  13.0375  13.3801
    13.9327  14.5137

          k =-0.5000-0.2844 0.0000 (  6382 PWs)   bands (ev):

   -44.9149 -23.1595 -23.0724 -22.8806 -12.1800 -11.7338  -2.2040  -1.6611
    -1.0610  -0.3801   0.0484   0.7034   3.7836   6.9448   7.3479   7.6027
     7.7990   9.3840   9.7067  10.8904  11.5929  12.0485  12.4893  13.5010
    13.9815  14.1903

          k =-0.5000-0.2133 0.0000 (  6373 PWs)   bands (ev):

   -44.9149 -23.1523 -23.0724 -22.8882 -12.1798 -11.7340  -2.1507  -1.6393
    -1.0607  -0.4203   0.0502   0.5922   3.8548   6.9905   7.2551   7.5448
     7.7679   9.4606   9.8234  11.0310  11.6795  12.0406  12.4569  13.3813
    14.1619  14.2704

          k =-0.5000-0.1422 0.0000 (  6377 PWs)   bands (ev):

   -44.9149 -23.1330 -23.0724 -22.9085 -12.1794 -11.7343  -2.0059  -1.5796
    -1.0629  -0.5219   0.0409   0.3342   4.0316   6.8269   7.1916   7.4736
     7.7987   9.6485  10.0447  11.3793  11.8182  12.0421  12.4702  13.3610
    14.2829  14.5077

          k =-0.5000-0.0711 0.0000 (  6377 PWs)   bands (ev):

   -44.9149 -23.1094 -23.0724 -22.9333 -12.1790 -11.7347  -1.8259  -1.5043
    -1.0740  -0.6316  -0.0782   0.1666   4.2271   6.4832   7.1382   7.5837
     7.8556   9.8658  10.2017  11.6376  11.7662  12.2511  12.7656  13.5171
    14.2449  14.4688

          k =-0.5000 0.0000 0.0000 (  6382 PWs)   bands (ev):

   -44.9149 -23.0974 -23.0724 -22.9458 -12.1788 -11.7348  -1.7338  -1.4651
    -1.0846  -0.6803  -0.1914   0.1484   4.3189   6.3293   7.0974   7.6600
     7.8794   9.9766  10.2435  11.5788  11.8226  12.4704  13.0363  13.5406
    14.1516  14.2574

     highest occupied, lowest unoccupied level (ev):     4.7234    5.6990

!    total energy              =    -591.24382783 Ry
     total all-electron energy =    -13333.877104 Ry
     estimated scf accuracy    <          4.3E-10 Ry

     The total energy is the sum of the following terms:
     one-electron contribution =    -204.03448275 Ry
     hartree contribution      =     109.79855247 Ry
     xc contribution           =     -37.58750611 Ry
     ewald contribution        =     -28.30497051 Ry
     one-center paw contrib.   =    -431.11542095 Ry

     convergence has been achieved in   6 iterations

     Forces acting on atoms (cartesian axes, Ry/au):

     atom    1 type  1   force =     0.00000000   -0.00028092    0.00005060
     atom    2 type  2   force =     0.00000000    0.00020349   -0.00095274
     atom    3 type  3   force =     0.00000000    0.00007744    0.00090213
     The non-local contrib.  to forces
     atom    1 type  1   force =     0.00000000    0.00190120   -0.00070316
     atom    2 type  2   force =     0.00000000    0.00147732   -0.21270037
     atom    3 type  3   force =     0.00000000    0.00143399    0.20944164
     The ionic contribution  to forces
     atom    1 type  1   force =    -0.00000001    0.10123539   -0.30641842
     atom    2 type  2   force =     0.00000000   -0.05712621   20.87742340
     atom    3 type  3   force =     0.00000000   -0.04410919  -20.57100499
     The local contribution  to forces
     atom    1 type  1   force =     0.00000000   -0.10329028    0.30673954
     atom    2 type  2   force =     0.00000003    0.05575366  -20.67361692
     atom    3 type  3   force =    -0.00000000    0.04272749   20.36623759
     The core correction contribution to forces
     atom    1 type  1   force =     0.00000000   -0.00007681    0.00038053
     atom    2 type  2   force =    -0.00000000    0.00014538    0.00795388
     atom    3 type  3   force =    -0.00000000    0.00006375   -0.00375199
     The Hubbard contrib.    to forces
     atom    1 type  1   force =     0.00000000    0.00000000    0.00000000
     atom    2 type  2   force =     0.00000000    0.00000000    0.00000000
     atom    3 type  3   force =     0.00000000    0.00000000    0.00000000
     The SCF correction term to forces
     atom    1 type  1   force =     0.00000000   -0.00001409    0.00007105
     atom    2 type  2   force =    -0.00000000   -0.00001033    0.00000622
     atom    3 type  3   force =    -0.00000000   -0.00000228   -0.00000117

     Total force =     0.001360     Total SCF correction =     0.000073
     Energy error            =      5.8E-05 Ry
     Gradient error          =      9.5E-04 Ry/Bohr

     number of scf cycles    =   4
     number of bfgs steps    =   3

     energy             old  =    -591.2437697948 Ry
     energy             new  =    -591.2438278308 Ry

     CASE: energy            _new < energy            _old

     new trust radius        =       0.0026425496 bohr
     new conv_thr            =       0.0000000006 Ry


ATOMIC_POSITIONS (angstrom)
Zr            0.0000000000       -0.0170938445       10.2767243413
Cl           -0.0000000017        2.0232037903       11.9565731401
Br           -0.0000000017        2.0227468988        8.4298512930



     Writing config-only to output data dir ./tmp/ZrClBr.save/
     NEW-OLD atomic charge density approx. for the potential

     Check: negative core charge=   -0.000004

     total cpu time spent up to now is       55.6 secs

     Self-consistent Calculation

     iteration #  1     ecut=    65.00 Ry     beta= 0.70
     Davidson diagonalization with overlap
     ethr =  1.00E-06,  avg # of iterations =  2.9

     Threshold (ethr) on eigenvalues was too large:
     Diagonalizing with lowered threshold

     Davidson diagonalization with overlap
     ethr =  4.04E-09,  avg # of iterations =  3.9

     total cpu time spent up to now is       59.5 secs

     total energy              =    -591.24383041 Ry
     estimated scf accuracy    <       0.00000115 Ry

     iteration #  2     ecut=    65.00 Ry     beta= 0.70
     Davidson diagonalization with overlap
     ethr =  4.42E-09,  avg # of iterations =  2.0

     total cpu time spent up to now is       61.1 secs

     total energy              =    -591.24383030 Ry
     estimated scf accuracy    <       0.00000342 Ry

     iteration #  3     ecut=    65.00 Ry     beta= 0.70
     Davidson diagonalization with overlap
     ethr =  4.42E-09,  avg # of iterations =  2.0

     total cpu time spent up to now is       62.6 secs

     total energy              =    -591.24383096 Ry
     estimated scf accuracy    <       0.00000005 Ry

     iteration #  4     ecut=    65.00 Ry     beta= 0.70
     Davidson diagonalization with overlap
     ethr =  1.90E-10,  avg # of iterations =  1.9

     total cpu time spent up to now is       64.1 secs

     total energy              =    -591.24383097 Ry
     estimated scf accuracy    <       0.00000001 Ry

     iteration #  5     ecut=    65.00 Ry     beta= 0.70
     Davidson diagonalization with overlap
     ethr =  4.26E-11,  avg # of iterations =  2.0

     total cpu time spent up to now is       65.6 secs

     total energy              =    -591.24383098 Ry
     estimated scf accuracy    <          2.4E-09 Ry

     iteration #  6     ecut=    65.00 Ry     beta= 0.70
     Davidson diagonalization with overlap
     ethr =  9.17E-12,  avg # of iterations =  1.8

     total cpu time spent up to now is       67.1 secs

     End of self-consistent calculation

          k = 0.0000 0.0000 0.0000 (  6439 PWs)   bands (ev):

   -44.9443 -23.1707 -22.8008 -22.7799 -12.7527 -12.1919  -2.1109  -0.0389
     0.1108   0.1813   1.2680   1.3579   4.2848   5.8602   6.0121   6.5650
     6.6268   6.7115   8.3247   9.3529  11.3026  13.4264  13.6362  13.8878
    14.5619  15.0941

          k = 0.0000 0.0711 0.0000 (  6441 PWs)   bands (ev):

   -44.9432 -23.1671 -22.8151 -22.7828 -12.7283 -12.1815  -2.0680  -0.1310
     0.0856   0.1700   1.1172   1.3256   4.2816   5.8074   6.0443   6.5371
     6.6839   6.8899   8.4439   9.5768  11.3651  13.0401  13.7573  14.2047
    14.5532  14.7033

          k = 0.0000 0.1422 0.0000 (  6417 PWs)   bands (ev):

   -44.9399 -23.1567 -22.8553 -22.7910 -12.6595 -12.1504  -1.9473  -0.3866
     0.0034   0.1338   0.7476   1.2410   4.2468   5.7280   6.1475   6.5151
     6.8369   7.3260   8.7804  10.1176  11.5500  12.5125  13.9334  14.1025
    14.4365  14.7611

          k = 0.0000 0.2133 0.0000 (  6433 PWs)   bands (ev):

   -44.9350 -23.1411 -22.9148 -22.8032 -12.5587 -12.0991  -1.7729  -0.7473
    -0.1963   0.0698   0.3656   1.1322   4.1387   5.7642   6.3347   6.5682
     7.0422   7.8374   9.2664  10.6986  11.7725  12.1192  13.4602  14.2283
    14.6042  15.0141

          k = 0.0000 0.2844 0.0000 (  6391 PWs)   bands (ev):

   -44.9293 -23.1227 -22.9839 -22.8174 -12.4455 -12.0284  -1.5952  -1.1316
    -0.5818  -0.0182   0.1644   1.0256   3.9787   5.9735   6.6113   6.6931
     7.2512   8.3176   9.7073  11.0911  11.7179  11.9852  13.6345  13.9047
    14.8625  15.0479

          k = 0.0000 0.3555 0.0000 (  6383 PWs)   bands (ev):

   -44.9235 -23.1042 -23.0519 -22.8317 -12.3419 -11.9426  -1.6414  -1.2984
    -0.9976  -0.1161   0.0799   0.9362   3.8381   6.3157   6.8499   6.9610
     7.4281   8.7481   9.8524  11.2087  11.6310  11.9625  13.5568  14.1707
    14.5043  14.8966

          k = 0.0000 0.4266 0.0000 (  6391 PWs)   bands (ev):

   -44.9186 -23.1092 -23.0881 -22.8438 -12.2637 -11.8553  -1.9304  -1.3729
    -1.1591  -0.2039   0.0403   0.8698   3.7592   6.6979   7.0147   7.3322
     7.5564   9.1187   9.7435  11.1012  11.6518  11.9618  13.0874  14.1113
    14.3427  14.4742

          k = 0.0000 0.4977 0.0000 (  6374 PWs)   bands (ev):

   -44.9153 -23.1466 -23.0777 -22.8518 -12.2166 -11.7891  -2.1426  -1.5738
    -1.0936  -0.2641   0.0235   0.8288   3.7346   6.9315   7.2400   7.6020
     7.6644   9.3366   9.6339  10.9993  11.6234  11.9401  12.6020  13.8687
    14.0119  14.2535

          k = 0.0000-0.5688 0.0000 (  6362 PWs)   bands (ev):

   -44.9141 -23.1597 -23.0740 -22.8546 -12.2009 -11.7644  -2.2182  -1.6446
    -1.0692  -0.2854   0.0191   0.8150   3.7322   6.9838   7.3791   7.6417
     7.7694   9.3238   9.6801  10.9671  11.5374  11.9634  12.4321  13.6846
    13.9507  14.1210

          k = 0.0625 0.0356 0.0000 (  6441 PWs)   bands (ev):

   -44.9431 -23.1669 -22.8080 -22.7908 -12.7275 -12.1807  -2.0670  -0.1159
     0.0958   0.1417   1.1666   1.2681   4.2866   5.8587   5.9828   6.5634
     6.6500   6.8924   8.4517   9.5864  11.3671  13.1124  13.6072  14.2657
    14.5872  14.7947

          k = 0.0625 0.1067 0.0000 (  6425 PWs)   bands (ev):

   -44.9409 -23.1599 -22.8383 -22.7931 -12.6809 -12.1599  -1.9851  -0.2895
     0.0270   0.1336   0.8810   1.2344   4.2700   5.7537   6.0899   6.5302
     6.7682   7.1982   8.6784   9.9646  11.4954  12.6748  13.8853  14.1597
    14.4997  14.6987

          k = 0.0625 0.1778 0.0000 (  6423 PWs)   bands (ev):

   -44.9368 -23.1469 -22.8888 -22.8027 -12.5961 -12.1187  -1.8365  -0.5922
    -0.1062   0.0742   0.5026   1.1374   4.2043   5.7030   6.2682   6.5548
     6.9497   7.6661   9.0928  10.5155  11.7501  12.2473  13.5518  14.1154
    14.5874  15.0028

          k = 0.0625 0.2489 0.0000 (  6405 PWs)   bands (ev):

   -44.9315 -23.1299 -22.9524 -22.8166 -12.4892 -12.0573  -1.6536  -0.9626
    -0.3826  -0.0635   0.2593   1.0177   4.0777   5.7991   6.5336   6.6614
     7.1529   8.1549   9.5739  10.9784  11.8704  12.0717  13.3256  13.9723
    14.8204  15.0266

          k = 0.0625 0.3200 0.0000 (  6400 PWs)   bands (ev):

   -44.9257 -23.1115 -23.0198 -22.8321 -12.3813 -11.9781  -1.5327  -1.2811
    -0.7991  -0.1770   0.1561   0.8998   3.9398   6.0519   6.7908   6.9067
     7.3368   8.6127   9.8660  11.2318  11.7662  12.0147  13.6347  13.8759
    14.5123  14.8752

          k = 0.0625 0.3911 0.0000 (  6385 PWs)   bands (ev):

   -44.9204 -23.0946 -23.0807 -22.8464 -12.2918 -11.8894  -1.7640  -1.2734
    -1.1483  -0.2556   0.0894   0.7995   3.8474   6.4172   6.9555   7.2776
     7.4773   9.0368   9.8437  11.2481  11.7217  12.0070  13.3640  13.9599
    14.3475  14.6481

          k = 0.0625 0.4622 0.0000 (  6380 PWs)   bands (ev):

   -44.9163 -23.1274 -23.0809 -22.8574 -12.2306 -11.8103  -2.0197  -1.4814
    -1.1175  -0.3077   0.0450   0.7276   3.8135   6.8106   7.1013   7.5345
     7.6120   9.3942   9.6880  11.1617  11.7166  11.9700  12.8098  13.6799
    14.2226  14.5142

          k = 0.0625 0.5333 0.0000 (  6366 PWs)   bands (ev):

   -44.9141 -23.1521 -23.0738 -22.8634 -12.2000 -11.7635  -2.1618  -1.6213
    -1.0691  -0.3343   0.0231   0.6903   3.8117   7.0267   7.2911   7.5801
     7.7313   9.3961   9.8070  11.1108  11.6387  11.9668  12.4225  13.4593
    14.1332  14.2621

          k = 0.1250 0.0711 0.0000 (  6421 PWs)   bands (ev):

   -44.9396 -23.1561 -22.8433 -22.8063 -12.6565 -12.1472  -1.9435  -0.3572
     0.0200   0.0782   0.7953   1.1641   4.2664   5.7903   6.0506   6.5290
     6.8032   7.3322   8.8059  10.1416  11.5596  12.5541  13.9577  14.0114
    14.4765  14.8350

          k = 0.1250 0.1422 0.0000 (  6411 PWs)   bands (ev):

   -44.9366 -23.1465 -22.8831 -22.8109 -12.5939 -12.1162  -1.8338  -0.5749
    -0.1013   0.0480   0.5226   1.0920   4.2208   5.7153   6.2309   6.5656
     6.9281   7.6694   9.1090  10.5276  11.7600  12.2670  13.5818  14.1069
    14.5500  15.0486

          k = 0.1250 0.2133 0.0000 (  6418 PWs)   bands (ev):

   -44.9321 -23.1321 -22.9359 -22.8239 -12.5030 -12.0647  -1.6732  -0.8724
    -0.2853  -0.1271   0.3020   0.9636   4.1452   5.7047   6.5151   6.6684
     7.0942   8.1067   9.5318  10.9411  12.0230  12.1411  13.1274  13.9363
    14.7669  14.9648

          k = 0.1250 0.2844 0.0000 (  6391 PWs)   bands (ev):

   -44.9267 -23.1150 -22.9951 -22.8416 -12.4018 -11.9938  -1.5013  -1.1970
    -0.6216  -0.3065   0.2021   0.8032   4.0591   5.8218   6.8024   6.9109
     7.2621   8.5673   9.8870  11.2389  11.9643  12.3316  13.1124  13.7188
    14.4470  14.8207

          k = 0.1250 0.3555 0.0000 (  6393 PWs)   bands (ev):

   -44.9214 -23.0980 -23.0524 -22.8603 -12.3098 -11.9088  -1.5715  -1.2832
    -1.0117  -0.3969   0.1295   0.6370   4.0000   6.0780   6.9826   7.2824
     7.4240   9.0321   9.9701  11.4058  12.0068  12.1615  13.4557  13.6653
    13.8955  14.6334

          k = 0.1250 0.4266 0.0000 (  6390 PWs)   bands (ev):

   -44.9168 -23.1005 -23.0830 -22.8765 -12.2401 -11.8240  -1.8292  -1.3554
    -1.1433  -0.4417   0.0673   0.4923   3.9891   6.4441   7.1257   7.4658
     7.6530   9.5140   9.8271  11.4533  11.9201  12.0679  13.0284  13.4727
    14.2852  14.5547

          k = 0.1250 0.4977 0.0000 (  6371 PWs)   bands (ev):

   -44.9138 -23.1317 -23.0734 -22.8873 -12.1976 -11.7608  -2.0072  -1.5570
    -1.0716  -0.4579   0.0232   0.3941   4.0094   6.8450   7.2217   7.5260
     7.7434   9.5900  10.0320  11.4651  11.8280  12.0025  12.4636  13.3528
    14.2328  14.5254

          k = 0.1250 0.5688 0.0000 (  6366 PWs)   bands (ev):

   -44.9127 -23.1427 -23.0700 -22.8912 -12.1834 -11.7374  -2.0702  -1.6272
    -1.0470  -0.4608   0.0068   0.3595   4.0228   7.0575   7.2815   7.5309
     7.6944   9.4871  10.3041  11.4776  11.7793  12.0361  12.1183  13.3075
    14.1892  14.4216

          k = 0.1250 0.0000 0.0000 (  6449 PWs)   bands (ev):

   -44.9407 -23.1595 -22.8244 -22.8095 -12.6787 -12.1575  -1.9822  -0.2674
     0.0304   0.1012   0.9187   1.1776   4.2811   5.8398   5.9804   6.5252
     6.7558   7.2029   8.6984   9.9841  11.4995  12.7152  13.7542  14.2297
    14.5730  14.7200

          k = 0.1875 0.1067 0.0000 (  6401 PWs)   bands (ev):

   -44.9343 -23.1398 -22.9039 -22.8209 -12.5525 -12.0919  -1.7657  -0.7189
    -0.1749   0.0058   0.3931   1.0448   4.1752   5.7999   6.2429   6.5674
     7.0141   7.8438   9.3081  10.7245  11.7914  12.1519  13.5103  14.2686
    14.4888  15.1092

          k = 0.1875 0.1778 0.0000 (  6409 PWs)   bands (ev):

   -44.9309 -23.1288 -22.9447 -22.8303 -12.4838 -12.0507  -1.6480  -0.9391
    -0.3599  -0.1079   0.2648   0.9437   4.1124   5.8008   6.4863   6.6687
     7.1250   8.1583   9.6022  10.9941  11.8849  12.1042  13.3602  14.0225
    14.7648  15.0662

          k = 0.1875 0.2489 0.0000 (  6412 PWs)   bands (ev):

   -44.9264 -23.1143 -22.9913 -22.8490 -12.3987 -11.9896  -1.4985  -1.1846
    -0.6069  -0.3291   0.1974   0.7653   4.0787   5.8161   6.7997   6.8989
     7.2495   8.5676   9.8987  11.2477  11.9780  12.3193  13.1444  13.7574
    14.4225  14.8446

          k = 0.1875 0.3200 0.0000 (  6401 PWs)   bands (ev):

   -44.9215 -23.0987 -23.0371 -22.8732 -12.3139 -11.9120  -1.4563  -1.3121
    -0.9214  -0.4862   0.1177   0.5448   4.0904   5.9273   6.9980   7.2619
     7.4213   9.0340  10.0399  11.4601  12.1869  12.4196  13.2044  13.4804
    13.6597  14.7414

          k = 0.1875 0.3911 0.0000 (  6389 PWs)   bands (ev):

   -44.9169 -23.0846 -23.0762 -22.8979 -12.2433 -11.8284  -1.6564  -1.2407
    -1.1761  -0.5638   0.0191   0.3302   4.1483   6.1599   7.1166   7.4764
     7.6955   9.5585   9.9940  11.6229  12.1144  12.3279  13.0819  13.3632
    13.9301  14.4751

          k = 0.1875 0.4622 0.0000 (  6382 PWs)   bands (ev):

   -44.9135 -23.1058 -23.0728 -22.9179 -12.1942 -11.7566  -1.8103  -1.4745
    -1.0829  -0.5941  -0.0680   0.1591   4.2323   6.4895   7.1528   7.6456
     7.7805   9.8245  10.1821  11.6787  11.8228  12.2606  12.8159  13.4739
    14.2166  14.4678

          k = 0.1875 0.5333 0.0000 (  6363 PWs)   bands (ev):

   -44.9116 -23.1210 -23.0668 -22.9290 -12.1692 -11.7150  -1.8918  -1.6025
    -1.0337  -0.6012  -0.1132   0.0591   4.2962   6.8133   7.1586   7.6491
     7.7437   9.6871  10.7519  11.5794  11.9025  12.1981  12.3155  13.4710
    14.2755  14.4746

          k = 0.1875-0.0356 0.0000 (  6417 PWs)   bands (ev):

   -44.9362 -23.1458 -22.8773 -22.8202 -12.5905 -12.1124  -1.8298  -0.5694
    -0.1051   0.0368   0.5210   1.0748   4.2284   5.7570   6.1692   6.5263
     6.9468   7.6723   9.1347  10.5436  11.7603  12.2611  13.5935  14.0346
    14.6068  15.0648

          k = 0.2500 0.1422 0.0000 (  6395 PWs)   bands (ev):

   -44.9281 -23.1206 -22.9754 -22.8370 -12.4357 -12.0159  -1.5853  -1.1092
    -0.5602  -0.0913   0.1798   0.9294   4.0236   5.9891   6.5374   6.6815
     7.2260   8.3218   9.7503  11.1145  11.7326  12.0145  13.6839  13.9789
    14.9064  15.0030

          k = 0.2500 0.2133 0.0000 (  6393 PWs)   bands (ev):

   -44.9247 -23.1095 -23.0124 -22.8496 -12.3725 -11.9660  -1.5220  -1.2612
    -0.7783  -0.2307   0.1542   0.8077   3.9847   6.0487   6.7748   6.8738
     7.3099   8.6133   9.8967  11.2558  11.7704  12.0322  13.7127  13.9578
    14.5117  14.8726

          k = 0.2500 0.2844 0.0000 (  6397 PWs)   bands (ev):

   -44.9206 -23.0965 -23.0470 -22.8733 -12.3031 -11.8992  -1.5564  -1.2761
    -0.9986  -0.4326   0.1227   0.5736   4.0330   6.0724   6.9723   7.2616
     7.4085   9.0297   9.9925  11.4233  11.9886  12.1533  13.5187  13.6369
    13.9734  14.6877

          k = 0.2500 0.3555 0.0000 (  6390 PWs)   bands (ev):

   -44.9165 -23.0838 -23.0735 -22.9048 -12.2397 -11.8230  -1.6474  -1.2402
    -1.1715  -0.5807   0.0096   0.3073   4.1640   6.1600   7.1070   7.4714
     7.6856   9.5580  10.0073  11.6303  12.1068  12.2869  13.0259  13.4444
    13.9922  14.5174

          k = 0.2500 0.4266 0.0000 (  6372 PWs)   bands (ev):

   -44.9130 -23.0907 -23.0719 -22.9377 -12.1904 -11.7513  -1.7019  -1.4314
    -1.0930  -0.6634  -0.2018   0.1242   4.3460   6.3323   7.1046   7.7096
     7.7948   9.9636  10.2129  11.5882  11.8804  12.4797  13.1234  13.5270
    14.1455  14.2676

          k = 0.2500 0.4977 0.0000 (  6380 PWs)   bands (ev):

   -44.9107 -23.0974 -23.0646 -22.9638 -12.1595 -11.6999  -1.7207  -1.5610
    -1.0319  -0.7217  -0.3829   0.0209   4.5161   6.5595   7.0640   7.6415
     7.9184   9.9246  10.8124  11.3776  12.0566  12.5653  12.8927  13.6585
    14.1302  14.3907

          k = 0.2500 0.5688 0.0000 (  6368 PWs)   bands (ev):

   -44.9099 -23.0987 -23.0620 -22.9740 -12.1490 -11.6812  -1.7284  -1.5979
    -1.0100  -0.7553  -0.4404  -0.0162   4.5881   6.7010   7.0422   7.5038
     7.9935   9.8965  10.9328  11.6639  12.1533  12.4962  12.5693  13.5983
    14.3936  14.4372

          k = 0.2500-0.0711 0.0000 (  6400 PWs)   bands (ev):

   -44.9305 -23.1280 -22.9443 -22.8349 -12.4799 -12.0461  -1.6436  -0.9479
    -0.3691  -0.1160   0.2615   0.9502   4.1089   5.8220   6.4612   6.6200
     7.1528   8.1603   9.6249  11.0007  11.8697  12.0885  13.3437  13.9791
    14.8108  15.0772

          k = 0.2500 0.0000 0.0000 (  6409 PWs)   bands (ev):

   -44.9313 -23.1306 -22.9312 -22.8363 -12.4958 -12.0561  -1.6652  -0.8735
    -0.2882  -0.1520   0.2950   0.9437   4.1549   5.7311   6.4622   6.6023
     7.1246   8.1109   9.5759  10.9581  11.9978  12.1339  13.1256  13.8992
    14.8049  14.9896

          k = 0.3125 0.1778 0.0000 (  6393 PWs)   bands (ev):

   -44.9219 -23.1013 -23.0458 -22.8528 -12.3288 -11.9241  -1.6271  -1.2859
    -0.9872  -0.1986   0.0977   0.8329   3.8852   6.3193   6.8296   6.9150
     7.4017   8.7485   9.8944  11.2251  11.6314  11.9868  13.6636  14.2479
    14.5825  14.7933

          k = 0.3125 0.2489 0.0000 (  6389 PWs)   bands (ev):

   -44.9189 -23.0919 -23.0747 -22.8665 -12.2795 -11.8714  -1.7455  -1.2674
    -1.1364  -0.3205   0.0933   0.6970   3.8962   6.4182   6.9373   7.2413
     7.4528   9.0321   9.8875  11.2502  11.7178  12.0259  13.4697  13.9394
    14.3910  14.7068

          k = 0.3125 0.3200 0.0000 (  6378 PWs)   bands (ev):

   -44.9156 -23.0955 -23.0806 -22.8933 -12.2298 -11.8086  -1.8117  -1.3549
    -1.1356  -0.4902   0.0671   0.4147   4.0280   6.4493   7.1015   7.4512
     7.6277   9.5060   9.8699  11.4416  11.9045  12.0652  13.0119  13.5320
    14.3518  14.6386

          k = 0.3125 0.3911 0.0000 (  6375 PWs)   bands (ev):

   -44.9126 -23.1021 -23.0711 -22.9298 -12.1870 -11.7455  -1.7984  -1.4788
    -1.0790  -0.6251  -0.0911   0.1375   4.2551   6.5022   7.1391   7.6276
     7.7630   9.8695  10.1658  11.6615  11.7986  12.2194  12.8273  13.5140
    14.2751  14.5231

          k = 0.3125 0.4622 0.0000 (  6377 PWs)   bands (ev):

   -44.9103 -23.0953 -23.0637 -22.9699 -12.1558 -11.6942  -1.7181  -1.5644
    -1.0300  -0.7359  -0.4019   0.0243   4.5225   6.5726   7.0609   7.6355
     7.9022   9.9539  10.7902  11.3633  12.0532  12.5332  12.9500  13.6077
    14.1529  14.4046

          k = 0.3125 0.5333 0.0000 (  6377 PWs)   bands (ev):

   -44.9090 -23.0812 -23.0598 -23.0021 -12.1395 -11.6654  -1.6943  -1.5091
    -0.9994  -0.8999  -0.5622  -0.0293   4.7243   6.6240   6.9964   7.4523
     8.0845  10.0862  10.6693  11.9489  12.2399  12.7501  12.8969  13.2174
    14.2745  14.5528

          k = 0.3125-0.1067 0.0000 (  6394 PWs)   bands (ev):

   -44.9242 -23.1087 -23.0146 -22.8514 -12.3686 -11.9610  -1.5236  -1.2709
    -0.7949  -0.2391   0.1611   0.8255   3.9717   6.0537   6.7455   6.8721
     7.3302   8.6166   9.9082  11.2485  11.7621  12.0222  13.6766  13.9058
    14.5960  14.8634

          k = 0.3125-0.0356 0.0000 (  6395 PWs)   bands (ev):

   -44.9255 -23.1127 -22.9926 -22.8558 -12.3910 -11.9797  -1.4919  -1.2042
    -0.6313  -0.3437   0.2001   0.7789   4.0671   5.8293   6.7310   6.8885
     7.2872   8.5737   9.9286  11.2474  11.9377  12.3027  13.1067  13.7040
    14.5361  14.8699

          k = 0.3750 0.2133 0.0000 (  6386 PWs)   bands (ev):

   -44.9167 -23.1052 -23.0844 -22.8661 -12.2477 -11.8314  -1.9169  -1.3779
    -1.1483  -0.2943   0.0636   0.7611   3.8078   6.6876   6.9915   7.3182
     7.5275   9.1145   9.8041  11.0747  11.6724  11.9906  13.1942  14.1564
    14.2377  14.5661

          k = 0.3750 0.2844 0.0000 (  6372 PWs)   bands (ev):

   -44.9144 -23.1233 -23.0775 -22.8791 -12.2153 -11.7871  -2.0033  -1.4880
    -1.1091  -0.3848   0.0596   0.6211   3.8632   6.8093   7.0835   7.5055
     7.5897   9.3850   9.7541  11.1158  11.7436  12.0083  12.8833  13.6008
    14.2882  14.5732

          k = 0.3750 0.3555 0.0000 (  6383 PWs)   bands (ev):

   -44.9122 -23.1280 -23.0704 -22.9061 -12.1843 -11.7403  -1.9932  -1.5675
    -1.0659  -0.5184   0.0344   0.3126   4.0478   6.8611   7.1996   7.5001
     7.7194   9.6392  10.0327  11.3996  11.8345  12.0333  12.4936  13.3395
    14.2986  14.5538

          k = 0.3750 0.4266 0.0000 (  6379 PWs)   bands (ev):

   -44.9103 -23.1181 -23.0645 -22.9435 -12.1588 -11.6989  -1.8850  -1.6167
    -1.0298  -0.6421  -0.1491   0.0560   4.3158   6.8394   7.1521   7.6356
     7.7058   9.7400  10.7357  11.5387  11.8340  12.2138  12.3836  13.4494
    14.3266  14.4691

          k = 0.3750 0.4977 0.0000 (  6379 PWs)   bands (ev):

   -44.9091 -23.0971 -23.0605 -22.9830 -12.1422 -11.6705  -1.7358  -1.6095
    -1.0067  -0.7749  -0.4652  -0.0029   4.5874   6.7218   7.0415   7.5180
     7.9568   9.9403  10.8823  11.6826  12.1256  12.5452  12.5522  13.5010
    14.4215  14.4335

          k = 0.3750 0.5688 0.0000 (  6392 PWs)   bands (ev):

   -44.9087 -23.0819 -23.0591 -23.0048 -12.1364 -11.6604  -1.7040  -1.5227
    -0.9964  -0.9004  -0.5677  -0.0209   4.7150   6.6297   6.9973   7.4781
     8.0647  10.1090  10.6416  12.0264  12.2059  12.7324  12.8618  13.1753
    14.3383  14.5227

          k = 0.3750-0.1422 0.0000 (  6376 PWs)   bands (ev):

   -44.9185 -23.0913 -23.0775 -22.8670 -12.2763 -11.8668  -1.7591  -1.2720
    -1.1463  -0.3293   0.1042   0.7170   3.8803   6.4046   6.9137   7.2807
     7.4600   9.0375   9.8909  11.2362  11.7185  12.0228  13.4522  14.0058
    14.3687  14.6325

          k = 0.3750-0.0711 0.0000 (  6390 PWs)   bands (ev):

   -44.9198 -23.0950 -23.0516 -22.8761 -12.2962 -11.8894  -1.5808  -1.2748
    -1.0296  -0.4432   0.1340   0.6041   4.0077   6.0726   6.9175   7.2973
     7.4341   9.0403  10.0018  11.3996  11.9774  12.1436  13.4716  13.7060
    13.8899  14.6832

          k = 0.3750 0.0000 0.0000 (  6385 PWs)   bands (ev):

   -44.9202 -23.0964 -23.0399 -22.8819 -12.3033 -11.8970  -1.4825  -1.3046
    -0.9552  -0.5077   0.1250   0.5578   4.0733   5.9314   6.9219   7.2949
     7.4463   9.0467  10.0598  11.4459  12.1544  12.3725  13.1874  13.4920
    13.6679  14.7862

          k = 0.4375 0.2489 0.0000 (  6370 PWs)   bands (ev):

   -44.9131 -23.1439 -23.0736 -22.8750 -12.1984 -11.7614  -2.1305  -1.5879
    -1.0858  -0.3595   0.0512   0.7168   3.7852   6.9023   7.2179   7.5761
     7.6743   9.3560   9.6939  10.9379  11.6665  12.0042  12.6778  13.6946
    14.0728  14.3248

          k = 0.4375 0.3200 0.0000 (  6380 PWs)   bands (ev):

   -44.9120 -23.1495 -23.0700 -22.8858 -12.1826 -11.7366  -2.1493  -1.6368
    -1.0628  -0.4202   0.0469   0.5852   3.8597   6.9979   7.2868   7.5500
     7.7318   9.4489   9.8307  11.0351  11.6906  12.0431  12.4599  13.3636
    14.1770  14.2821

          k = 0.4375 0.3911 0.0000 (  6370 PWs)   bands (ev):

   -44.9109 -23.1406 -23.0666 -22.9105 -12.1680 -11.7134  -2.0633  -1.6465
    -1.0417  -0.5286   0.0258   0.2846   4.0550   7.0536   7.2715   7.4904
     7.7045   9.5502  10.3085  11.3806  11.8072  12.1014  12.1176  13.2909
    14.2514  14.3916

          k = 0.4375 0.4622 0.0000 (  6371 PWs)   bands (ev):

   -44.9101 -23.1203 -23.0640 -22.9435 -12.1567 -11.6956  -1.8967  -1.6264
    -1.0289  -0.6450  -0.1449   0.0682   4.3046   6.8197   7.1532   7.6675
     7.7126   9.7402  10.7638  11.5489  11.8002  12.2282  12.3381  13.4648
    14.3193  14.4467

          k = 0.4375 0.5333 0.0000 (  6366 PWs)   bands (ev):

   -44.9097 -23.0992 -23.0626 -22.9716 -12.1506 -11.6859  -1.7424  -1.5877
    -1.0271  -0.7410  -0.3935   0.0414   4.5007   6.5663   7.0632   7.7090
     7.8683   9.9608  10.8053  11.4078  11.9855  12.5533  12.8482  13.6382
    14.1485  14.4078

          k = 0.4375-0.1778 0.0000 (  6370 PWs)   bands (ev):

   -44.9142 -23.1255 -23.0770 -22.8790 -12.2132 -11.7838  -2.0141  -1.4976
    -1.1085  -0.3917   0.0687   0.6361   3.8506   6.7868   7.0628   7.5107
     7.6417   9.4011   9.7510  11.1079  11.7359  12.0067  12.8764  13.6497
    14.2564  14.5252

          k = 0.4375-0.1067 0.0000 (  6389 PWs)   bands (ev):

   -44.9150 -23.1003 -23.0795 -22.8939 -12.2246 -11.8007  -1.8372  -1.3779
    -1.1351  -0.4995   0.0788   0.4467   4.0017   6.4309   7.0808   7.4442
     7.7026   9.5243   9.8717  11.4086  11.9049  12.0720  13.0212  13.5231
    14.3174  14.5633

          k = 0.4375-0.0356 0.0000 (  6381 PWs)   bands (ev):

   -44.9155 -23.0830 -23.0781 -22.9086 -12.2308 -11.8096  -1.6839  -1.2724
    -1.1702  -0.5951   0.0236   0.3385   4.1331   6.1584   7.0767   7.4605
     7.7579   9.5797  10.0127  11.5852  12.1163  12.2779  13.0378  13.3788
    13.9332  14.5129

          k =-0.5000-0.2844 0.0000 (  6382 PWs)   bands (ev):

   -44.9119 -23.1575 -23.0698 -22.8781 -12.1820 -11.7353  -2.2066  -1.6619
    -1.0627  -0.3825   0.0485   0.7017   3.7837   6.9498   7.3520   7.6067
     7.7997   9.3887   9.7073  10.8928  11.5941  12.0494  12.4912  13.5009
    13.9832  14.1886

          k =-0.5000-0.2133 0.0000 (  6373 PWs)   bands (ev):

   -44.9119 -23.1503 -23.0698 -22.8857 -12.1819 -11.7355  -2.1534  -1.6402
    -1.0625  -0.4228   0.0503   0.5907   3.8549   6.9948   7.2594   7.5492
     7.7689   9.4645   9.8249  11.0329  11.6805  12.0417  12.4593  13.3804
    14.1626  14.2703

          k =-0.5000-0.1422 0.0000 (  6377 PWs)   bands (ev):

   -44.9119 -23.1310 -23.0698 -22.9061 -12.1814 -11.7358  -2.0085  -1.5807
    -1.0648  -0.5244   0.0410   0.3332   4.0316   6.8303   7.1943   7.4810
     7.7997   9.6515  10.0472  11.3796  11.8207  12.0430  12.4721  13.3599
    14.2823  14.5094

          k =-0.5000-0.0711 0.0000 (  6377 PWs)   bands (ev):

   -44.9119 -23.1074 -23.0698 -22.9308 -12.1810 -11.7362  -1.8286  -1.5055
    -1.0761  -0.6339  -0.0789   0.1669   4.2269   6.4865   7.1402   7.5923
     7.8564   9.8681  10.2050  11.6388  11.7685  12.2499  12.7674  13.5163
    14.2442  14.4697

          k =-0.5000 0.0000 0.0000 (  6382 PWs)   bands (ev):

   -44.9119 -23.0955 -23.0698 -22.9432 -12.1808 -11.7363  -1.7366  -1.4664
    -1.0868  -0.6825  -0.1923   0.1491   4.3186   6.3327   7.0997   7.6685
     7.8802   9.9781  10.2477  11.5819  11.8234  12.4668  13.0402  13.5387
    14.1522  14.2569

     highest occupied, lowest unoccupied level (ev):     4.7243    5.7030

!    total energy              =    -591.24383098 Ry
     total all-electron energy =    -13333.877107 Ry
     estimated scf accuracy    <          2.9E-11 Ry

     The total energy is the sum of the following terms:
     one-electron contribution =    -204.21747829 Ry
     hartree contribution      =     109.89063076 Ry
     xc contribution           =     -37.58862301 Ry
     ewald contribution        =     -28.21287825 Ry
     one-center paw contrib.   =    -431.11548219 Ry

     convergence has been achieved in   6 iterations

     Forces acting on atoms (cartesian axes, Ry/au):

     atom    1 type  1   force =     0.00000000    0.00038688    0.00003636
     atom    2 type  2   force =     0.00000000   -0.00013832   -0.00058775
     atom    3 type  3   force =     0.00000000   -0.00024855    0.00055139
     The non-local contrib.  to forces
     atom    1 type  1   force =     0.00000000    0.00213614   -0.00068871
     atom    2 type  2   force =     0.00000000    0.00134651   -0.21248015
     atom    3 type  3   force =     0.00000000    0.00129536    0.20928725
     The ionic contribution  to forces
     atom    1 type  1   force =    -0.00000001    0.10916173   -0.30536059
     atom    2 type  2   force =     0.00000000   -0.06176748   20.88700777
     atom    3 type  3   force =     0.00000000   -0.04739425  -20.58164718
     The local contribution  to forces
     atom    1 type  1   force =    -0.00000000   -0.11080920    0.30569938
     atom    2 type  2   force =     0.00000003    0.06015342  -20.68301625
     atom    3 type  3   force =    -0.00000000    0.04579433   20.37665744
     The core correction contribution to forces
     atom    1 type  1   force =     0.00000000   -0.00006998    0.00037960
     atom    2 type  2   force =    -0.00000000    0.00016074    0.00791070
     atom    3 type  3   force =    -0.00000000    0.00008604   -0.00372890
     The Hubbard contrib.    to forces
     atom    1 type  1   force =     0.00000000    0.00000000    0.00000000
     atom    2 type  2   force =     0.00000000    0.00000000    0.00000000
     atom    3 type  3   force =     0.00000000    0.00000000    0.00000000
     The SCF correction term to forces
     atom    1 type  1   force =     0.00000000   -0.00000262    0.00001986
     atom    2 type  2   force =    -0.00000000   -0.00000233    0.00000334
     atom    3 type  3   force =    -0.00000000   -0.00000085   -0.00000405

     Total force =     0.000939     Total SCF correction =     0.000021
     Energy error            =      3.1E-06 Ry
     Gradient error          =      5.9E-04 Ry/Bohr

     number of scf cycles    =   5
     number of bfgs steps    =   4

     energy             old  =    -591.2438278308 Ry
     energy             new  =    -591.2438309757 Ry

     CASE: energy            _new < energy            _old

     new trust radius        =       0.0012420274 bohr
     new conv_thr            =            1.0E-10 Ry


ATOMIC_POSITIONS (angstrom)
Zr            0.0000000000       -0.0171848481       10.2767541578
Cl           -0.0000000017        2.0232972594       11.9559225677
Br           -0.0000000017        2.0227444333        8.4304720489



     Writing config-only to output data dir ./tmp/ZrClBr.save/
     NEW-OLD atomic charge density approx. for the potential

     Check: negative core charge=   -0.000004

     negative rho (up, down):  1.031E-08 0.000E+00

     total cpu time spent up to now is       67.6 secs

     Self-consistent Calculation

     iteration #  1     ecut=    65.00 Ry     beta= 0.70
     Davidson diagonalization with overlap
     ethr =  1.00E-06,  avg # of iterations =  2.0

     Threshold (ethr) on eigenvalues was too large:
     Diagonalizing with lowered threshold

     Davidson diagonalization with overlap
     ethr =  8.47E-10,  avg # of iterations =  4.0

     negative rho (up, down):  1.056E-08 0.000E+00

     total cpu time spent up to now is       71.1 secs

     total energy              =    -591.24383188 Ry
     estimated scf accuracy    <       0.00000025 Ry

     iteration #  2     ecut=    65.00 Ry     beta= 0.70
     Davidson diagonalization with overlap
     ethr =  9.67E-10,  avg # of iterations =  2.0

     negative rho (up, down):  1.028E-08 0.000E+00

     total cpu time spent up to now is       72.7 secs

     total energy              =    -591.24383185 Ry
     estimated scf accuracy    <       0.00000092 Ry

     iteration #  3     ecut=    65.00 Ry     beta= 0.70
     Davidson diagonalization with overlap
     ethr =  9.67E-10,  avg # of iterations =  2.0

     negative rho (up, down):  1.027E-08 0.000E+00

     total cpu time spent up to now is       74.3 secs

     total energy              =    -591.24383202 Ry
     estimated scf accuracy    <          4.1E-09 Ry

     iteration #  4     ecut=    65.00 Ry     beta= 0.70
     Davidson diagonalization with overlap
     ethr =  1.56E-11,  avg # of iterations =  2.0

     negative rho (up, down):  1.027E-08 0.000E+00

     total cpu time spent up to now is       75.9 secs

     total energy              =    -591.24383202 Ry
     estimated scf accuracy    <          2.7E-09 Ry

     iteration #  5     ecut=    65.00 Ry     beta= 0.70
     Davidson diagonalization with overlap
     ethr =  1.04E-11,  avg # of iterations =  1.2

     negative rho (up, down):  1.027E-08 0.000E+00

     total cpu time spent up to now is       77.3 secs

     total energy              =    -591.24383202 Ry
     estimated scf accuracy    <          1.6E-10 Ry

     iteration #  6     ecut=    65.00 Ry     beta= 0.70
     Davidson diagonalization with overlap
     ethr =  6.00E-13,  avg # of iterations =  2.0

     negative rho (up, down):  1.027E-08 0.000E+00

     total cpu time spent up to now is       78.7 secs

     End of self-consistent calculation

          k = 0.0000 0.0000 0.0000 (  6439 PWs)   bands (ev):

   -44.9427 -23.1695 -22.7995 -22.7786 -12.7540 -12.1922  -2.1120  -0.0383
     0.1088   0.1791   1.2667   1.3563   4.2872   5.8621   6.0136   6.5652
     6.6277   6.7119   8.3242   9.3530  11.3014  13.4258  13.6359  13.8900
    14.5616  15.0955

          k = 0.0000 0.0711 0.0000 (  6441 PWs)   bands (ev):

   -44.9416 -23.1658 -22.8137 -22.7815 -12.7296 -12.1818  -2.0692  -0.1315
     0.0846   0.1678   1.1159   1.3240   4.2839   5.8092   6.0458   6.5373
     6.6848   6.8904   8.4435   9.5768  11.3640  13.0405  13.7570  14.2060
    14.5532  14.7043

          k = 0.0000 0.1422 0.0000 (  6417 PWs)   bands (ev):

   -44.9383 -23.1554 -22.8540 -22.7896 -12.6607 -12.1508  -1.9485  -0.3879
     0.0032   0.1317   0.7467   1.2394   4.2488   5.7300   6.1489   6.5154
     6.8380   7.3265   8.7804  10.1173  11.5492  12.5131  13.9346  14.1023
    14.4381  14.7602

          k = 0.0000 0.2133 0.0000 (  6433 PWs)   bands (ev):

   -44.9334 -23.1399 -22.9135 -22.8018 -12.5599 -12.0995  -1.7742  -0.7489
    -0.1967   0.0678   0.3655   1.1307   4.1401   5.7663   6.3359   6.5687
     7.0435   7.8380   9.2671  10.6978  11.7726  12.1196  13.4608  14.2295
    14.6041  15.0136

          k = 0.0000 0.2844 0.0000 (  6391 PWs)   bands (ev):

   -44.9277 -23.1214 -22.9827 -22.8161 -12.4467 -12.0289  -1.5965  -1.1330
    -0.5826  -0.0202   0.1649   1.0242   3.9797   5.9756   6.6124   6.6939
     7.2529   8.3182   9.7090  11.0899  11.7184  11.9857  13.6345  13.9052
    14.8631  15.0480

          k = 0.0000 0.3555 0.0000 (  6383 PWs)   bands (ev):

   -44.9219 -23.1029 -23.0507 -22.8304 -12.3431 -11.9432  -1.6429  -1.2996
    -0.9984  -0.1180   0.0805   0.9349   3.8390   6.3176   6.8510   6.9619
     7.4301   8.7490   9.8545  11.2083  11.6314  11.9627  13.5570  14.1706
    14.5053  14.8971

          k = 0.0000 0.4266 0.0000 (  6391 PWs)   bands (ev):

   -44.9170 -23.1080 -23.0867 -22.8424 -12.2648 -11.8560  -1.9318  -1.3736
    -1.1603  -0.2058   0.0409   0.8686   3.7601   6.6994   7.0162   7.3329
     7.5587   9.1204   9.7445  11.1018  11.6523  11.9620  13.0878  14.1118
    14.3432  14.4752

          k = 0.0000 0.4977 0.0000 (  6374 PWs)   bands (ev):

   -44.9137 -23.1454 -23.0763 -22.8505 -12.2177 -11.7898  -2.1438  -1.5744
    -1.0950  -0.2660   0.0241   0.8277   3.7356   6.9329   7.2416   7.6038
     7.6656   9.3393   9.6338  11.0002  11.6242  11.9404  12.6026  13.8691
    14.0133  14.2538

          k = 0.0000-0.5688 0.0000 (  6362 PWs)   bands (ev):

   -44.9125 -23.1585 -23.0726 -22.8533 -12.2020 -11.7651  -2.2193  -1.6452
    -1.0706  -0.2873   0.0197   0.8138   3.7332   6.9852   7.3807   7.6441
     7.7701   9.3251   9.6814  10.9681  11.5381  11.9637  12.4331  13.6850
    13.9534  14.1200

          k = 0.0625 0.0356 0.0000 (  6441 PWs)   bands (ev):

   -44.9415 -23.1657 -22.8066 -22.7894 -12.7288 -12.1810  -2.0682  -0.1163
     0.0943   0.1400   1.1652   1.2666   4.2888   5.8605   5.9844   6.5639
     6.6506   6.8929   8.4513   9.5864  11.3660  13.1131  13.6068  14.2668
    14.5872  14.7956

          k = 0.0625 0.1067 0.0000 (  6425 PWs)   bands (ev):

   -44.9393 -23.1587 -22.8370 -22.7918 -12.6822 -12.1602  -1.9863  -0.2907
     0.0265   0.1317   0.8799   1.2329   4.2720   5.7555   6.0914   6.5306
     6.7692   7.1987   8.6782   9.9644  11.4945  12.6755  13.8851  14.1609
    14.5016  14.6974

          k = 0.0625 0.1778 0.0000 (  6423 PWs)   bands (ev):

   -44.9352 -23.1457 -22.8875 -22.8014 -12.5973 -12.1190  -1.8377  -0.5938
    -0.1065   0.0722   0.5020   1.1359   4.2059   5.7050   6.2695   6.5552
     6.9509   7.6667   9.0932  10.5149  11.7498  12.2479  13.5527  14.1157
    14.5886  15.0015

          k = 0.0625 0.2489 0.0000 (  6405 PWs)   bands (ev):

   -44.9299 -23.1286 -22.9512 -22.8153 -12.4904 -12.0578  -1.6549  -0.9641
    -0.3833  -0.0652   0.2593   1.0163   4.0788   5.8012   6.5347   6.6621
     7.1545   8.1555   9.5752  10.9772  11.8706  12.0723  13.3260  13.9731
    14.8205  15.0270

          k = 0.0625 0.3200 0.0000 (  6400 PWs)   bands (ev):

   -44.9241 -23.1101 -23.0186 -22.8307 -12.3825 -11.9786  -1.5342  -1.2823
    -0.7999  -0.1786   0.1562   0.8985   3.9407   6.0539   6.7917   6.9077
     7.3388   8.6133   9.8683  11.2308  11.7666  12.0150  13.6352  13.8759
    14.5134  14.8755

          k = 0.0625 0.3911 0.0000 (  6385 PWs)   bands (ev):

   -44.9188 -23.0933 -23.0795 -22.8451 -12.2929 -11.8901  -1.7654  -1.2744
    -1.1492  -0.2572   0.0897   0.7983   3.8482   6.4190   6.9567   7.2785
     7.4795   9.0380   9.8456  11.2481  11.7220  12.0072  13.3644  13.9608
    14.3474  14.6487

          k = 0.0625 0.4622 0.0000 (  6380 PWs)   bands (ev):

   -44.9147 -23.1262 -23.0796 -22.8561 -12.2317 -11.8110  -2.0209  -1.4821
    -1.1188  -0.3094   0.0454   0.7265   3.8143   6.8121   7.1028   7.5364
     7.6133   9.3967   9.6880  11.1624  11.7174  11.9703  12.8103  13.6808
    14.2222  14.5156

          k = 0.0625 0.5333 0.0000 (  6366 PWs)   bands (ev):

   -44.9125 -23.1510 -23.0725 -22.8621 -12.2011 -11.7642  -2.1629  -1.6220
    -1.0705  -0.3361   0.0236   0.6893   3.8126   7.0282   7.2926   7.5823
     7.7324   9.3973   9.8083  11.1117  11.6394  11.9670  12.4233  13.4602
    14.1327  14.2637

          k = 0.1250 0.0711 0.0000 (  6421 PWs)   bands (ev):

   -44.9380 -23.1548 -22.8419 -22.8050 -12.6577 -12.1475  -1.9447  -0.3586
     0.0197   0.0763   0.7942   1.1627   4.2683   5.7922   6.0521   6.5297
     6.8040   7.3327   8.8059  10.1414  11.5589  12.5548  13.9573  14.0121
    14.4779  14.8342

          k = 0.1250 0.1422 0.0000 (  6411 PWs)   bands (ev):

   -44.9350 -23.1452 -22.8818 -22.8095 -12.5951 -12.1165  -1.8350  -0.5765
    -0.1016   0.0462   0.5220   1.0906   4.2224   5.7172   6.2323   6.5662
     6.9293   7.6699   9.1093  10.5270  11.7598  12.2675  13.5825  14.1072
    14.5512  15.0474

          k = 0.1250 0.2133 0.0000 (  6418 PWs)   bands (ev):

   -44.9305 -23.1308 -22.9347 -22.8225 -12.5041 -12.0651  -1.6745  -0.8740
    -0.2859  -0.1288   0.3018   0.9623   4.1463   5.7068   6.5163   6.6690
     7.0958   8.1072   9.5330  10.9399  12.0231  12.1415  13.1282  13.9373
    14.7672  14.9653

          k = 0.1250 0.2844 0.0000 (  6391 PWs)   bands (ev):

   -44.9251 -23.1137 -22.9938 -22.8403 -12.4029 -11.9943  -1.5027  -1.1984
    -0.6225  -0.3078   0.2019   0.8021   4.0599   5.8239   6.8032   6.9119
     7.2641   8.5678   9.8892  11.2376  11.9639  12.3320  13.1135  13.7198
    14.4475  14.8210

          k = 0.1250 0.3555 0.0000 (  6393 PWs)   bands (ev):

   -44.9198 -23.0966 -23.0512 -22.8590 -12.3109 -11.9094  -1.5730  -1.2844
    -1.0126  -0.3981   0.1295   0.6360   4.0007   6.0800   6.9837   7.2836
     7.4260   9.0327   9.9727  11.4049  12.0070  12.1615  13.4563  13.6663
    13.8960  14.6336

          k = 0.1250 0.4266 0.0000 (  6390 PWs)   bands (ev):

   -44.9153 -23.0993 -23.0816 -22.8752 -12.2412 -11.8247  -1.8304  -1.3563
    -1.1446  -0.4431   0.0675   0.4914   3.9898   6.4459   7.1273   7.4677
     7.6540   9.5152   9.8287  11.4532  11.9207  12.0681  13.0293  13.4731
    14.2850  14.5553

          k = 0.1250 0.4977 0.0000 (  6371 PWs)   bands (ev):

   -44.9122 -23.1306 -23.0721 -22.8860 -12.1987 -11.7616  -2.0084  -1.5579
    -1.0730  -0.4593   0.0235   0.3932   4.0102   6.8465   7.2237   7.5277
     7.7447   9.5912  10.0331  11.4656  11.8292  12.0026  12.4641  13.3535
    14.2323  14.5269

          k = 0.1250 0.5688 0.0000 (  6366 PWs)   bands (ev):

   -44.9111 -23.1415 -23.0687 -22.8899 -12.1845 -11.7382  -2.0713  -1.6280
    -1.0484  -0.4623   0.0073   0.3586   4.0236   7.0590   7.2833   7.5324
     7.6961   9.4877  10.3058  11.4783  11.7799  12.0361  12.1194  13.3084
    14.1883  14.4235

          k = 0.1250 0.0000 0.0000 (  6449 PWs)   bands (ev):

   -44.9391 -23.1582 -22.8231 -22.8082 -12.6799 -12.1579  -1.9834  -0.2686
     0.0293   0.0999   0.9175   1.1762   4.2831   5.8415   5.9821   6.5260
     6.7564   7.2033   8.6983   9.9840  11.4987  12.7161  13.7536  14.2304
    14.5751  14.7185

          k = 0.1875 0.1067 0.0000 (  6401 PWs)   bands (ev):

   -44.9327 -23.1386 -22.9026 -22.8196 -12.5537 -12.0923  -1.7669  -0.7205
    -0.1754   0.0040   0.3928   1.0434   4.1764   5.8019   6.2442   6.5682
     7.0152   7.8444   9.3088  10.7238  11.7917  12.1524  13.5104  14.2699
    14.4886  15.1085

          k = 0.1875 0.1778 0.0000 (  6409 PWs)   bands (ev):

   -44.9293 -23.1275 -22.9435 -22.8290 -12.4850 -12.0512  -1.6492  -0.9407
    -0.3606  -0.1096   0.2648   0.9424   4.1134   5.8029   6.4875   6.6696
     7.1265   8.1588   9.6035  10.9931  11.8852  12.1049  13.3602  14.0237
    14.7646  15.0665

          k = 0.1875 0.2489 0.0000 (  6412 PWs)   bands (ev):

   -44.9248 -23.1130 -22.9901 -22.8477 -12.3998 -11.9902  -1.4999  -1.1860
    -0.6079  -0.3302   0.1973   0.7642   4.0794   5.8182   6.8006   6.9000
     7.2514   8.5681   9.9010  11.2464  11.9777  12.3199  13.1451  13.7585
    14.4228  14.8446

          k = 0.1875 0.3200 0.0000 (  6401 PWs)   bands (ev):

   -44.9199 -23.0974 -23.0359 -22.8719 -12.3150 -11.9126  -1.4580  -1.3132
    -0.9226  -0.4872   0.1176   0.5440   4.0909   5.9294   6.9991   7.2633
     7.4231   9.0345  10.0428  11.4589  12.1864  12.4194  13.2060  13.4810
    13.6607  14.7414

          k = 0.1875 0.3911 0.0000 (  6389 PWs)   bands (ev):

   -44.9153 -23.0833 -23.0750 -22.8966 -12.2444 -11.8291  -1.6578  -1.2418
    -1.1774  -0.5648   0.0188   0.3298   4.1488   6.1619   7.1185   7.4781
     7.6965   9.5589   9.9967  11.6221  12.1151  12.3278  13.0822  13.3639
    13.9313  14.4755

          k = 0.1875 0.4622 0.0000 (  6382 PWs)   bands (ev):

   -44.9119 -23.1047 -23.0714 -22.9166 -12.1953 -11.7573  -1.8115  -1.4756
    -1.0842  -0.5951  -0.0684   0.1590   4.2328   6.4912   7.1552   7.6472
     7.7817   9.8258  10.1832  11.6791  11.8231  12.2608  12.8165  13.4742
    14.2170  14.4684

          k = 0.1875 0.5333 0.0000 (  6363 PWs)   bands (ev):

   -44.9100 -23.1198 -23.0654 -22.9278 -12.1703 -11.7158  -1.8930  -1.6036
    -1.0351  -0.6023  -0.1138   0.0592   4.2968   6.8145   7.1611   7.6509
     7.7452   9.6880  10.7535  11.5802  11.9024  12.1982  12.3160  13.4717
    14.2751  14.4759

          k = 0.1875-0.0356 0.0000 (  6417 PWs)   bands (ev):

   -44.9346 -23.1445 -22.8761 -22.8188 -12.5917 -12.1128  -1.8310  -0.5711
    -0.1057   0.0353   0.5203   1.0735   4.2299   5.7589   6.1706   6.5271
     6.9477   7.6728   9.1351  10.5432  11.7602  12.2617  13.5940  14.0344
    14.6085  15.0627

          k = 0.2500 0.1422 0.0000 (  6395 PWs)   bands (ev):

   -44.9265 -23.1193 -22.9741 -22.8357 -12.4369 -12.0164  -1.5866  -1.1107
    -0.5611  -0.0930   0.1802   0.9280   4.0245   5.9912   6.5385   6.6826
     7.2275   8.3224   9.7521  11.1134  11.7333  12.0150  13.6836  13.9796
    14.9066  15.0031

          k = 0.2500 0.2133 0.0000 (  6393 PWs)   bands (ev):

   -44.9231 -23.1082 -23.0112 -22.8482 -12.3736 -11.9666  -1.5235  -1.2624
    -0.7792  -0.2321   0.1544   0.8064   3.9853   6.0507   6.7760   6.8750
     7.3117   8.6140   9.8990  11.2548  11.7711  12.0324  13.7131  13.9577
    14.5125  14.8726

          k = 0.2500 0.2844 0.0000 (  6397 PWs)   bands (ev):

   -44.9190 -23.0952 -23.0459 -22.8720 -12.3042 -11.8998  -1.5580  -1.2772
    -0.9997  -0.4337   0.1227   0.5726   4.0335   6.0745   6.9737   7.2627
     7.4103   9.0304   9.9950  11.4224  11.9891  12.1533  13.5196  13.6374
    13.9737  14.6879

          k = 0.2500 0.3555 0.0000 (  6390 PWs)   bands (ev):

   -44.9149 -23.0825 -23.0723 -22.9035 -12.2408 -11.8237  -1.6488  -1.2413
    -1.1727  -0.5817   0.0092   0.3069   4.1644   6.1620   7.1091   7.4730
     7.6867   9.5584  10.0099  11.6295  12.1073  12.2871  13.0263  13.4450
    13.9932  14.5177

          k = 0.2500 0.4266 0.0000 (  6372 PWs)   bands (ev):

   -44.9114 -23.0895 -23.0705 -22.9364 -12.1915 -11.7520  -1.7032  -1.4327
    -1.0943  -0.6643  -0.2024   0.1244   4.3463   6.3342   7.1071   7.7112
     7.7960   9.9649  10.2141  11.5890  11.8798  12.4796  13.1241  13.5273
    14.1465  14.2684

          k = 0.2500 0.4977 0.0000 (  6380 PWs)   bands (ev):

   -44.9091 -23.0962 -23.0632 -22.9625 -12.1606 -11.7006  -1.7220  -1.5623
    -1.0332  -0.7226  -0.3836   0.0213   4.5165   6.5607   7.0667   7.6433
     7.9201   9.9259  10.8134  11.3784  12.0558  12.5654  12.8933  13.6590
    14.1311  14.3916

          k = 0.2500 0.5688 0.0000 (  6368 PWs)   bands (ev):

   -44.9083 -23.0975 -23.0606 -22.9728 -12.1501 -11.6819  -1.7297  -1.5991
    -1.0113  -0.7562  -0.4410  -0.0159   4.5886   6.7015   7.0449   7.5063
     7.9953   9.8976  10.9341  11.6643  12.1525  12.4970  12.5692  13.5990
    14.3933  14.4387

          k = 0.2500-0.0711 0.0000 (  6400 PWs)   bands (ev):

   -44.9289 -23.1267 -22.9430 -22.8336 -12.4811 -12.0466  -1.6449  -0.9495
    -0.3699  -0.1176   0.2615   0.9489   4.1098   5.8241   6.4624   6.6210
     7.1542   8.1609   9.6263  10.9997  11.8701  12.0892  13.3437  13.9799
    14.8111  15.0772

          k = 0.2500 0.0000 0.0000 (  6409 PWs)   bands (ev):

   -44.9297 -23.1293 -22.9299 -22.8350 -12.4969 -12.0566  -1.6664  -0.8752
    -0.2889  -0.1535   0.2948   0.9425   4.1558   5.7332   6.4634   6.6032
     7.1261   8.1115   9.5772  10.9571  11.9981  12.1346  13.1260  13.8998
    14.8056  14.9898

          k = 0.3125 0.1778 0.0000 (  6393 PWs)   bands (ev):

   -44.9203 -23.1000 -23.0446 -22.8515 -12.3299 -11.9248  -1.6287  -1.2870
    -0.9880  -0.2004   0.0982   0.8316   3.8859   6.3212   6.8311   6.9159
     7.4036   8.7495   9.8965  11.2249  11.6320  11.9870  13.6638  14.2477
    14.5832  14.7938

          k = 0.3125 0.2489 0.0000 (  6389 PWs)   bands (ev):

   -44.9173 -23.0906 -23.0735 -22.8652 -12.2806 -11.8721  -1.7470  -1.2684
    -1.1373  -0.3220   0.0936   0.6959   3.8968   6.4200   6.9390   7.2422
     7.4548   9.0333   9.8894  11.2504  11.7181  12.0262  13.4702  13.9400
    14.3907  14.7074

          k = 0.3125 0.3200 0.0000 (  6378 PWs)   bands (ev):

   -44.9140 -23.0944 -23.0792 -22.8920 -12.2309 -11.8093  -1.8130  -1.3558
    -1.1368  -0.4914   0.0672   0.4138   4.0285   6.4512   7.1035   7.4528
     7.6288   9.5073   9.8714  11.4417  11.9049  12.0657  13.0128  13.5322
    14.3517  14.6391

          k = 0.3125 0.3911 0.0000 (  6375 PWs)   bands (ev):

   -44.9110 -23.1009 -23.0697 -22.9286 -12.1881 -11.7462  -1.7997  -1.4799
    -1.0802  -0.6260  -0.0916   0.1374   4.2555   6.5039   7.1417   7.6292
     7.7642   9.8710  10.1667  11.6620  11.7988  12.2196  12.8280  13.5143
    14.2754  14.5235

          k = 0.3125 0.4622 0.0000 (  6377 PWs)   bands (ev):

   -44.9087 -23.0942 -23.0624 -22.9687 -12.1570 -11.6949  -1.7194  -1.5657
    -1.0312  -0.7367  -0.4025   0.0246   4.5229   6.5738   7.0637   7.6373
     7.9040   9.9553  10.7911  11.3641  12.0524  12.5333  12.9507  13.6082
    14.1536  14.4054

          k = 0.3125 0.5333 0.0000 (  6377 PWs)   bands (ev):

   -44.9074 -23.0801 -23.0584 -23.0008 -12.1406 -11.6661  -1.6959  -1.5102
    -1.0006  -0.9009  -0.5626  -0.0289   4.7247   6.6242   6.9991   7.4551
     8.0865  10.0879  10.6698  11.9493  12.2391  12.7499  12.8974  13.2181
    14.2759  14.5535

          k = 0.3125-0.1067 0.0000 (  6394 PWs)   bands (ev):

   -44.9227 -23.1074 -23.0134 -22.8501 -12.3698 -11.9616  -1.5251  -1.2722
    -0.7958  -0.2405   0.1613   0.8243   3.9724   6.0558   6.7465   6.8733
     7.3321   8.6174   9.9105  11.2475  11.7628  12.0225  13.6770  13.9058
    14.5967  14.8635

          k = 0.3125-0.0356 0.0000 (  6395 PWs)   bands (ev):

   -44.9239 -23.1114 -22.9914 -22.8545 -12.3921 -11.9803  -1.4932  -1.2057
    -0.6323  -0.3449   0.2001   0.7779   4.0677   5.8315   6.7318   6.8896
     7.2892   8.5743   9.9310  11.2463  11.9375  12.3033  13.1074  13.7048
    14.5365  14.8702

          k = 0.3750 0.2133 0.0000 (  6386 PWs)   bands (ev):

   -44.9151 -23.1041 -23.0830 -22.8648 -12.2488 -11.8321  -1.9183  -1.3787
    -1.1495  -0.2960   0.0641   0.7600   3.8084   6.6892   6.9933   7.3189
     7.5297   9.1164   9.8051  11.0755  11.6729  11.9910  13.1947  14.1569
    14.2379  14.5669

          k = 0.3750 0.2844 0.0000 (  6372 PWs)   bands (ev):

   -44.9128 -23.1221 -23.0761 -22.8778 -12.2164 -11.7878  -2.0046  -1.4888
    -1.1103  -0.3863   0.0599   0.6201   3.8638   6.8109   7.0854   7.5073
     7.5909   9.3875   9.7542  11.1168  11.7443  12.0087  12.8839  13.6016
    14.2880  14.5742

          k = 0.3750 0.3555 0.0000 (  6383 PWs)   bands (ev):

   -44.9106 -23.1269 -23.0691 -22.9049 -12.1854 -11.7410  -1.9945  -1.5684
    -1.0672  -0.5197   0.0346   0.3118   4.0484   6.8626   7.2020   7.5018
     7.7206   9.6408  10.0334  11.4003  11.8357  12.0334  12.4940  13.3402
    14.2982  14.5549

          k = 0.3750 0.4266 0.0000 (  6379 PWs)   bands (ev):

   -44.9087 -23.1170 -23.0631 -22.9422 -12.1600 -11.6997  -1.8862  -1.6178
    -1.0311  -0.6431  -0.1498   0.0562   4.3163   6.8406   7.1548   7.6374
     7.7075   9.7411  10.7371  11.5394  11.8341  12.2140  12.3842  13.4502
    14.3264  14.4702

          k = 0.3750 0.4977 0.0000 (  6379 PWs)   bands (ev):

   -44.9075 -23.0960 -23.0591 -22.9817 -12.1433 -11.6713  -1.7372  -1.6106
    -1.0080  -0.7757  -0.4658  -0.0025   4.5878   6.7223   7.0442   7.5206
     7.9587   9.9416  10.8836  11.6829  12.1250  12.5453  12.5529  13.5018
    14.4216  14.4345

          k = 0.3750 0.5688 0.0000 (  6392 PWs)   bands (ev):

   -44.9070 -23.0807 -23.0577 -23.0035 -12.1375 -11.6611  -1.7055  -1.5238
    -0.9977  -0.9012  -0.5681  -0.0206   4.7154   6.6299   7.0001   7.4809
     8.0668  10.1106  10.6422  12.0267  12.2053  12.7325  12.8620  13.1761
    14.3397  14.5234

          k = 0.3750-0.1422 0.0000 (  6376 PWs)   bands (ev):

   -44.9169 -23.0900 -23.0763 -22.8657 -12.2774 -11.8675  -1.7606  -1.2730
    -1.1473  -0.3309   0.1045   0.7159   3.8808   6.4064   6.9151   7.2816
     7.4622   9.0388   9.8927  11.2364  11.7189  12.0231  13.4526  14.0064
    14.3687  14.6330

          k = 0.3750-0.0711 0.0000 (  6390 PWs)   bands (ev):

   -44.9182 -23.0937 -23.0504 -22.8748 -12.2973 -11.8900  -1.5824  -1.2760
    -1.0306  -0.4445   0.1340   0.6032   4.0081   6.0746   6.9186   7.2986
     7.4363   9.0411  10.0043  11.3989  11.9778  12.1438  13.4721  13.7067
    13.8904  14.6834

          k = 0.3750 0.0000 0.0000 (  6385 PWs)   bands (ev):

   -44.9186 -23.0951 -23.0387 -22.8806 -12.3044 -11.8977  -1.4841  -1.3057
    -0.9562  -0.5088   0.1249   0.5571   4.0736   5.9336   6.9229   7.2963
     7.4483   9.0473  10.0627  11.4449  12.1543  12.3722  13.1888  13.4927
    13.6685  14.7862

          k = 0.4375 0.2489 0.0000 (  6370 PWs)   bands (ev):

   -44.9115 -23.1428 -23.0723 -22.8737 -12.1996 -11.7621  -2.1318  -1.5885
    -1.0871  -0.3612   0.0516   0.7157   3.7858   6.9040   7.2197   7.5782
     7.6752   9.3589   9.6937  10.9390  11.6673  12.0047  12.6784  13.6950
    14.0740  14.3248

          k = 0.4375 0.3200 0.0000 (  6380 PWs)   bands (ev):

   -44.9104 -23.1484 -23.0686 -22.8845 -12.1837 -11.7374  -2.1506  -1.6374
    -1.0640  -0.4218   0.0472   0.5842   3.8603   6.9998   7.2884   7.5521
     7.7328   9.4505   9.8316  11.0362  11.6914  12.0435  12.4605  13.3644
    14.1772  14.2826

          k = 0.4375 0.3911 0.0000 (  6370 PWs)   bands (ev):

   -44.9093 -23.1395 -23.0652 -22.9092 -12.1691 -11.7142  -2.0645  -1.6473
    -1.0430  -0.5299   0.0260   0.2837   4.0555   7.0553   7.2735   7.4922
     7.7062   9.5510  10.3101  11.3815  11.8079  12.1021  12.1178  13.2918
    14.2506  14.3931

          k = 0.4375 0.4622 0.0000 (  6371 PWs)   bands (ev):

   -44.9085 -23.1191 -23.0626 -22.9422 -12.1579 -11.6963  -1.8979  -1.6274
    -1.0302  -0.6460  -0.1455   0.0684   4.3050   6.8209   7.1558   7.6693
     7.7145   9.7411  10.7655  11.5495  11.8003  12.2285  12.3386  13.4656
    14.3191  14.4476

          k = 0.4375 0.5333 0.0000 (  6366 PWs)   bands (ev):

   -44.9081 -23.0980 -23.0612 -22.9703 -12.1518 -11.6866  -1.7437  -1.5889
    -1.0284  -0.7419  -0.3941   0.0417   4.5010   6.5675   7.0659   7.7107
     7.8704   9.9620  10.8067  11.4085  11.9848  12.5533  12.8489  13.6388
    14.1491  14.4085

          k = 0.4375-0.1778 0.0000 (  6370 PWs)   bands (ev):

   -44.9126 -23.1244 -23.0757 -22.8777 -12.2143 -11.7846  -2.0154  -1.4983
    -1.1097  -0.3933   0.0691   0.6350   3.8512   6.7884   7.0645   7.5130
     7.6426   9.4037   9.7511  11.1088  11.7366  12.0072  12.8769  13.6501
    14.2565  14.5261

          k = 0.4375-0.1067 0.0000 (  6389 PWs)   bands (ev):

   -44.9134 -23.0992 -23.0782 -22.8926 -12.2257 -11.8014  -1.8385  -1.3787
    -1.1363  -0.5008   0.0790   0.4459   4.0021   6.4327   7.0823   7.4467
     7.7036   9.5257   9.8732  11.4086  11.9056  12.0725  13.0219  13.5232
    14.3174  14.5638

          k = 0.4375-0.0356 0.0000 (  6381 PWs)   bands (ev):

   -44.9139 -23.0817 -23.0768 -22.9073 -12.2319 -11.8103  -1.6853  -1.2734
    -1.1714  -0.5961   0.0233   0.3382   4.1333   6.1605   7.0782   7.4629
     7.7590   9.5803  10.0153  11.5845  12.1172  12.2778  13.0382  13.3791
    13.9343  14.5131

          k =-0.5000-0.2844 0.0000 (  6382 PWs)   bands (ev):

   -44.9103 -23.1564 -23.0684 -22.8768 -12.1832 -11.7361  -2.2078  -1.6624
    -1.0640  -0.3843   0.0489   0.7007   3.7844   6.9515   7.3538   7.6091
     7.8003   9.3905   9.7082  10.8939  11.5947  12.0498  12.4921  13.5012
    13.9852  14.1875

          k =-0.5000-0.2133 0.0000 (  6373 PWs)   bands (ev):

   -44.9103 -23.1492 -23.0684 -22.8844 -12.1830 -11.7362  -2.1546  -1.6408
    -1.0637  -0.4244   0.0507   0.5897   3.8556   6.9966   7.2610   7.5516
     7.7699   9.4659   9.8259  11.0339  11.6812  12.0421  12.4602  13.3810
    14.1633  14.2705

          k =-0.5000-0.1422 0.0000 (  6377 PWs)   bands (ev):

   -44.9103 -23.1299 -23.0685 -22.9048 -12.1826 -11.7366  -2.0098  -1.5815
    -1.0661  -0.5257   0.0412   0.3324   4.0321   6.8318   7.1963   7.4832
     7.8009   9.6528  10.0483  11.3802  11.8218  12.0432  12.4726  13.3604
    14.2821  14.5104

          k =-0.5000-0.0711 0.0000 (  6377 PWs)   bands (ev):

   -44.9103 -23.1063 -23.0685 -22.9295 -12.1821 -11.7369  -1.8299  -1.5065
    -1.0773  -0.6350  -0.0794   0.1669   4.2272   6.4882   7.1424   7.5945
     7.8576   9.8693  10.2063  11.6390  11.7693  12.2500  12.7681  13.5164
    14.2446  14.4702

          k =-0.5000 0.0000 0.0000 (  6382 PWs)   bands (ev):

   -44.9103 -23.0943 -23.0685 -22.9419 -12.1820 -11.7370  -1.7379  -1.4675
    -1.0881  -0.6834  -0.1929   0.1493   4.3188   6.3346   7.1019   7.6707
     7.8813   9.9792  10.2492  11.5828  11.8230  12.4665  13.0412  13.5388
    14.1532  14.2575

     highest occupied, lowest unoccupied level (ev):     4.7247    5.7050

!    total energy              =    -591.24383202 Ry
     total all-electron energy =    -13333.877108 Ry
     estimated scf accuracy    <          4.9E-12 Ry

     The total energy is the sum of the following terms:
     one-electron contribution =    -204.31658648 Ry
     hartree contribution      =     109.94049451 Ry
     xc contribution           =     -37.58922190 Ry
     ewald contribution        =     -28.16300297 Ry
     one-center paw contrib.   =    -431.11551517 Ry

     convergence has been achieved in   6 iterations

     negative rho (up, down):  1.027E-08 0.000E+00

     Forces acting on atoms (cartesian axes, Ry/au):

     atom    1 type  1   force =     0.00000000    0.00043571    0.00001897
     atom    2 type  2   force =     0.00000000   -0.00017117   -0.00038753
     atom    3 type  3   force =     0.00000000   -0.00026454    0.00036856
     The non-local contrib.  to forces
     atom    1 type  1   force =     0.00000000    0.00215281   -0.00067898
     atom    2 type  2   force =     0.00000000    0.00133473   -0.21236173
     atom    3 type  3   force =     0.00000000    0.00128818    0.20920649
     The ionic contribution  to forces
     atom    1 type  1   force =    -0.00000001    0.10980624   -0.30483230
     atom    2 type  2   force =     0.00000000   -0.06222034   20.89215052
     atom    3 type  3   force =     0.00000000   -0.04758590  -20.58731822
     The local contribution  to forces
     atom    1 type  1   force =    -0.00000000   -0.11142633    0.30515446
     atom    2 type  2   force =     0.00000003    0.06058007  -20.68805606
     atom    3 type  3   force =    -0.00000000    0.04597335   20.38221067
     The core correction contribution to forces
     atom    1 type  1   force =     0.00000000   -0.00006940    0.00037885
     atom    2 type  2   force =    -0.00000000    0.00016201    0.00788722
     atom    3 type  3   force =    -0.00000000    0.00008724   -0.00371708
     The Hubbard contrib.    to forces
     atom    1 type  1   force =     0.00000000    0.00000000    0.00000000
     atom    2 type  2   force =     0.00000000    0.00000000    0.00000000
     atom    3 type  3   force =     0.00000000    0.00000000    0.00000000
     The SCF correction term to forces
     atom    1 type  1   force =     0.00000000   -0.00000025    0.00000707
     atom    2 type  2   force =    -0.00000000   -0.00000029    0.00000264
     atom    3 type  3   force =    -0.00000000   -0.00000005   -0.00000318

     Total force =     0.000759     Total SCF correction =     0.000008
     Energy error            =      1.0E-06 Ry
     Gradient error          =      4.4E-04 Ry/Bohr

     number of scf cycles    =   6
     number of bfgs steps    =   5

     energy             old  =    -591.2438309757 Ry
     energy             new  =    -591.2438320187 Ry

     CASE: energy            _new < energy            _old

     new trust radius        =       0.0013662301 bohr
     new conv_thr            =            1.0E-10 Ry


ATOMIC_POSITIONS (angstrom)
Zr            0.0000000000       -0.0169117955       10.2767879676
Cl           -0.0000000017        2.0232277993       11.9552029343
Br           -0.0000000017        2.0225408408        8.4311578725



     Writing config-only to output data dir ./tmp/ZrClBr.save/
     NEW-OLD atomic charge density approx. for the potential

     Check: negative core charge=   -0.000004

     negative rho (up, down):  1.161E-08 0.000E+00

     total cpu time spent up to now is       79.2 secs

     Self-consistent Calculation

     iteration #  1     ecut=    65.00 Ry     beta= 0.70
     Davidson diagonalization with overlap
     ethr =  1.00E-06,  avg # of iterations =  2.0

     Threshold (ethr) on eigenvalues was too large:
     Diagonalizing with lowered threshold

     Davidson diagonalization with overlap
     ethr =  1.03E-09,  avg # of iterations =  4.0

     negative rho (up, down):  1.187E-08 0.000E+00

     total cpu time spent up to now is       82.8 secs

     total energy              =    -591.24383288 Ry
     estimated scf accuracy    <       0.00000031 Ry

     iteration #  2     ecut=    65.00 Ry     beta= 0.70
     Davidson diagonalization with overlap
     ethr =  1.17E-09,  avg # of iterations =  2.0

     negative rho (up, down):  1.155E-08 0.000E+00

     total cpu time spent up to now is       84.4 secs

     total energy              =    -591.24383285 Ry
     estimated scf accuracy    <       0.00000109 Ry

     iteration #  3     ecut=    65.00 Ry     beta= 0.70
     Davidson diagonalization with overlap
     ethr =  1.17E-09,  avg # of iterations =  2.0

     negative rho (up, down):  1.155E-08 0.000E+00

     total cpu time spent up to now is       86.0 secs

     total energy              =    -591.24383304 Ry
     estimated scf accuracy    <          5.9E-09 Ry

     iteration #  4     ecut=    65.00 Ry     beta= 0.70
     Davidson diagonalization with overlap
     ethr =  2.26E-11,  avg # of iterations =  2.0

     negative rho (up, down):  1.154E-08 0.000E+00

     total cpu time spent up to now is       87.6 secs

     total energy              =    -591.24383304 Ry
     estimated scf accuracy    <          3.6E-09 Ry

     iteration #  5     ecut=    65.00 Ry     beta= 0.70
     Davidson diagonalization with overlap
     ethr =  1.39E-11,  avg # of iterations =  1.2

     negative rho (up, down):  1.154E-08 0.000E+00

     total cpu time spent up to now is       89.0 secs

     total energy              =    -591.24383304 Ry
     estimated scf accuracy    <          2.2E-10 Ry

     iteration #  6     ecut=    65.00 Ry     beta= 0.70
     Davidson diagonalization with overlap
     ethr =  8.37E-13,  avg # of iterations =  2.0

     negative rho (up, down):  1.154E-08 0.000E+00

     total cpu time spent up to now is       90.5 secs

     End of self-consistent calculation

          k = 0.0000 0.0000 0.0000 (  6439 PWs)   bands (ev):

   -44.9410 -23.1681 -22.7980 -22.7771 -12.7554 -12.1925  -2.1133  -0.0377
     0.1063   0.1769   1.2646   1.3551   4.2899   5.8635   6.0159   6.5667
     6.6274   6.7124   8.3237   9.3530  11.3001  13.4259  13.6349  13.8925
    14.5614  15.0956

          k = 0.0000 0.0711 0.0000 (  6441 PWs)   bands (ev):

   -44.9399 -23.1645 -22.8123 -22.7800 -12.7310 -12.1821  -2.0705  -0.1322
     0.0835   0.1657   1.1140   1.3227   4.2864   5.8108   6.0480   6.5387
     6.6846   6.8909   8.4431   9.5768  11.3628  13.0414  13.7561  14.2077
    14.5529  14.7044

          k = 0.0000 0.1422 0.0000 (  6417 PWs)   bands (ev):

   -44.9366 -23.1540 -22.8526 -22.7882 -12.6621 -12.1512  -1.9498  -0.3897
     0.0030   0.1297   0.7453   1.2381   4.2507   5.7318   6.1509   6.5167
     6.8382   7.3271   8.7803  10.1172  11.5485  12.5140  13.9345  14.1014
    14.4406  14.7586

          k = 0.0000 0.2133 0.0000 (  6433 PWs)   bands (ev):

   -44.9317 -23.1384 -22.9122 -22.8003 -12.5612 -12.1000  -1.7755  -0.7508
    -0.1975   0.0659   0.3653   1.1294   4.1413   5.7685   6.3376   6.5700
     7.0442   7.8387   9.2679  10.6973  11.7730  12.1202  13.4600  14.2317
    14.6034  15.0125

          k = 0.0000 0.2844 0.0000 (  6391 PWs)   bands (ev):

   -44.9259 -23.1199 -22.9814 -22.8146 -12.4479 -12.0296  -1.5979  -1.1347
    -0.5837  -0.0220   0.1654   1.0229   3.9803   5.9780   6.6137   6.6955
     7.2542   8.3190   9.7110  11.0888  11.7192  11.9862  13.6335  13.9065
    14.8631  15.0478

          k = 0.0000 0.3555 0.0000 (  6383 PWs)   bands (ev):

   -44.9201 -23.1014 -23.0495 -22.8289 -12.3443 -11.9440  -1.6446  -1.3008
    -0.9994  -0.1197   0.0810   0.9337   3.8394   6.3200   6.8530   6.9629
     7.4318   8.7501   9.8568  11.2077  11.6326  11.9629  13.5573  14.1702
    14.5059  14.8974

          k = 0.0000 0.4266 0.0000 (  6391 PWs)   bands (ev):

   -44.9152 -23.1068 -23.0852 -22.8410 -12.2660 -11.8568  -1.9334  -1.3744
    -1.1614  -0.2075   0.0412   0.8675   3.7604   6.7016   7.0185   7.3337
     7.5608   9.1225   9.7456  11.1024  11.6533  11.9626  13.0880  14.1119
    14.3433  14.4761

          k = 0.0000 0.4977 0.0000 (  6374 PWs)   bands (ev):

   -44.9119 -23.1442 -23.0748 -22.8490 -12.2189 -11.7907  -2.1453  -1.5750
    -1.0961  -0.2676   0.0243   0.8266   3.7359   6.9353   7.2438   7.6055
     7.6668   9.3426   9.6334  11.0015  11.6252  11.9409  12.6032  13.8692
    14.0140  14.2539

          k = 0.0000-0.5688 0.0000 (  6362 PWs)   bands (ev):

   -44.9108 -23.1573 -23.0711 -22.8518 -12.2032 -11.7659  -2.2208  -1.6457
    -1.0717  -0.2889   0.0198   0.8128   3.7335   6.9878   7.3829   7.6465
     7.7706   9.3273   9.6823  10.9694  11.5387  11.9641  12.4342  13.6850
    13.9550  14.1189

          k = 0.0625 0.0356 0.0000 (  6441 PWs)   bands (ev):

   -44.9398 -23.1643 -22.8052 -22.7879 -12.7302 -12.1813  -2.0695  -0.1165
     0.0924   0.1382   1.1635   1.2650   4.2914   5.8620   5.9865   6.5646
     6.6513   6.8934   8.4508   9.5863  11.3648  13.1138  13.6067  14.2678
    14.5872  14.7967

          k = 0.0625 0.1067 0.0000 (  6425 PWs)   bands (ev):

   -44.9376 -23.1573 -22.8356 -22.7903 -12.6835 -12.1606  -1.9876  -0.2922
     0.0259   0.1299   0.8784   1.2315   4.2742   5.7573   6.0933   6.5317
     6.7695   7.1993   8.6780   9.9643  11.4936  12.6765  13.8845  14.1614
    14.5036  14.6960

          k = 0.0625 0.1778 0.0000 (  6423 PWs)   bands (ev):

   -44.9335 -23.1443 -22.8861 -22.7999 -12.5986 -12.1195  -1.8390  -0.5957
    -0.1070   0.0704   0.5013   1.1346   4.2074   5.7071   6.2712   6.5564
     6.9516   7.6673   9.0936  10.5145  11.7497  12.2486  13.5526  14.1160
    14.5903  14.9997

          k = 0.0625 0.2489 0.0000 (  6405 PWs)   bands (ev):

   -44.9281 -23.1272 -22.9498 -22.8138 -12.4916 -12.0584  -1.6562  -0.9659
    -0.3844  -0.0667   0.2593   1.0151   4.0796   5.8036   6.5361   6.6634
     7.1557   8.1562   9.5767  10.9763  11.8710  12.0732  13.3253  13.9746
    14.8203  15.0271

          k = 0.0625 0.3200 0.0000 (  6400 PWs)   bands (ev):

   -44.9224 -23.1087 -23.0173 -22.8293 -12.3837 -11.9793  -1.5358  -1.2837
    -0.8011  -0.1798   0.1563   0.8973   3.9411   6.0563   6.7933   6.9089
     7.3405   8.6141   9.8707  11.2297  11.7674  12.0154  13.6357  13.8756
    14.5140  14.8755

          k = 0.0625 0.3911 0.0000 (  6385 PWs)   bands (ev):

   -44.9170 -23.0918 -23.0782 -22.8437 -12.2941 -11.8908  -1.7671  -1.2755
    -1.1502  -0.2586   0.0899   0.7972   3.8485   6.4212   6.9588   7.2795
     7.4815   9.0393   9.8477  11.2479  11.7230  12.0076  13.3647  13.9612
    14.3472  14.6490

          k = 0.0625 0.4622 0.0000 (  6380 PWs)   bands (ev):

   -44.9129 -23.1250 -23.0781 -22.8547 -12.2329 -11.8119  -2.0224  -1.4828
    -1.1199  -0.3109   0.0456   0.7255   3.8146   6.8142   7.1051   7.5383
     7.6145   9.3997   9.6880  11.1633  11.7184  11.9709  12.8106  13.6813
    14.2218  14.5166

          k = 0.0625 0.5333 0.0000 (  6366 PWs)   bands (ev):

   -44.9107 -23.1498 -23.0710 -22.8606 -12.2024 -11.7650  -2.1644  -1.6226
    -1.0716  -0.3376   0.0238   0.6883   3.8130   7.0308   7.2945   7.5846
     7.7334   9.3992   9.8092  11.1129  11.6402  11.9674  12.4242  13.4609
    14.1320  14.2645

          k = 0.1250 0.0711 0.0000 (  6421 PWs)   bands (ev):

   -44.9363 -23.1534 -22.8405 -22.8035 -12.6591 -12.1479  -1.9460  -0.3600
     0.0194   0.0740   0.7932   1.1609   4.2704   5.7941   6.0537   6.5301
     6.8052   7.3333   8.8059  10.1410  11.5581  12.5555  13.9573  14.0134
    14.4790  14.8335

          k = 0.1250 0.1422 0.0000 (  6411 PWs)   bands (ev):

   -44.9332 -23.1438 -22.8804 -22.8081 -12.5965 -12.1170  -1.8364  -0.5783
    -0.1021   0.0443   0.5212   1.0891   4.2240   5.7194   6.2338   6.5671
     6.9303   7.6705   9.1098  10.5264  11.7596  12.2683  13.5832  14.1070
    14.5529  15.0461

          k = 0.1250 0.2133 0.0000 (  6418 PWs)   bands (ev):

   -44.9287 -23.1294 -22.9333 -22.8211 -12.5054 -12.0657  -1.6759  -0.8759
    -0.2867  -0.1305   0.3015   0.9610   4.1473   5.7092   6.5176   6.6701
     7.0972   8.1078   9.5344  10.9389  12.0235  12.1422  13.1284  13.9380
    14.7677  14.9657

          k = 0.1250 0.2844 0.0000 (  6391 PWs)   bands (ev):

   -44.9234 -23.1122 -22.9925 -22.8388 -12.4042 -11.9950  -1.5041  -1.2001
    -0.6237  -0.3089   0.2018   0.8010   4.0603   5.8265   6.8044   6.9131
     7.2660   8.5684   9.8918  11.2364  11.9637  12.3330  13.1137  13.7208
    14.4477  14.8212

          k = 0.1250 0.3555 0.0000 (  6393 PWs)   bands (ev):

   -44.9180 -23.0951 -23.0499 -22.8575 -12.3121 -11.9101  -1.5747  -1.2856
    -1.0137  -0.3993   0.1295   0.6351   4.0009   6.0825   6.9854   7.2847
     7.4281   9.0335   9.9756  11.4040  12.0075  12.1617  13.4570  13.6668
    13.8963  14.6336

          k = 0.1250 0.4266 0.0000 (  6390 PWs)   bands (ev):

   -44.9135 -23.0981 -23.0801 -22.8737 -12.2424 -11.8255  -1.8320  -1.3572
    -1.1458  -0.4443   0.0675   0.4905   3.9900   6.4481   7.1297   7.4699
     7.6551   9.5166   9.8306  11.4530  11.9218  12.0687  13.0299  13.4732
    14.2848  14.5558

          k = 0.1250 0.4977 0.0000 (  6371 PWs)   bands (ev):

   -44.9105 -23.1294 -23.0706 -22.8846 -12.1999 -11.7624  -2.0099  -1.5587
    -1.0742  -0.4606   0.0236   0.3923   4.0104   6.8484   7.2265   7.5298
     7.7459   9.5930  10.0340  11.4661  11.8307  12.0027  12.4645  13.3541
    14.2316  14.5279

          k = 0.1250 0.5688 0.0000 (  6366 PWs)   bands (ev):

   -44.9094 -23.1403 -23.0671 -22.8884 -12.1858 -11.7390  -2.0728  -1.6288
    -1.0496  -0.4635   0.0074   0.3577   4.0239   7.0610   7.2858   7.5344
     7.6978   9.4889  10.3074  11.4792  11.7806  12.0361  12.1203  13.3093
    14.1873  14.4246

          k = 0.1250 0.0000 0.0000 (  6449 PWs)   bands (ev):

   -44.9373 -23.1568 -22.8216 -22.8067 -12.6813 -12.1582  -1.9847  -0.2697
     0.0281   0.0982   0.9165   1.1742   4.2854   5.8436   5.9835   6.5260
     6.7580   7.2039   8.6981   9.9837  11.4977  12.7167  13.7538  14.2324
    14.5770  14.7170

          k = 0.1875 0.1067 0.0000 (  6401 PWs)   bands (ev):

   -44.9310 -23.1372 -22.9012 -22.8181 -12.5550 -12.0928  -1.7683  -0.7222
    -0.1757   0.0017   0.3926   1.0416   4.1780   5.8042   6.2455   6.5688
     7.0168   7.8450   9.3097  10.7228  11.7918  12.1529  13.5112  14.2712
    14.4884  15.1080

          k = 0.1875 0.1778 0.0000 (  6409 PWs)   bands (ev):

   -44.9275 -23.1261 -22.9421 -22.8275 -12.4863 -12.0518  -1.6507  -0.9424
    -0.3613  -0.1115   0.2649   0.9409   4.1145   5.8052   6.4887   6.6705
     7.1282   8.1594   9.6051  10.9919  11.8856  12.1055  13.3607  14.0241
    14.7650  15.0668

          k = 0.1875 0.2489 0.0000 (  6412 PWs)   bands (ev):

   -44.9230 -23.1116 -22.9888 -22.8462 -12.4011 -11.9908  -1.5014  -1.1876
    -0.6089  -0.3317   0.1972   0.7631   4.0801   5.8207   6.8015   6.9010
     7.2537   8.5687   9.9035  11.2452  11.9776  12.3203  13.1461  13.7591
    14.4231  14.8448

          k = 0.1875 0.3200 0.0000 (  6401 PWs)   bands (ev):

   -44.9181 -23.0959 -23.0346 -22.8705 -12.3162 -11.9133  -1.4598  -1.3143
    -0.9237  -0.4884   0.1174   0.5433   4.0912   5.9319   7.0003   7.2647
     7.4253   9.0351  10.0460  11.4579  12.1864  12.4189  13.2076  13.4814
    13.6614  14.7414

          k = 0.1875 0.3911 0.0000 (  6389 PWs)   bands (ev):

   -44.9136 -23.0818 -23.0737 -22.8952 -12.2456 -11.8299  -1.6594  -1.2429
    -1.1787  -0.5659   0.0185   0.3294   4.1489   6.1643   7.1204   7.4804
     7.6976   9.5595   9.9997  11.6213  12.1161  12.3276  13.0825  13.3643
    13.9323  14.4756

          k = 0.1875 0.4622 0.0000 (  6382 PWs)   bands (ev):

   -44.9101 -23.1034 -23.0699 -22.9152 -12.1965 -11.7582  -1.8130  -1.4768
    -1.0855  -0.5961  -0.0688   0.1588   4.2330   6.4931   7.1579   7.6495
     7.7828   9.8275  10.1844  11.6796  11.8236  12.2608  12.8173  13.4744
    14.2171  14.4689

          k = 0.1875 0.5333 0.0000 (  6363 PWs)   bands (ev):

   -44.9082 -23.1186 -23.0639 -22.9263 -12.1715 -11.7166  -1.8944  -1.6047
    -1.0364  -0.6033  -0.1142   0.0591   4.2971   6.8158   7.1641   7.6528
     7.7475   9.6893  10.7550  11.5810  11.9023  12.1984  12.3168  13.4725
    14.2745  14.4770

          k = 0.1875-0.0356 0.0000 (  6417 PWs)   bands (ev):

   -44.9329 -23.1431 -22.8746 -22.8174 -12.5931 -12.1133  -1.8324  -0.5727
    -0.1061   0.0332   0.5198   1.0716   4.2317   5.7611   6.1720   6.5273
     6.9496   7.6734   9.1356  10.5422  11.7599  12.2621  13.5955  14.0351
    14.6094  15.0611

          k = 0.2500 0.1422 0.0000 (  6395 PWs)   bands (ev):

   -44.9248 -23.1179 -22.9728 -22.8342 -12.4381 -12.0170  -1.5882  -1.1122
    -0.5618  -0.0952   0.1807   0.9264   4.0257   5.9934   6.5396   6.6835
     7.2295   8.3231   9.7541  11.1121  11.7338  12.0156  13.6838  13.9800
    14.9068  15.0038

          k = 0.2500 0.2133 0.0000 (  6393 PWs)   bands (ev):

   -44.9213 -23.1068 -23.0099 -22.8468 -12.3749 -11.9672  -1.5252  -1.2637
    -0.7801  -0.2340   0.1547   0.8050   3.9863   6.0529   6.7769   6.8760
     7.3140   8.6148   9.9015  11.2538  11.7716  12.0328  13.7135  13.9577
    14.5132  14.8732

          k = 0.2500 0.2844 0.0000 (  6397 PWs)   bands (ev):

   -44.9172 -23.0937 -23.0446 -22.8706 -12.3054 -11.9005  -1.5596  -1.2784
    -1.0006  -0.4353   0.1228   0.5717   4.0341   6.0767   6.9746   7.2639
     7.4129   9.0312   9.9979  11.4216  11.9893  12.1535  13.5202  13.6381
    13.9742  14.6882

          k = 0.2500 0.3555 0.0000 (  6390 PWs)   bands (ev):

   -44.9131 -23.0810 -23.0710 -22.9021 -12.2420 -11.8245  -1.6503  -1.2424
    -1.1741  -0.5830   0.0089   0.3067   4.1647   6.1643   7.1106   7.4756
     7.6877   9.5591  10.0128  11.6288  12.1084  12.2868  13.0266  13.4455
    13.9942  14.5179

          k = 0.2500 0.4266 0.0000 (  6372 PWs)   bands (ev):

   -44.9097 -23.0883 -23.0690 -22.9350 -12.1928 -11.7528  -1.7047  -1.4340
    -1.0957  -0.6652  -0.2031   0.1247   4.3465   6.3362   7.1096   7.7135
     7.7973   9.9663  10.2157  11.5901  11.8794  12.4790  13.1253  13.5274
    14.1473  14.2690

          k = 0.2500 0.4977 0.0000 (  6380 PWs)   bands (ev):

   -44.9073 -23.0950 -23.0617 -22.9611 -12.1618 -11.7014  -1.7235  -1.5637
    -1.0346  -0.7234  -0.3842   0.0215   4.5168   6.5620   7.0696   7.6451
     7.9226   9.9275  10.8147  11.3792  12.0551  12.5651  12.8941  13.6596
    14.1316  14.3924

          k = 0.2500 0.5688 0.0000 (  6368 PWs)   bands (ev):

   -44.9065 -23.0963 -23.0591 -22.9714 -12.1513 -11.6827  -1.7313  -1.6005
    -1.0127  -0.7570  -0.4415  -0.0156   4.5889   6.7020   7.0479   7.5090
     7.9977   9.8991  10.9356  11.6645  12.1519  12.4981  12.5688  13.5999
    14.3927  14.4401

          k = 0.2500-0.0711 0.0000 (  6400 PWs)   bands (ev):

   -44.9271 -23.1253 -22.9416 -22.8321 -12.4824 -12.0471  -1.6464  -0.9512
    -0.3705  -0.1196   0.2615   0.9472   4.1112   5.8262   6.4636   6.6217
     7.1563   8.1615   9.6279  10.9983  11.8702  12.0897  13.3445  13.9812
    14.8107  15.0777

          k = 0.2500 0.0000 0.0000 (  6409 PWs)   bands (ev):

   -44.9279 -23.1279 -22.9285 -22.8335 -12.4982 -12.0571  -1.6679  -0.8769
    -0.2892  -0.1558   0.2946   0.9408   4.1573   5.7353   6.4647   6.6037
     7.1283   8.1121   9.5786  10.9556  11.9979  12.1348  13.1276  13.9012
    14.8056  14.9903

          k = 0.3125 0.1778 0.0000 (  6393 PWs)   bands (ev):

   -44.9186 -23.0986 -23.0433 -22.8501 -12.3311 -11.9254  -1.6304  -1.2882
    -0.9889  -0.2025   0.0989   0.8301   3.8869   6.3232   6.8323   6.9169
     7.4059   8.7505   9.8988  11.2247  11.6323  11.9872  13.6639  14.2477
    14.5840  14.7946

          k = 0.3125 0.2489 0.0000 (  6389 PWs)   bands (ev):

   -44.9156 -23.0891 -23.0722 -22.8638 -12.2818 -11.8728  -1.7486  -1.2695
    -1.1384  -0.3240   0.0941   0.6946   3.8977   6.4219   6.9401   7.2430
     7.4575   9.0347   9.8914  11.2506  11.7184  12.0266  13.4707  13.9407
    14.3905  14.7083

          k = 0.3125 0.3200 0.0000 (  6378 PWs)   bands (ev):

   -44.9123 -23.0931 -23.0777 -22.8905 -12.2322 -11.8101  -1.8145  -1.3567
    -1.1383  -0.4931   0.0675   0.4129   4.0292   6.4531   7.1047   7.4557
     7.6297   9.5090   9.8730  11.4417  11.9055  12.0663  13.0137  13.5323
    14.3515  14.6399

          k = 0.3125 0.3911 0.0000 (  6375 PWs)   bands (ev):

   -44.9092 -23.0997 -23.0682 -22.9271 -12.1893 -11.7471  -1.8010  -1.4811
    -1.0817  -0.6273  -0.0923   0.1376   4.2560   6.5057   7.1440   7.6316
     7.7653   9.8725  10.1681  11.6629  11.7992  12.2194  12.8288  13.5145
    14.2757  14.5242

          k = 0.3125 0.4622 0.0000 (  6377 PWs)   bands (ev):

   -44.9069 -23.0929 -23.0609 -22.9673 -12.1582 -11.6957  -1.7208  -1.5670
    -1.0327  -0.7376  -0.4033   0.0251   4.5233   6.5750   7.0665   7.6392
     7.9062   9.9566  10.7926  11.3649  12.0517  12.5330  12.9516  13.6088
    14.1543  14.4061

          k = 0.3125 0.5333 0.0000 (  6377 PWs)   bands (ev):

   -44.9057 -23.0789 -23.0569 -22.9994 -12.1419 -11.6669  -1.6976  -1.5114
    -1.0020  -0.9018  -0.5630  -0.0286   4.7251   6.6244   7.0022   7.4582
     8.0888  10.0897  10.6706  11.9496  12.2384  12.7495  12.8980  13.2189
    14.2771  14.5544

          k = 0.3125-0.1067 0.0000 (  6394 PWs)   bands (ev):

   -44.9209 -23.1060 -23.0120 -22.8487 -12.3710 -11.9622  -1.5269  -1.2735
    -0.7967  -0.2422   0.1615   0.8228   3.9735   6.0578   6.7473   6.8746
     7.3342   8.6181   9.9130  11.2464  11.7632  12.0226  13.6776  13.9060
    14.5982  14.8635

          k = 0.3125-0.0356 0.0000 (  6395 PWs)   bands (ev):

   -44.9222 -23.1100 -22.9900 -22.8531 -12.3934 -11.9809  -1.4948  -1.2072
    -0.6333  -0.3462   0.1999   0.7765   4.0688   5.8337   6.7324   6.8910
     7.2914   8.5748   9.9335  11.2447  11.9367  12.3038  13.1089  13.7063
    14.5372  14.8704

          k = 0.3750 0.2133 0.0000 (  6386 PWs)   bands (ev):

   -44.9133 -23.1028 -23.0816 -22.8634 -12.2500 -11.8329  -1.9198  -1.3794
    -1.1509  -0.2981   0.0648   0.7586   3.8095   6.6907   6.9950   7.3198
     7.5322   9.1184   9.8062  11.0764  11.6732  11.9913  13.1953  14.1574
    14.2385  14.5680

          k = 0.3750 0.2844 0.0000 (  6372 PWs)   bands (ev):

   -44.9111 -23.1209 -23.0746 -22.8764 -12.2176 -11.7886  -2.0060  -1.4895
    -1.1118  -0.3884   0.0606   0.6188   3.8648   6.8123   7.0869   7.5095
     7.5922   9.3903   9.7543  11.1176  11.7450  12.0092  12.8848  13.6020
    14.2878  14.5760

          k = 0.3750 0.3555 0.0000 (  6383 PWs)   bands (ev):

   -44.9089 -23.1256 -23.0676 -22.9034 -12.1866 -11.7418  -1.9957  -1.5693
    -1.0687  -0.5214   0.0350   0.3109   4.0492   6.8642   7.2038   7.5044
     7.7218   9.6423  10.0346  11.4009  11.8369  12.0336  12.4949  13.3406
    14.2978  14.5567

          k = 0.3750 0.4266 0.0000 (  6379 PWs)   bands (ev):

   -44.9070 -23.1157 -23.0616 -22.9408 -12.1612 -11.7005  -1.8874  -1.6190
    -1.0326  -0.6444  -0.1506   0.0567   4.3170   6.8418   7.1574   7.6392
     7.7095   9.7419  10.7390  11.5401  11.8342  12.2140  12.3849  13.4509
    14.3261  14.4716

          k = 0.3750 0.4977 0.0000 (  6379 PWs)   bands (ev):

   -44.9057 -23.0947 -23.0576 -22.9804 -12.1445 -11.6721  -1.7387  -1.6119
    -1.0094  -0.7767  -0.4665  -0.0021   4.5883   6.7228   7.0472   7.5234
     7.9606   9.9428  10.8850  11.6833  12.1242  12.5455  12.5536  13.5025
    14.4218  14.4359

          k = 0.3750 0.5688 0.0000 (  6392 PWs)   bands (ev):

   -44.9053 -23.0795 -23.0562 -23.0021 -12.1388 -11.6620  -1.7073  -1.5250
    -0.9990  -0.9024  -0.5685  -0.0202   4.7159   6.6302   7.0032   7.4840
     8.0687  10.1125  10.6426  12.0270  12.2043  12.7330  12.8623  13.1768
    14.3417  14.5241

          k = 0.3750-0.1422 0.0000 (  6376 PWs)   bands (ev):

   -44.9152 -23.0886 -23.0750 -22.8642 -12.2786 -11.8682  -1.7622  -1.2741
    -1.1484  -0.3325   0.1049   0.7144   3.8818   6.4082   6.9165   7.2829
     7.4643   9.0400   9.8948  11.2368  11.7190  12.0232  13.4532  14.0074
    14.3685  14.6336

          k = 0.3750-0.0711 0.0000 (  6390 PWs)   bands (ev):

   -44.9164 -23.0922 -23.0491 -22.8734 -12.2985 -11.8907  -1.5840  -1.2773
    -1.0317  -0.4457   0.1340   0.6019   4.0090   6.0767   6.9199   7.3001
     7.4381   9.0417  10.0072  11.3979  11.9780  12.1435  13.4732  13.7077
    13.8913  14.6837

          k = 0.3750 0.0000 0.0000 (  6385 PWs)   bands (ev):

   -44.9169 -23.0936 -23.0374 -22.8792 -12.3056 -11.8984  -1.4858  -1.3070
    -0.9576  -0.5098   0.1246   0.5561   4.0744   5.9359   6.9241   7.2979
     7.4502   9.0477  10.0658  11.4435  12.1531  12.3721  13.1909  13.4942
    13.6698  14.7864

          k = 0.4375 0.2489 0.0000 (  6370 PWs)   bands (ev):

   -44.9098 -23.1415 -23.0708 -22.8722 -12.2008 -11.7629  -2.1331  -1.5892
    -1.0886  -0.3633   0.0523   0.7144   3.7869   6.9053   7.2214   7.5807
     7.6761   9.3618   9.6935  10.9402  11.6681  12.0051  12.6791  13.6955
    14.0758  14.3249

          k = 0.4375 0.3200 0.0000 (  6380 PWs)   bands (ev):

   -44.9086 -23.1471 -23.0671 -22.8830 -12.1849 -11.7382  -2.1518  -1.6382
    -1.0655  -0.4238   0.0479   0.5830   3.8613   7.0011   7.2901   7.5548
     7.7339   9.4519   9.8329  11.0372  11.6921  12.0439  12.4617  13.3650
    14.1777  14.2837

          k = 0.4375 0.3911 0.0000 (  6370 PWs)   bands (ev):

   -44.9076 -23.1383 -23.0637 -22.9078 -12.1703 -11.7150  -2.0657  -1.6483
    -1.0445  -0.5316   0.0265   0.2827   4.0565   7.0569   7.2754   7.4940
     7.7082   9.5516  10.3120  11.3824  11.8086  12.1029  12.1180  13.2927
    14.2497  14.3953

          k = 0.4375 0.4622 0.0000 (  6371 PWs)   bands (ev):

   -44.9067 -23.1179 -23.0611 -22.9408 -12.1591 -11.6971  -1.8992  -1.6287
    -1.0317  -0.6472  -0.1464   0.0687   4.3057   6.8221   7.1588   7.6708
     7.7164   9.7420  10.7672  11.5503  11.8004  12.2287  12.3391  13.4665
    14.3192  14.4489

          k = 0.4375 0.5333 0.0000 (  6366 PWs)   bands (ev):

   -44.9063 -23.0967 -23.0597 -22.9689 -12.1530 -11.6874  -1.7450  -1.5903
    -1.0298  -0.7428  -0.3949   0.0421   4.5014   6.5689   7.0689   7.7130
     7.8718   9.9634  10.8075  11.4094  11.9837  12.5539  12.8496  13.6392
    14.1504  14.4098

          k = 0.4375-0.1778 0.0000 (  6370 PWs)   bands (ev):

   -44.9108 -23.1231 -23.0742 -22.8763 -12.2155 -11.7853  -2.0167  -1.4991
    -1.1112  -0.3950   0.0695   0.6337   3.8522   6.7899   7.0661   7.5152
     7.6440   9.4062   9.7513  11.1099  11.7372  12.0074  12.8776  13.6514
    14.2565  14.5271

          k = 0.4375-0.1067 0.0000 (  6389 PWs)   bands (ev):

   -44.9117 -23.0979 -23.0767 -22.8912 -12.2269 -11.8021  -1.8399  -1.3798
    -1.1378  -0.5022   0.0791   0.4448   4.0030   6.4345   7.0844   7.4482
     7.7050   9.5270   9.8748  11.4089  11.9059  12.0727  13.0231  13.5237
    14.3175  14.5643

          k = 0.4375-0.0356 0.0000 (  6381 PWs)   bands (ev):

   -44.9121 -23.0803 -23.0754 -22.9059 -12.2331 -11.8111  -1.6867  -1.2748
    -1.1729  -0.5971   0.0229   0.3376   4.1339   6.1627   7.0805   7.4641
     7.7604   9.5808  10.0181  11.5835  12.1172  12.2782  13.0388  13.3801
    13.9361  14.5138

          k =-0.5000-0.2844 0.0000 (  6382 PWs)   bands (ev):

   -44.9085 -23.1551 -23.0669 -22.8753 -12.1844 -11.7369  -2.2091  -1.6632
    -1.0655  -0.3863   0.0495   0.6994   3.7855   6.9529   7.3555   7.6118
     7.8010   9.3919   9.7095  10.8950  11.5955  12.0501  12.4932  13.5017
    13.9882  14.1864

          k =-0.5000-0.2133 0.0000 (  6373 PWs)   bands (ev):

   -44.9085 -23.1480 -23.0669 -22.8830 -12.1842 -11.7370  -2.1558  -1.6416
    -1.0652  -0.4263   0.0513   0.5884   3.8566   6.9982   7.2624   7.5540
     7.7712   9.4672   9.8271  11.0351  11.6821  12.0424  12.4609  13.3822
    14.1640  14.2709

          k =-0.5000-0.1422 0.0000 (  6377 PWs)   bands (ev):

   -44.9085 -23.1287 -23.0670 -22.9033 -12.1838 -11.7374  -2.0111  -1.5825
    -1.0676  -0.5272   0.0416   0.3313   4.0329   6.8333   7.1988   7.4846
     7.8026   9.6541  10.0494  11.3811  11.8230  12.0433  12.4730  13.3615
    14.2819  14.5116

          k =-0.5000-0.0711 0.0000 (  6377 PWs)   bands (ev):

   -44.9085 -23.1050 -23.0670 -22.9281 -12.1833 -11.7377  -1.8312  -1.5079
    -1.0788  -0.6360  -0.0800   0.1668   4.2278   6.4901   7.1455   7.5954
     7.8593   9.8707  10.2074  11.6390  11.7697  12.2504  12.7688  13.5170
    14.2455  14.4708

          k =-0.5000 0.0000 0.0000 (  6382 PWs)   bands (ev):

   -44.9085 -23.0930 -23.0670 -22.9405 -12.1832 -11.7378  -1.7393  -1.4691
    -1.0896  -0.6842  -0.1938   0.1494   4.3192   6.3366   7.1049   7.6718
     7.8830   9.9806  10.2505  11.5832  11.8222  12.4672  13.0417  13.5394
    14.1548  14.2587

     highest occupied, lowest unoccupied level (ev):     4.7251    5.7071

!    total energy              =    -591.24383304 Ry
     total all-electron energy =    -13333.877109 Ry
     estimated scf accuracy    <          6.1E-12 Ry

     The total energy is the sum of the following terms:
     one-electron contribution =    -204.42595586 Ry
     hartree contribution      =     109.99551878 Ry
     xc contribution           =     -37.58987922 Ry
     ewald contribution        =     -28.10796525 Ry
     one-center paw contrib.   =    -431.11555148 Ry

     convergence has been achieved in   6 iterations

     negative rho (up, down):  1.154E-08 0.000E+00

     Forces acting on atoms (cartesian axes, Ry/au):

     atom    1 type  1   force =     0.00000000    0.00030807   -0.00000163
     atom    2 type  2   force =     0.00000000   -0.00011952   -0.00016769
     atom    3 type  3   force =     0.00000000   -0.00018855    0.00016932
     The non-local contrib.  to forces
     atom    1 type  1   force =     0.00000000    0.00210823   -0.00066921
     atom    2 type  2   force =     0.00000000    0.00135527   -0.21223194
     atom    3 type  3   force =     0.00000000    0.00131977    0.20911716
     The ionic contribution  to forces
     atom    1 type  1   force =    -0.00000001    0.10841691   -0.30424263
     atom    2 type  2   force =     0.00000000   -0.06154007   20.89778407
     atom    3 type  3   force =     0.00000000   -0.04687684  -20.59354144
     The local contribution  to forces
     atom    1 type  1   force =    -0.00000000   -0.11012028    0.30453019
     atom    2 type  2   force =     0.00000003    0.05993214  -20.69357728
     atom    3 type  3   force =    -0.00000000    0.04531263   20.38830716
     The core correction contribution to forces
     atom    1 type  1   force =     0.00000000   -0.00007065    0.00037789
     atom    2 type  2   force =    -0.00000000    0.00015948    0.00786119
     atom    3 type  3   force =    -0.00000000    0.00008227   -0.00370415
     The Hubbard contrib.    to forces
     atom    1 type  1   force =     0.00000000    0.00000000    0.00000000
     atom    2 type  2   force =     0.00000000    0.00000000    0.00000000
     atom    3 type  3   force =     0.00000000    0.00000000    0.00000000
     The SCF correction term to forces
     atom    1 type  1   force =     0.00000000    0.00000055    0.00000820
     atom    2 type  2   force =    -0.00000000    0.00000036    0.00000234
     atom    3 type  3   force =    -0.00000000    0.00000031   -0.00000333

     Total force =     0.000449     Total SCF correction =     0.000009
     Energy error            =      1.0E-06 Ry
     Gradient error          =      3.1E-04 Ry/Bohr

     number of scf cycles    =   7
     number of bfgs steps    =   6

     energy             old  =    -591.2438320187 Ry
     energy             new  =    -591.2438330424 Ry

     CASE: energy            _new < energy            _old

     new trust radius        =       0.0013329461 bohr
     new conv_thr            =            1.0E-10 Ry


ATOMIC_POSITIONS (angstrom)
Zr            0.0000000000       -0.0163765019       10.2768113684
Cl           -0.0000000017        2.0230387966       11.9545650239
Br           -0.0000000017        2.0221945499        8.4317723820



     Writing config-only to output data dir ./tmp/ZrClBr.save/
     NEW-OLD atomic charge density approx. for the potential

     Check: negative core charge=   -0.000004

     negative rho (up, down):  1.261E-08 0.000E+00

     total cpu time spent up to now is       91.0 secs

     Self-consistent Calculation

     iteration #  1     ecut=    65.00 Ry     beta= 0.70
     Davidson diagonalization with overlap
     ethr =  1.00E-06,  avg # of iterations =  2.0

     Threshold (ethr) on eigenvalues was too large:
     Diagonalizing with lowered threshold

     Davidson diagonalization with overlap
     ethr =  9.41E-10,  avg # of iterations =  4.0

     negative rho (up, down):  1.282E-08 0.000E+00

     total cpu time spent up to now is       94.7 secs

     total energy              =    -591.24383337 Ry
     estimated scf accuracy    <       0.00000027 Ry

     iteration #  2     ecut=    65.00 Ry     beta= 0.70
     Davidson diagonalization with overlap
     ethr =  1.03E-09,  avg # of iterations =  2.0

     negative rho (up, down):  1.253E-08 0.000E+00

     total cpu time spent up to now is       96.3 secs

     total energy              =    -591.24383334 Ry
     estimated scf accuracy    <       0.00000085 Ry

     iteration #  3     ecut=    65.00 Ry     beta= 0.70
     Davidson diagonalization with overlap
     ethr =  1.03E-09,  avg # of iterations =  2.0

     negative rho (up, down):  1.253E-08 0.000E+00

     total cpu time spent up to now is       97.8 secs

     total energy              =    -591.24383350 Ry
     estimated scf accuracy    <          8.6E-09 Ry

     iteration #  4     ecut=    65.00 Ry     beta= 0.70
     Davidson diagonalization with overlap
     ethr =  3.31E-11,  avg # of iterations =  2.0

     negative rho (up, down):  1.253E-08 0.000E+00

     total cpu time spent up to now is       99.3 secs

     total energy              =    -591.24383350 Ry
     estimated scf accuracy    <          3.2E-09 Ry

     iteration #  5     ecut=    65.00 Ry     beta= 0.70
     Davidson diagonalization with overlap
     ethr =  1.22E-11,  avg # of iterations =  1.8

     negative rho (up, down):  1.252E-08 0.000E+00

     total cpu time spent up to now is      100.8 secs

     total energy              =    -591.24383350 Ry
     estimated scf accuracy    <          3.6E-10 Ry

     iteration #  6     ecut=    65.00 Ry     beta= 0.70
     Davidson diagonalization with overlap
     ethr =  1.37E-12,  avg # of iterations =  2.0

     negative rho (up, down):  1.253E-08 0.000E+00

     total cpu time spent up to now is      102.3 secs

     End of self-consistent calculation

          k = 0.0000 0.0000 0.0000 (  6439 PWs)   bands (ev):

   -44.9395 -23.1669 -22.7967 -22.7758 -12.7566 -12.1927  -2.1145  -0.0371
     0.1039   0.1753   1.2622   1.3544   4.2923   5.8642   6.0183   6.5690
     6.6263   6.7128   8.3232   9.3530  11.2989  13.4265  13.6335  13.8948
    14.5612  15.0946

          k = 0.0000 0.0711 0.0000 (  6441 PWs)   bands (ev):

   -44.9383 -23.1632 -22.8110 -22.7787 -12.7322 -12.1824  -2.0716  -0.1330
     0.0825   0.1641   1.1118   1.3220   4.2885   5.8117   6.0503   6.5408
     6.6836   6.8913   8.4427   9.5769  11.3617  13.0426  13.7547  14.2092
    14.5525  14.7037

          k = 0.0000 0.1422 0.0000 (  6417 PWs)   bands (ev):

   -44.9350 -23.1528 -22.8513 -22.7868 -12.6632 -12.1516  -1.9509  -0.3915
     0.0029   0.1283   0.7438   1.2373   4.2522   5.7332   6.1529   6.5184
     6.8376   7.3276   8.7804  10.1174  11.5480  12.5151  13.9334  14.1002
    14.4434  14.7568

          k = 0.0000 0.2133 0.0000 (  6433 PWs)   bands (ev):

   -44.9302 -23.1372 -22.9110 -22.7990 -12.5623 -12.1006  -1.7765  -0.7526
    -0.1984   0.0647   0.3650   1.1284   4.1420   5.7704   6.3392   6.5717
     7.0442   7.8393   9.2686  10.6971  11.7737  12.1208  13.4581  14.2343
    14.6025  15.0109

          k = 0.0000 0.2844 0.0000 (  6391 PWs)   bands (ev):

   -44.9244 -23.1186 -22.9803 -22.8133 -12.4489 -12.0302  -1.5990  -1.1364
    -0.5851  -0.0231   0.1658   1.0219   3.9804   5.9803   6.6150   6.6974
     7.2548   8.3198   9.7126  11.0882  11.7203  11.9868  13.6318  13.9082
    14.8627  15.0473

          k = 0.0000 0.3555 0.0000 (  6383 PWs)   bands (ev):

   -44.9186 -23.1001 -23.0484 -22.8276 -12.3453 -11.9447  -1.6461  -1.3017
    -1.0004  -0.1208   0.0813   0.9328   3.8392   6.3223   6.8553   6.9637
     7.4330   8.7513   9.8587  11.2071  11.6341  11.9632  13.5578  14.1696
    14.5060  14.8973

          k = 0.0000 0.4266 0.0000 (  6391 PWs)   bands (ev):

   -44.9137 -23.1058 -23.0839 -22.8397 -12.2670 -11.8576  -1.9349  -1.3750
    -1.1622  -0.2085   0.0412   0.8666   3.7602   6.7040   7.0211   7.3342
     7.5624   9.1244   9.7466  11.1030  11.6545  11.9634  13.0880  14.1118
    14.3432  14.4765

          k = 0.0000 0.4977 0.0000 (  6374 PWs)   bands (ev):

   -44.9104 -23.1432 -23.0735 -22.8477 -12.2199 -11.7914  -2.1468  -1.5754
    -1.0969  -0.2686   0.0241   0.8259   3.7357   6.9382   7.2461   7.6069
     7.6678   9.3460   9.6328  11.0028  11.6262  11.9415  12.6036  13.8689
    14.0141  14.2537

          k = 0.0000-0.5688 0.0000 (  6362 PWs)   bands (ev):

   -44.9092 -23.1564 -23.0697 -22.8505 -12.2043 -11.7667  -2.2223  -1.6460
    -1.0725  -0.2899   0.0196   0.8121   3.7333   6.9909   7.3850   7.6485
     7.7709   9.3299   9.6825  10.9708  11.5393  11.9644  12.4352  13.6848
    13.9554  14.1180

          k = 0.0625 0.0356 0.0000 (  6441 PWs)   bands (ev):

   -44.9382 -23.1631 -22.8039 -22.7866 -12.7314 -12.1816  -2.0706  -0.1167
     0.0906   0.1368   1.1620   1.2637   4.2937   5.8630   5.9886   6.5652
     6.6519   6.8939   8.4505   9.5862  11.3637  13.1143  13.6067  14.2685
    14.5872  14.7977

          k = 0.0625 0.1067 0.0000 (  6425 PWs)   bands (ev):

   -44.9360 -23.1560 -22.8343 -22.7890 -12.6847 -12.1610  -1.9887  -0.2936
     0.0254   0.1284   0.8768   1.2305   4.2760   5.7586   6.0952   6.5332
     6.7693   7.1997   8.6779   9.9643  11.4928  12.6775  13.8838  14.1614
    14.5053  14.6949

          k = 0.0625 0.1778 0.0000 (  6423 PWs)   bands (ev):

   -44.9319 -23.1430 -22.8849 -22.7986 -12.5998 -12.1199  -1.8401  -0.5975
    -0.1075   0.0691   0.5004   1.1336   4.2084   5.7090   6.2729   6.5579
     6.9515   7.6679   9.0940  10.5143  11.7498  12.2495  13.5517  14.1161
    14.5920  14.9978

          k = 0.0625 0.2489 0.0000 (  6405 PWs)   bands (ev):

   -44.9266 -23.1259 -22.9487 -22.8125 -12.4927 -12.0590  -1.6573  -0.9676
    -0.3857  -0.0676   0.2593   1.0141   4.0799   5.8058   6.5375   6.6651
     7.1562   8.1568   9.5781  10.9758  11.8717  12.0742  13.3236  13.9764
    14.8199  15.0270

          k = 0.0625 0.3200 0.0000 (  6400 PWs)   bands (ev):

   -44.9208 -23.1074 -23.0162 -22.8280 -12.3847 -11.9800  -1.5371  -1.2850
    -0.8023  -0.1807   0.1564   0.8964   3.9410   6.0586   6.7951   6.9101
     7.3416   8.6150   9.8729  11.2289  11.7685  12.0159  13.6362  13.8752
    14.5140  14.8752

          k = 0.0625 0.3911 0.0000 (  6385 PWs)   bands (ev):

   -44.9155 -23.0905 -23.0772 -22.8424 -12.2951 -11.8916  -1.7686  -1.2764
    -1.1511  -0.2594   0.0899   0.7964   3.8482   6.4235   6.9612   7.2803
     7.4831   9.0406   9.8495  11.2477  11.7243  12.0082  13.3649  13.9612
    14.3472  14.6491

          k = 0.0625 0.4622 0.0000 (  6380 PWs)   bands (ev):

   -44.9114 -23.1240 -23.0767 -22.8534 -12.2340 -11.8126  -2.0240  -1.4834
    -1.1207  -0.3118   0.0455   0.7247   3.8144   6.8165   7.1077   7.5398
     7.6155   9.4025   9.6880  11.1640  11.7196  11.9716  12.8108  13.6814
    14.2214  14.5169

          k = 0.0625 0.5333 0.0000 (  6366 PWs)   bands (ev):

   -44.9091 -23.1488 -23.0696 -22.8594 -12.2034 -11.7658  -2.1659  -1.6230
    -1.0724  -0.3385   0.0235   0.6875   3.8128   7.0338   7.2965   7.5864
     7.7342   9.4014   9.8097  11.1142  11.6410  11.9678  12.4249  13.4611
    14.1313  14.2645

          k = 0.1250 0.0711 0.0000 (  6421 PWs)   bands (ev):

   -44.9347 -23.1522 -22.8392 -22.8022 -12.6603 -12.1482  -1.9472  -0.3611
     0.0192   0.0718   0.7924   1.1591   4.2724   5.7959   6.0550   6.5302
     6.8067   7.3338   8.8059  10.1405  11.5573  12.5561  13.9576  14.0150
    14.4796  14.8332

          k = 0.1250 0.1422 0.0000 (  6411 PWs)   bands (ev):

   -44.9317 -23.1426 -22.8792 -22.8067 -12.5976 -12.1174  -1.8376  -0.5798
    -0.1026   0.0429   0.5205   1.0878   4.2253   5.7213   6.2352   6.5680
     6.9311   7.6710   9.1102  10.5259  11.7593  12.2692  13.5838  14.1064
    14.5546  15.0450

          k = 0.1250 0.2133 0.0000 (  6418 PWs)   bands (ev):

   -44.9272 -23.1281 -22.9322 -22.8198 -12.5065 -12.0662  -1.6770  -0.8775
    -0.2876  -0.1316   0.3013   0.9600   4.1479   5.7114   6.5188   6.6713
     7.0981   8.1084   9.5356  10.9382  12.0241  12.1429  13.1282  13.9384
    14.7684  14.9661

          k = 0.1250 0.2844 0.0000 (  6391 PWs)   bands (ev):

   -44.9218 -23.1110 -22.9914 -22.8375 -12.4052 -11.9956  -1.5053  -1.2016
    -0.6250  -0.3097   0.2018   0.8002   4.0604   5.8288   6.8058   6.9141
     7.2675   8.5691   9.8940  11.2356  11.9637  12.3342  13.1132  13.7218
    14.4477  14.8213

          k = 0.1250 0.3555 0.0000 (  6393 PWs)   bands (ev):

   -44.9165 -23.0938 -23.0489 -22.8562 -12.3131 -11.9109  -1.5763  -1.2866
    -1.0148  -0.4001   0.1295   0.6344   4.0007   6.0848   6.9873   7.2856
     7.4299   9.0343   9.9781  11.4033  12.0083  12.1621  13.4576  13.6670
    13.8962  14.6334

          k = 0.1250 0.4266 0.0000 (  6390 PWs)   bands (ev):

   -44.9119 -23.0970 -23.0788 -22.8724 -12.2434 -11.8263  -1.8336  -1.3580
    -1.1467  -0.4451   0.0675   0.4898   3.9898   6.4502   7.1322   7.4717
     7.6560   9.5179   9.8322  11.4527  11.9230  12.0694  13.0302  13.4731
    14.2846  14.5560

          k = 0.1250 0.4977 0.0000 (  6371 PWs)   bands (ev):

   -44.9089 -23.1284 -23.0692 -22.8833 -12.2010 -11.7632  -2.0114  -1.5593
    -1.0751  -0.4613   0.0235   0.3917   4.0103   6.8503   7.2295   7.5318
     7.7469   9.5950  10.0347  11.4666  11.8322  12.0030  12.4648  13.3545
    14.2310  14.5283

          k = 0.1250 0.5688 0.0000 (  6366 PWs)   bands (ev):

   -44.9078 -23.1393 -23.0658 -22.8872 -12.1869 -11.7398  -2.0743  -1.6294
    -1.0505  -0.4642   0.0072   0.3571   4.0238   7.0632   7.2884   7.5363
     7.6992   9.4904  10.3085  11.4800  11.7814  12.0362  12.1209  13.3100
    14.1864  14.4249

          k = 0.1250 0.0000 0.0000 (  6449 PWs)   bands (ev):

   -44.9358 -23.1556 -22.8203 -22.8055 -12.6825 -12.1585  -1.9860  -0.2703
     0.0271   0.0964   0.9160   1.1720   4.2876   5.8456   5.9845   6.5253
     6.7603   7.2044   8.6980   9.9831  11.4968  12.7169  13.7544  14.2349
    14.5786  14.7157

          k = 0.1875 0.1067 0.0000 (  6401 PWs)   bands (ev):

   -44.9295 -23.1359 -22.9000 -22.8168 -12.5562 -12.0932  -1.7696  -0.7236
    -0.1760  -0.0004   0.3925   1.0399   4.1796   5.8062   6.2465   6.5691
     7.0186   7.8455   9.3104  10.7217  11.7918  12.1533  13.5125  14.2722
    14.4881  15.1079

          k = 0.1875 0.1778 0.0000 (  6409 PWs)   bands (ev):

   -44.9260 -23.1248 -22.9409 -22.8263 -12.4874 -12.0522  -1.6519  -0.9438
    -0.3619  -0.1133   0.2649   0.9396   4.1155   5.8073   6.4897   6.6713
     7.1299   8.1600   9.6065  10.9909  11.8859  12.1061  13.3614  14.0239
    14.7659  15.0671

          k = 0.1875 0.2489 0.0000 (  6412 PWs)   bands (ev):

   -44.9215 -23.1103 -22.9876 -22.8449 -12.4021 -11.9914  -1.5027  -1.1889
    -0.6097  -0.3332   0.1972   0.7622   4.0806   5.8229   6.8022   6.9018
     7.2559   8.5693   9.9059  11.2443  11.9779  12.3205  13.1471  13.7591
    14.4232  14.8453

          k = 0.1875 0.3200 0.0000 (  6401 PWs)   bands (ev):

   -44.9166 -23.0946 -23.0335 -22.8692 -12.3172 -11.9140  -1.4614  -1.3153
    -0.9247  -0.4896   0.1174   0.5427   4.0912   5.9342   7.0011   7.2660
     7.4273   9.0357  10.0488  11.4572  12.1869  12.4183  13.2089  13.4817
    13.6618  14.7413

          k = 0.1875 0.3911 0.0000 (  6389 PWs)   bands (ev):

   -44.9120 -23.0805 -23.0726 -22.8939 -12.2467 -11.8306  -1.6609  -1.2439
    -1.1797  -0.5668   0.0183   0.3291   4.1488   6.1664   7.1220   7.4829
     7.6985   9.5600  10.0024  11.6208  12.1174  12.3273  13.0828  13.3646
    13.9328  14.4755

          k = 0.1875 0.4622 0.0000 (  6382 PWs)   bands (ev):

   -44.9085 -23.1024 -23.0685 -22.9139 -12.1976 -11.7589  -1.8145  -1.4777
    -1.0865  -0.5969  -0.0692   0.1586   4.2329   6.4950   7.1603   7.6520
     7.7837   9.8292  10.1854  11.6800  11.8241  12.2608  12.8181  13.4744
    14.2170  14.4692

          k = 0.1875 0.5333 0.0000 (  6363 PWs)   bands (ev):

   -44.9067 -23.1176 -23.0625 -22.9251 -12.1726 -11.7174  -1.8959  -1.6056
    -1.0374  -0.6039  -0.1145   0.0588   4.2970   6.8171   7.1668   7.6544
     7.7499   9.6907  10.7562  11.5816  11.9022  12.1986  12.3175  13.4732
    14.2738  14.4776

          k = 0.1875-0.0356 0.0000 (  6417 PWs)   bands (ev):

   -44.9313 -23.1419 -22.8733 -22.8161 -12.5943 -12.1136  -1.8337  -0.5739
    -0.1062   0.0309   0.5195   1.0697   4.2337   5.7629   6.1731   6.5269
     6.9519   7.6739   9.1360  10.5410  11.7595  12.2622  13.5978  14.0363
    14.6094  15.0602

          k = 0.2500 0.1422 0.0000 (  6395 PWs)   bands (ev):

   -44.9233 -23.1166 -22.9716 -22.8329 -12.4393 -12.0175  -1.5896  -1.1135
    -0.5624  -0.0973   0.1812   0.9248   4.0269   5.9953   6.5405   6.6841
     7.2315   8.3236   9.7559  11.1108  11.7341  12.0160  13.6843  13.9801
    14.9069  15.0049

          k = 0.2500 0.2133 0.0000 (  6393 PWs)   bands (ev):

   -44.9198 -23.1055 -23.0087 -22.8455 -12.3760 -11.9678  -1.5267  -1.2649
    -0.7807  -0.2360   0.1552   0.8038   3.9872   6.0549   6.7774   6.8766
     7.3165   8.6155   9.9038  11.2529  11.7718  12.0333  13.7138  13.9577
    14.5138  14.8742

          k = 0.2500 0.2844 0.0000 (  6397 PWs)   bands (ev):

   -44.9157 -23.0924 -23.0434 -22.8693 -12.3065 -11.9012  -1.5611  -1.2796
    -1.0013  -0.4370   0.1231   0.5709   4.0346   6.0787   6.9747   7.2648
     7.4157   9.0320  10.0005  11.4210  11.9892  12.1540  13.5204  13.6388
    13.9747  14.6884

          k = 0.2500 0.3555 0.0000 (  6390 PWs)   bands (ev):

   -44.9116 -23.0797 -23.0699 -22.9008 -12.2431 -11.8252  -1.6517  -1.2432
    -1.1754  -0.5843   0.0087   0.3065   4.1650   6.1663   7.1113   7.4786
     7.6885   9.5598  10.0154  11.6283  12.1098  12.2862  13.0269  13.4458
    13.9951  14.5180

          k = 0.2500 0.4266 0.0000 (  6372 PWs)   bands (ev):

   -44.9081 -23.0872 -23.0677 -22.9337 -12.1938 -11.7536  -1.7060  -1.4350
    -1.0969  -0.6661  -0.2037   0.1250   4.3467   6.3380   7.1115   7.7158
     7.7983   9.9675  10.2174  11.5912  11.8792  12.4781  13.1266  13.5273
    14.1480  14.2693

          k = 0.2500 0.4977 0.0000 (  6380 PWs)   bands (ev):

   -44.9058 -23.0940 -23.0603 -22.9599 -12.1629 -11.7022  -1.7249  -1.5648
    -1.0358  -0.7240  -0.3847   0.0217   4.5169   6.5632   7.0721   7.6466
     7.9252   9.9289  10.8158  11.3799  12.0547  12.5646  12.8950  13.6602
    14.1317  14.3928

          k = 0.2500 0.5688 0.0000 (  6368 PWs)   bands (ev):

   -44.9050 -23.0953 -23.0577 -22.9701 -12.1524 -11.6835  -1.7327  -1.6017
    -1.0138  -0.7576  -0.4418  -0.0156   4.5890   6.7025   7.0505   7.5113
     8.0003   9.9004  10.9369  11.6645  12.1515  12.4993  12.5681  13.6007
    14.3920  14.4410

          k = 0.2500-0.0711 0.0000 (  6400 PWs)   bands (ev):

   -44.9256 -23.1240 -22.9404 -22.8309 -12.4835 -12.0475  -1.6478  -0.9525
    -0.3709  -0.1217   0.2616   0.9455   4.1128   5.8280   6.4647   6.6218
     7.1585   8.1619   9.6293  10.9966  11.8701  12.0899  13.3459  13.9828
    14.8098  15.0784

          k = 0.2500 0.0000 0.0000 (  6409 PWs)   bands (ev):

   -44.9264 -23.1266 -22.9273 -22.8323 -12.4994 -12.0575  -1.6692  -0.8782
    -0.2891  -0.1582   0.2945   0.9391   4.1590   5.7371   6.4658   6.6036
     7.1307   8.1125   9.5798  10.9538  11.9973  12.1347  13.1300  13.9032
    14.8050  14.9907

          k = 0.3125 0.1778 0.0000 (  6393 PWs)   bands (ev):

   -44.9170 -23.0973 -23.0421 -22.8488 -12.3322 -11.9260  -1.6319  -1.2893
    -0.9896  -0.2045   0.0995   0.8287   3.8881   6.3248   6.8331   6.9177
     7.4081   8.7513   9.9010  11.2245  11.6323  11.9874  13.6640  14.2477
    14.5848  14.7956

          k = 0.3125 0.2489 0.0000 (  6389 PWs)   bands (ev):

   -44.9140 -23.0878 -23.0711 -22.8625 -12.2829 -11.8735  -1.7499  -1.2705
    -1.1393  -0.3261   0.0948   0.6934   3.8986   6.4236   6.9406   7.2434
     7.4605   9.0360   9.8932  11.2507  11.7184  12.0271  13.4711  13.9413
    14.3904  14.7093

          k = 0.3125 0.3200 0.0000 (  6378 PWs)   bands (ev):

   -44.9107 -23.0920 -23.0764 -22.8893 -12.2332 -11.8108  -1.8157  -1.3574
    -1.1396  -0.4949   0.0679   0.4121   4.0299   6.4547   7.1048   7.4591
     7.6304   9.5107   9.8743  11.4416  11.9060  12.0670  13.0145  13.5322
    14.3514  14.6409

          k = 0.3125 0.3911 0.0000 (  6375 PWs)   bands (ev):

   -44.9077 -23.0986 -23.0669 -22.9259 -12.1904 -11.7478  -1.8022  -1.4820
    -1.0831  -0.6287  -0.0928   0.1380   4.2565   6.5072   7.1454   7.6342
     7.7661   9.8736  10.1696  11.6640  11.7996  12.2190  12.8296  13.5145
    14.2760  14.5249

          k = 0.3125 0.4622 0.0000 (  6377 PWs)   bands (ev):

   -44.9054 -23.0918 -23.0595 -22.9660 -12.1593 -11.6965  -1.7221  -1.5682
    -1.0341  -0.7384  -0.4040   0.0255   4.5238   6.5761   7.0688   7.6407
     7.9084   9.9577  10.7942  11.3656  12.0513  12.5325  12.9523  13.6095
    14.1546  14.4065

          k = 0.3125 0.5333 0.0000 (  6377 PWs)   bands (ev):

   -44.9041 -23.0778 -23.0555 -22.9981 -12.1429 -11.6677  -1.6991  -1.5126
    -1.0033  -0.9025  -0.5633  -0.0283   4.7255   6.6245   7.0048   7.4608
     8.0910  10.0912  10.6714  11.9499  12.2378  12.7490  12.8986  13.2196
    14.2778  14.5554

          k = 0.3125-0.1067 0.0000 (  6394 PWs)   bands (ev):

   -44.9194 -23.1047 -23.0108 -22.8474 -12.3721 -11.9627  -1.5284  -1.2747
    -0.7975  -0.2436   0.1616   0.8212   3.9748   6.0595   6.7479   6.8759
     7.3362   8.6186   9.9153  11.2452  11.7635  12.0225  13.6784  13.9064
    14.5999  14.8634

          k = 0.3125-0.0356 0.0000 (  6395 PWs)   bands (ev):

   -44.9206 -23.1087 -22.9887 -22.8518 -12.3945 -11.9814  -1.4963  -1.2084
    -0.6342  -0.3473   0.1998   0.7750   4.0701   5.8354   6.7327   6.8925
     7.2935   8.5752   9.9358  11.2429  11.9355  12.3039  13.1110  13.7083
    14.5383  14.8704

          k = 0.3750 0.2133 0.0000 (  6386 PWs)   bands (ev):

   -44.9118 -23.1016 -23.0803 -22.8621 -12.2510 -11.8335  -1.9210  -1.3802
    -1.1522  -0.3001   0.0655   0.7572   3.8107   6.6918   6.9961   7.3206
     7.5345   9.1201   9.8072  11.0772  11.6734  11.9915  13.1959  14.1576
    14.2395  14.5692

          k = 0.3750 0.2844 0.0000 (  6372 PWs)   bands (ev):

   -44.9095 -23.1197 -23.0733 -22.8751 -12.2187 -11.7893  -2.0071  -1.4902
    -1.1132  -0.3905   0.0614   0.6177   3.8659   6.8134   7.0879   7.5117
     7.5934   9.3930   9.7544  11.1181  11.7456  12.0097  12.8859  13.6020
    14.2878  14.5780

          k = 0.3750 0.3555 0.0000 (  6383 PWs)   bands (ev):

   -44.9073 -23.1245 -23.0663 -22.9022 -12.1877 -11.7426  -1.9968  -1.5701
    -1.0701  -0.5232   0.0356   0.3101   4.0502   6.8654   7.2046   7.5073
     7.7226   9.6433  10.0361  11.4012  11.8380  12.0338  12.4960  13.3405
    14.2975  14.5587

          k = 0.3750 0.4266 0.0000 (  6379 PWs)   bands (ev):

   -44.9054 -23.1146 -23.0603 -22.9396 -12.1622 -11.7012  -1.8885  -1.6201
    -1.0340  -0.6456  -0.1515   0.0573   4.3178   6.8427   7.1596   7.6408
     7.7112   9.7425  10.7411  11.5407  11.8343  12.2140  12.3855  13.4514
    14.3259  14.4731

          k = 0.3750 0.4977 0.0000 (  6379 PWs)   bands (ev):

   -44.9042 -23.0936 -23.0562 -22.9792 -12.1456 -11.6728  -1.7399  -1.6131
    -1.0107  -0.7777  -0.4672  -0.0015   4.5889   6.7233   7.0498   7.5259
     7.9620   9.9438  10.8863  11.6838  12.1234  12.5458  12.5542  13.5031
    14.4220  14.4374

          k = 0.3750 0.5688 0.0000 (  6392 PWs)   bands (ev):

   -44.9037 -23.0783 -23.0549 -23.0010 -12.1398 -11.6627  -1.7089  -1.5259
    -1.0000  -0.9036  -0.5689  -0.0198   4.7164   6.6305   7.0059   7.4869
     8.0702  10.1143  10.6427  12.0275  12.2033  12.7336  12.8627  13.1772
    14.3438  14.5246

          k = 0.3750-0.1422 0.0000 (  6376 PWs)   bands (ev):

   -44.9136 -23.0873 -23.0738 -22.8630 -12.2797 -11.8688  -1.7635  -1.2751
    -1.1495  -0.3340   0.1051   0.7130   3.8830   6.4096   6.9176   7.2844
     7.4659   9.0409   9.8966  11.2373  11.7188  12.0230  13.4539  14.0086
    14.3684  14.6341

          k = 0.3750-0.0711 0.0000 (  6390 PWs)   bands (ev):

   -44.9149 -23.0910 -23.0478 -22.8722 -12.2996 -11.8913  -1.5854  -1.2786
    -1.0329  -0.4466   0.1339   0.6006   4.0101   6.0784   6.9211   7.3016
     7.4394   9.0422  10.0097  11.3969  11.9779  12.1429  13.4746  13.7089
    13.8924  14.6843

          k = 0.3750 0.0000 0.0000 (  6385 PWs)   bands (ev):

   -44.9153 -23.0923 -23.0361 -22.8780 -12.3067 -11.8989  -1.4873  -1.3083
    -0.9590  -0.5104   0.1244   0.5549   4.0754   5.9378   6.9253   7.2994
     7.4515   9.0480  10.0686  11.4419  12.1512  12.3723  13.1931  13.4960
    13.6712  14.7866

          k = 0.4375 0.2489 0.0000 (  6370 PWs)   bands (ev):

   -44.9082 -23.1404 -23.0695 -22.8710 -12.2018 -11.7636  -2.1341  -1.5899
    -1.0900  -0.3653   0.0530   0.7130   3.7882   6.9061   7.2227   7.5830
     7.6771   9.3642   9.6935  10.9411  11.6688  12.0054  12.6799  13.6961
    14.0778  14.3252

          k = 0.4375 0.3200 0.0000 (  6380 PWs)   bands (ev):

   -44.9071 -23.1460 -23.0658 -22.8818 -12.1860 -11.7389  -2.1528  -1.6389
    -1.0670  -0.4258   0.0486   0.5818   3.8625   7.0019   7.2915   7.5573
     7.7347   9.4529   9.8343  11.0379  11.6927  12.0443  12.4630  13.3653
    14.1783  14.2850

          k = 0.4375 0.3911 0.0000 (  6370 PWs)   bands (ev):

   -44.9060 -23.1371 -23.0624 -22.9065 -12.1714 -11.7157  -2.0667  -1.6492
    -1.0460  -0.5332   0.0270   0.2818   4.0575   7.0581   7.2768   7.4956
     7.7099   9.5519  10.3139  11.3831  11.8092  12.1036  12.1183  13.2936
    14.2489  14.3976

          k = 0.4375 0.4622 0.0000 (  6371 PWs)   bands (ev):

   -44.9052 -23.1167 -23.0598 -22.9396 -12.1601 -11.6979  -1.9001  -1.6300
    -1.0331  -0.6482  -0.1472   0.0691   4.3065   6.8231   7.1615   7.6719
     7.7180   9.7427  10.7685  11.5512  11.8005  12.2290  12.3394  13.4673
    14.3195  14.4502

          k = 0.4375 0.5333 0.0000 (  6366 PWs)   bands (ev):

   -44.9047 -23.0956 -23.0584 -22.9678 -12.1540 -11.6882  -1.7462  -1.5917
    -1.0311  -0.7436  -0.3958   0.0425   4.5020   6.5701   7.0718   7.7152
     7.8724   9.9648  10.8077  11.4103  11.9824  12.5549  12.8501  13.6394
    14.1522  14.4114

          k = 0.4375-0.1778 0.0000 (  6370 PWs)   bands (ev):

   -44.9093 -23.1219 -23.0729 -22.8751 -12.2166 -11.7860  -2.0179  -1.5000
    -1.1126  -0.3966   0.0700   0.6323   3.8534   6.7911   7.0674   7.5169
     7.6454   9.4082   9.7515  11.1110  11.7375  12.0075  12.8781  13.6532
    14.2564  14.5279

          k = 0.4375-0.1067 0.0000 (  6389 PWs)   bands (ev):

   -44.9101 -23.0967 -23.0754 -22.8899 -12.2279 -11.8028  -1.8411  -1.3809
    -1.1392  -0.5032   0.0792   0.4436   4.0040   6.4360   7.0867   7.4487
     7.7066   9.5278   9.8764  11.4092  11.9057  12.0726  13.0245  13.5245
    14.3177  14.5647

          k = 0.4375-0.0356 0.0000 (  6381 PWs)   bands (ev):

   -44.9106 -23.0791 -23.0742 -22.9047 -12.2342 -11.8117  -1.6879  -1.2763
    -1.1743  -0.5977   0.0225   0.3369   4.1347   6.1646   7.0832   7.4642
     7.7620   9.5810  10.0205  11.5822  12.1164  12.2790  13.0394  13.3814
    13.9379  14.5148

          k =-0.5000-0.2844 0.0000 (  6382 PWs)   bands (ev):

   -44.9070 -23.1540 -23.0656 -22.8741 -12.1854 -11.7376  -2.2101  -1.6639
    -1.0670  -0.3883   0.0502   0.6981   3.7868   6.9537   7.3568   7.6144
     7.8017   9.3929   9.7110  10.8959  11.5962  12.0505  12.4940  13.5023
    13.9913  14.1853

          k =-0.5000-0.2133 0.0000 (  6373 PWs)   bands (ev):

   -44.9070 -23.1468 -23.0656 -22.8817 -12.1852 -11.7377  -2.1568  -1.6424
    -1.0667  -0.4281   0.0519   0.5872   3.8578   6.9994   7.2633   7.5562
     7.7727   9.4680   9.8283  11.0361  11.6830  12.0426  12.4613  13.3838
    14.1648  14.2714

          k =-0.5000-0.1422 0.0000 (  6377 PWs)   bands (ev):

   -44.9070 -23.1275 -23.0657 -22.9021 -12.1848 -11.7381  -2.0121  -1.5836
    -1.0690  -0.5285   0.0419   0.3303   4.0340   6.8346   7.2013   7.4850
     7.8045   9.6550  10.0502  11.3821  11.8240  12.0432  12.4732  13.3631
    14.2817  14.5127

          k =-0.5000-0.0711 0.0000 (  6377 PWs)   bands (ev):

   -44.9070 -23.1038 -23.0657 -22.9269 -12.1844 -11.7384  -1.8322  -1.5093
    -1.0802  -0.6368  -0.0807   0.1666   4.2286   6.4917   7.1487   7.5951
     7.8612   9.8719  10.2081  11.6388  11.7699  12.2511  12.7693  13.5178
    14.2466  14.4714

          k =-0.5000 0.0000 0.0000 (  6382 PWs)   bands (ev):

   -44.9070 -23.0918 -23.0657 -22.9394 -12.1842 -11.7386  -1.7403  -1.4706
    -1.0909  -0.6848  -0.1946   0.1495   4.3198   6.3384   7.1081   7.6716
     7.8848   9.9820  10.2512  11.5831  11.8211  12.4684  13.0416  13.5405
    14.1566  14.2601

     highest occupied, lowest unoccupied level (ev):     4.7255    5.7090

!    total energy              =    -591.24383350 Ry
     total all-electron energy =    -13333.877110 Ry
     estimated scf accuracy    <          5.9E-12 Ry

     The total energy is the sum of the following terms:
     one-electron contribution =    -204.52325882 Ry
     hartree contribution      =     110.04446925 Ry
     xc contribution           =     -37.59046085 Ry
     ewald contribution        =     -28.05899963 Ry
     one-center paw contrib.   =    -431.11558345 Ry

     convergence has been achieved in   6 iterations

     negative rho (up, down):  1.253E-08 0.000E+00

     Forces acting on atoms (cartesian axes, Ry/au):

     atom    1 type  1   force =     0.00000000    0.00005114   -0.00001362
     atom    2 type  2   force =     0.00000000   -0.00000569    0.00002401
     atom    3 type  3   force =     0.00000000   -0.00004546   -0.00001039
     The non-local contrib.  to forces
     atom    1 type  1   force =     0.00000000    0.00201790   -0.00066255
     atom    2 type  2   force =     0.00000000    0.00140054   -0.21211863
     atom    3 type  3   force =     0.00000000    0.00138001    0.20903719
     The ionic contribution  to forces
     atom    1 type  1   force =    -0.00000001    0.10553084   -0.30367384
     atom    2 type  2   force =     0.00000000   -0.06002079   20.90275176
     atom    3 type  3   force =     0.00000000   -0.04551005  -20.59907792
     The local contribution  to forces
     atom    1 type  1   force =     0.00000000   -0.10739887    0.30393999
     atom    2 type  2   force =     0.00000003    0.05848638  -20.69844611
     atom    3 type  3   force =    -0.00000000    0.04403782   20.39372825
     The core correction contribution to forces
     atom    1 type  1   force =     0.00000000   -0.00007324    0.00037719
     atom    2 type  2   force =    -0.00000000    0.00015400    0.00783828
     atom    3 type  3   force =    -0.00000000    0.00007277   -0.00369266
     The Hubbard contrib.    to forces
     atom    1 type  1   force =     0.00000000    0.00000000    0.00000000
     atom    2 type  2   force =     0.00000000    0.00000000    0.00000000
     atom    3 type  3   force =     0.00000000    0.00000000    0.00000000
     The SCF correction term to forces
     atom    1 type  1   force =     0.00000000    0.00000095    0.00000842
     atom    2 type  2   force =    -0.00000000    0.00000063    0.00000153
     atom    3 type  3   force =    -0.00000000    0.00000043   -0.00000243

     Total force =     0.000075     Total SCF correction =     0.000009
     SCF correction compared to forces is large: reduce conv_thr to get better values
     Energy error            =      4.6E-07 Ry
     Gradient error          =      5.1E-05 Ry/Bohr

     bfgs converged in   8 scf cycles and   7 bfgs steps
     (criteria: energy <  1.0E-05 Ry, force <  1.0E-04 Ry/Bohr)

     End of BFGS Geometry Optimization

     Final energy             =    -591.2438335015 Ry

     File ./tmp/ZrClBr.bfgs deleted, as requested
Begin final coordinates

ATOMIC_POSITIONS (angstrom)
Zr            0.0000000000       -0.0163765019       10.2768113684
Cl           -0.0000000017        2.0230387966       11.9545650239
Br           -0.0000000017        2.0221945499        8.4317723820
End final coordinates



     Writing all to output data dir ./tmp/ZrClBr.save/

     init_run     :      0.66s CPU      0.70s WALL (       1 calls)
     electrons    :     95.62s CPU     97.77s WALL (       8 calls)
     update_pot   :      0.86s CPU      0.92s WALL (       7 calls)
     forces       :      1.96s CPU      1.97s WALL (       8 calls)

     Called by init_run:
     wfcinit      :      0.48s CPU      0.50s WALL (       1 calls)
     potinit      :      0.07s CPU      0.09s WALL (       1 calls)
     hinit0       :      0.08s CPU      0.08s WALL (       1 calls)

     Called by electrons:
     c_bands      :     81.02s CPU     82.38s WALL (      59 calls)
     sum_band     :     11.84s CPU     12.10s WALL (      59 calls)
     v_of_rho     :      0.20s CPU      0.20s WALL (      59 calls)
     newd         :      0.55s CPU      0.61s WALL (      59 calls)
     PAW_pot      :      2.67s CPU      3.26s WALL (      66 calls)
     mix_rho      :      0.02s CPU      0.02s WALL (      59 calls)

     Called by c_bands:
     init_us_2    :      0.61s CPU      0.62s WALL (    9782 calls)
     init_us_2:cp :      0.60s CPU      0.61s WALL (    9782 calls)
     cegterg      :     79.34s CPU     80.67s WALL (    4307 calls)

     Called by *egterg:
     cdiaghg      :     11.07s CPU     11.16s WALL (   13546 calls)
     h_psi        :     47.71s CPU     48.83s WALL (   14714 calls)
     s_psi        :      2.97s CPU      3.00s WALL (   14714 calls)
     g_psi        :      0.11s CPU      0.11s WALL (   10334 calls)

     Called by h_psi:
     h_psi:calbec :      5.03s CPU      5.13s WALL (   14714 calls)
     vloc_psi     :     39.61s CPU     40.59s WALL (   14714 calls)
     add_vuspsi   :      2.96s CPU      3.00s WALL (   14714 calls)

     General routines
     calbec       :      8.61s CPU      8.76s WALL (   21868 calls)
     fft          :      0.11s CPU      0.11s WALL (     752 calls)
     ffts         :      0.01s CPU      0.01s WALL (      59 calls)
     fftw         :     45.30s CPU     46.40s WALL (  634502 calls)

     Parallel routines

     PWSCF        :   1m40.46s CPU   1m42.99s WALL


   This run was terminated on:   8:44: 4  18Sep2026            

=------------------------------------------------------------------------------=
   JOB DONE.
=------------------------------------------------------------------------------=
Note: The following floating-point exceptions are signalling: IEEE_INVALID_FLAG
