
     Program PWSCF v.7.2 starts on 10Sep2026 at  3:23:18 

     This program is part of the open-source Quantum ESPRESSO suite
     for quantum simulation of materials; please cite
         "P. Giannozzi et al., J. Phys.:Condens. Matter 21 395502 (2009);
         "P. Giannozzi et al., J. Phys.:Condens. Matter 29 465901 (2017);
         "P. Giannozzi et al., J. Chem. Phys. 152 154105 (2020);
          URL http://www.quantum-espresso.org", 
     in publications or presentations arising from this work. More details at
     http://www.quantum-espresso.org/quote

     Parallel version (MPI), running on    32 processors

     MPI processes distributed on     1 nodes
     200606 MiB available memory on the printing compute node when the environment starts

     Reading input from nscfbands.in

     Current dimensions of program PWSCF are:
     Max number of different atomic species (ntypx) = 10
     Max number of k-points (npk) =  40000
     Max angular momentum in pseudopotentials (lmaxx) =  4

     Atomic positions and unit cell read from directory:
     ./tmp/ZrBr2.save/
     Atomic positions from file used, from input discarded

     file Zr.pbe-spn-kjpaw_psl.1.0.0.UPF: wavefunction(s)  4S 4P renormalized
     file Br.pbe-n-kjpaw_psl.1.0.0.UPF: wavefunction(s)  4S 4P renormalized
     Message from routine setup:
     using ibrav=0 with symmetry is DISCOURAGED, use correct ibrav instead

     K-points division:     npool     =       4
     R & G space division:  proc/nbgrp/npool/nimage =       8
     Subspace diagonalization in iterative solution of the eigenvalue problem:
     a serial algorithm will be used


     Parallelization info
     --------------------
     sticks:   dense  smooth     PW     G-vecs:    dense   smooth      PW
     Min         101     101     30                 6557     6557    1024
     Max         103     103     31                 6561     6561    1031
     Sum         817     817    241                52477    52477    8213

     Using Slab Decomposition



     bravais-lattice index     =            0
     lattice parameter (alat)  =       6.7283  a.u.
     unit-cell volume          =     740.8769 (a.u.)^3
     number of atoms/cell      =            3
     number of atomic types    =            2
     number of electrons       =        26.00
     number of Kohn-Sham states=           46
     kinetic-energy cutoff     =      65.0000  Ry
     charge density cutoff     =     260.0000  Ry
     Exchange-correlation= SLA  PW   PBX  PBC
                           (   1   4   3   4   0   0   0)

     celldm(1)=   6.728345  celldm(2)=   0.000000  celldm(3)=   0.000000
     celldm(4)=   0.000000  celldm(5)=   0.000000  celldm(6)=   0.000000

     crystal axes: (cart. coord. in units of alat)
               a(1) = (   1.000000   0.000000   0.000000 )  
               a(2) = (   0.500000   0.866025   0.000000 )  
               a(3) = (   0.000000   0.000000   2.808604 )  

     reciprocal axes: (cart. coord. in units 2 pi/alat)
               b(1) = (  1.000000 -0.577350  0.000000 )  
               b(2) = (  0.000000  1.154701  0.000000 )  
               b(3) = (  0.000000  0.000000  0.356049 )  


     PseudoPot. # 1 for Zr read from file:
     ../pseudo/Zr.pbe-spn-kjpaw_psl.1.0.0.UPF
     MD5 check sum: 02112c41713a0468aff2bb39ef194e36
     Pseudo is Projector augmented-wave + core cor, Zval = 12.0
     Generated using &quot;atomic&quot; code by A. Dal Corso  v.6.2.2
     Shape of augmentation charge: PSQ
     Using radial grid of 1225 points,  6 beta functions with: 
                l(1) =   0
                l(2) =   0
                l(3) =   1
                l(4) =   1
                l(5) =   2
                l(6) =   2
     Q(r) pseudized with 0 coefficients 


     PseudoPot. # 2 for Br read from file:
     ../pseudo/Br.pbe-n-kjpaw_psl.1.0.0.UPF
     MD5 check sum: b00de77caabc69c0a6b76eb37264f235
     Pseudo is Projector augmented-wave + core cor, Zval =  7.0
     Generated using &quot;atomic&quot; code by A. Dal Corso  v.6.3
     Shape of augmentation charge: PSQ
     Using radial grid of 1213 points,  4 beta functions with: 
                l(1) =   0
                l(2) =   0
                l(3) =   1
                l(4) =   1
     Q(r) pseudized with 0 coefficients 


     atomic species   valence    mass     pseudopotential
        Zr            12.00    91.22400     Zr( 1.00)
        Br             7.00    79.90400     Br( 1.00)

     12 Sym. Ops. (no inversion) found



   Cartesian axes

     site n.     atom                  positions (alat units)
         1           Zr  tau(   1) = (   0.5000000   0.2886751   2.8086045  )
         2           Br  tau(   2) = (   1.0000000   0.5773503   3.3230772  )
         3           Br  tau(   3) = (   1.0000000   0.5773503   2.2941317  )

     number of k points=   361

     Number of k-points >= 100: set verbosity='high' to print them.

     Dense  grid:    52477 G-vectors     FFT dimensions: (  36,  36, 100)

     Estimated max dynamical RAM per process >      10.62 MB

     Estimated total dynamical RAM >     339.83 MB

     Check: negative core charge=   -0.000001

     The potential is recalculated from file :
     ./tmp/ZrBr2.save/charge-density

     Starting wfcs are   21 randomized atomic wfcs +   25 random wfcs
     Checking if some PAW data can be deallocated... 

     Band Structure Calculation
     Davidson diagonalization with overlap

     ethr =  3.85E-09,  avg # of iterations = 29.3

     total cpu time spent up to now is      190.2 secs

     End of band structure calculation

     Number of k-points >= 100: set verbosity='high' to print the bands.

     Writing all to output data dir ./tmp/ZrBr2.save/

     init_run     :      0.44s CPU      0.48s WALL (       1 calls)
     electrons    :    188.26s CPU    189.27s WALL (       1 calls)

     Called by init_run:
     wfcinit      :      0.00s CPU      0.01s WALL (       1 calls)
     potinit      :      0.18s CPU      0.20s WALL (       1 calls)
     hinit0       :      0.21s CPU      0.21s WALL (       1 calls)

     Called by electrons:
     c_bands      :    188.25s CPU    189.27s WALL (       1 calls)
     v_of_rho     :      0.02s CPU      0.02s WALL (       1 calls)
     newd         :      0.01s CPU      0.01s WALL (       1 calls)
     PAW_pot      :      0.07s CPU      0.09s WALL (       1 calls)

     Called by c_bands:
     init_us_2    :      0.03s CPU      0.03s WALL (      91 calls)
     init_us_2:cp :      0.03s CPU      0.03s WALL (      91 calls)
     cegterg      :    180.30s CPU    181.21s WALL (     187 calls)

     Called by *egterg:
     cdiaghg      :     11.44s CPU     11.49s WALL (    3026 calls)
     h_psi        :     67.83s CPU     68.34s WALL (    3213 calls)
     s_psi        :      2.58s CPU      2.61s WALL (    3213 calls)
     g_psi        :      0.19s CPU      0.19s WALL (    2935 calls)

     Called by h_psi:
     h_psi:calbec :      8.29s CPU      8.33s WALL (    3213 calls)
     vloc_psi     :     56.73s CPU     57.19s WALL (    3213 calls)
     add_vuspsi   :      2.60s CPU      2.61s WALL (    3213 calls)

     General routines
     calbec       :      8.28s CPU      8.32s WALL (    3213 calls)
     fft          :      0.04s CPU      0.04s WALL (      12 calls)
     fftw         :     54.51s CPU     54.95s WALL (  138046 calls)
     davcio       :      0.03s CPU      0.08s WALL (     182 calls)

     Parallel routines

     PWSCF        :   3m 9.73s CPU   3m11.71s WALL


   This run was terminated on:   3:26:30  10Sep2026            

=------------------------------------------------------------------------------=
   JOB DONE.
=------------------------------------------------------------------------------=
