
     Program PWSCF v.7.2 starts on 10Sep2026 at  3:22:21 

     This program is part of the open-source Quantum ESPRESSO suite
     for quantum simulation of materials; please cite
         "P. Giannozzi et al., J. Phys.:Condens. Matter 21 395502 (2009);
         "P. Giannozzi et al., J. Phys.:Condens. Matter 29 465901 (2017);
         "P. Giannozzi et al., J. Chem. Phys. 152 154105 (2020);
          URL http://www.quantum-espresso.org", 
     in publications or presentations arising from this work. More details at
     http://www.quantum-espresso.org/quote

     Parallel version (MPI), running on    32 processors

     MPI processes distributed on     1 nodes
     200628 MiB available memory on the printing compute node when the environment starts

     Reading input from scf.in

     Current dimensions of program PWSCF are:
     Max number of different atomic species (ntypx) = 10
     Max number of k-points (npk) =  40000
     Max angular momentum in pseudopotentials (lmaxx) =  4
     file Zr.pbe-spn-kjpaw_psl.1.0.0.UPF: wavefunction(s)  4S 4P renormalized
     file Br.pbe-n-kjpaw_psl.1.0.0.UPF: wavefunction(s)  4S 4P renormalized
     Message from routine setup:
     using ibrav=0 with symmetry is DISCOURAGED, use correct ibrav instead

     R & G space division:  proc/nbgrp/npool/nimage =      32
     Subspace diagonalization in iterative solution of the eigenvalue problem:
     a serial algorithm will be used


     Parallelization info
     --------------------
     sticks:   dense  smooth     PW     G-vecs:    dense   smooth      PW
     Min          25      25      7                 1635     1635     257
     Max          26      26      8                 1648     1648     266
     Sum         817     817    241                52477    52477    8429

     Using Slab Decomposition



     bravais-lattice index     =            0
     lattice parameter (alat)  =       6.7283  a.u.
     unit-cell volume          =     740.8769 (a.u.)^3
     number of atoms/cell      =            3
     number of atomic types    =            2
     number of electrons       =        26.00
     number of Kohn-Sham states=           46
     kinetic-energy cutoff     =      65.0000  Ry
     charge density cutoff     =     260.0000  Ry
     scf convergence threshold =      1.0E-08
     mixing beta               =       0.7000
     number of iterations used =            8  plain     mixing
     Exchange-correlation= SLA  PW   PBX  PBC
                           (   1   4   3   4   0   0   0)

     celldm(1)=   6.728345  celldm(2)=   0.000000  celldm(3)=   0.000000
     celldm(4)=   0.000000  celldm(5)=   0.000000  celldm(6)=   0.000000

     crystal axes: (cart. coord. in units of alat)
               a(1) = (   1.000000   0.000000   0.000000 )  
               a(2) = (   0.500000   0.866025   0.000000 )  
               a(3) = (   0.000000   0.000000   2.808604 )  

     reciprocal axes: (cart. coord. in units 2 pi/alat)
               b(1) = (  1.000000 -0.577350  0.000000 )  
               b(2) = (  0.000000  1.154701  0.000000 )  
               b(3) = (  0.000000  0.000000  0.356049 )  


     PseudoPot. # 1 for Zr read from file:
     ../pseudo/Zr.pbe-spn-kjpaw_psl.1.0.0.UPF
     MD5 check sum: 02112c41713a0468aff2bb39ef194e36
     Pseudo is Projector augmented-wave + core cor, Zval = 12.0
     Generated using &quot;atomic&quot; code by A. Dal Corso  v.6.2.2
     Shape of augmentation charge: PSQ
     Using radial grid of 1225 points,  6 beta functions with: 
                l(1) =   0
                l(2) =   0
                l(3) =   1
                l(4) =   1
                l(5) =   2
                l(6) =   2
     Q(r) pseudized with 0 coefficients 


     PseudoPot. # 2 for Br read from file:
     ../pseudo/Br.pbe-n-kjpaw_psl.1.0.0.UPF
     MD5 check sum: b00de77caabc69c0a6b76eb37264f235
     Pseudo is Projector augmented-wave + core cor, Zval =  7.0
     Generated using &quot;atomic&quot; code by A. Dal Corso  v.6.3
     Shape of augmentation charge: PSQ
     Using radial grid of 1213 points,  4 beta functions with: 
                l(1) =   0
                l(2) =   0
                l(3) =   1
                l(4) =   1
     Q(r) pseudized with 0 coefficients 


     atomic species   valence    mass     pseudopotential
        Zr            12.00    91.22400     Zr( 1.00)
        Br             7.00    79.90400     Br( 1.00)

     12 Sym. Ops. (no inversion) found



   Cartesian axes

     site n.     atom                  positions (alat units)
         1           Zr  tau(   1) = (   0.5000000   0.2886751   2.8086045  )
         2           Br  tau(   2) = (   1.0000000   0.5773503   3.3230772  )
         3           Br  tau(   3) = (   1.0000000   0.5773503   2.2941317  )

     number of k points=    61
                       cart. coord. in units 2pi/alat
        k(    1) = (   0.0000000   0.0000000   0.0000000), wk =   0.0034722
        k(    2) = (   0.0000000   0.0481125   0.0000000), wk =   0.0208333
        k(    3) = (   0.0000000   0.0962250   0.0000000), wk =   0.0208333
        k(    4) = (   0.0000000   0.1443376   0.0000000), wk =   0.0208333
        k(    5) = (   0.0000000   0.1924501   0.0000000), wk =   0.0208333
        k(    6) = (   0.0000000   0.2405626   0.0000000), wk =   0.0208333
        k(    7) = (   0.0000000   0.2886751   0.0000000), wk =   0.0208333
        k(    8) = (   0.0000000   0.3367877   0.0000000), wk =   0.0208333
        k(    9) = (   0.0000000   0.3849002   0.0000000), wk =   0.0208333
        k(   10) = (   0.0000000   0.4330127   0.0000000), wk =   0.0208333
        k(   11) = (   0.0000000   0.4811252   0.0000000), wk =   0.0208333
        k(   12) = (   0.0000000   0.5292377   0.0000000), wk =   0.0208333
        k(   13) = (   0.0000000  -0.5773503   0.0000000), wk =   0.0104167
        k(   14) = (   0.0416667   0.0721688   0.0000000), wk =   0.0208333
        k(   15) = (   0.0416667   0.1202813   0.0000000), wk =   0.0416667
        k(   16) = (   0.0416667   0.1683938   0.0000000), wk =   0.0416667
        k(   17) = (   0.0416667   0.2165064   0.0000000), wk =   0.0416667
        k(   18) = (   0.0416667   0.2646189   0.0000000), wk =   0.0416667
        k(   19) = (   0.0416667   0.3127314   0.0000000), wk =   0.0416667
        k(   20) = (   0.0416667   0.3608439   0.0000000), wk =   0.0416667
        k(   21) = (   0.0416667   0.4089564   0.0000000), wk =   0.0416667
        k(   22) = (   0.0416667   0.4570690   0.0000000), wk =   0.0416667
        k(   23) = (   0.0416667   0.5051815   0.0000000), wk =   0.0416667
        k(   24) = (   0.0416667  -0.6014065   0.0000000), wk =   0.0416667
        k(   25) = (   0.0833333   0.1443376   0.0000000), wk =   0.0208333
        k(   26) = (   0.0833333   0.1924501   0.0000000), wk =   0.0416667
        k(   27) = (   0.0833333   0.2405626   0.0000000), wk =   0.0416667
        k(   28) = (   0.0833333   0.2886751   0.0000000), wk =   0.0416667
        k(   29) = (   0.0833333   0.3367877   0.0000000), wk =   0.0416667
        k(   30) = (   0.0833333   0.3849002   0.0000000), wk =   0.0416667
        k(   31) = (   0.0833333   0.4330127   0.0000000), wk =   0.0416667
        k(   32) = (   0.0833333   0.4811252   0.0000000), wk =   0.0416667
        k(   33) = (   0.0833333  -0.6254628   0.0000000), wk =   0.0416667
        k(   34) = (   0.0833333  -0.5773503   0.0000000), wk =   0.0208333
        k(   35) = (   0.1250000   0.2165064   0.0000000), wk =   0.0208333
        k(   36) = (   0.1250000   0.2646189   0.0000000), wk =   0.0416667
        k(   37) = (   0.1250000   0.3127314   0.0000000), wk =   0.0416667
        k(   38) = (   0.1250000   0.3608439   0.0000000), wk =   0.0416667
        k(   39) = (   0.1250000   0.4089564   0.0000000), wk =   0.0416667
        k(   40) = (   0.1250000   0.4570690   0.0000000), wk =   0.0416667
        k(   41) = (   0.1250000  -0.6495191   0.0000000), wk =   0.0416667
        k(   42) = (   0.1250000  -0.6014065   0.0000000), wk =   0.0416667
        k(   43) = (   0.1666667   0.2886751   0.0000000), wk =   0.0208333
        k(   44) = (   0.1666667   0.3367877   0.0000000), wk =   0.0416667
        k(   45) = (   0.1666667   0.3849002   0.0000000), wk =   0.0416667
        k(   46) = (   0.1666667   0.4330127   0.0000000), wk =   0.0416667
        k(   47) = (   0.1666667  -0.6735753   0.0000000), wk =   0.0416667
        k(   48) = (   0.1666667  -0.6254628   0.0000000), wk =   0.0416667
        k(   49) = (   0.1666667  -0.5773503   0.0000000), wk =   0.0208333
        k(   50) = (   0.2083333   0.3608439   0.0000000), wk =   0.0208333
        k(   51) = (   0.2083333   0.4089564   0.0000000), wk =   0.0416667
        k(   52) = (   0.2083333  -0.6976316   0.0000000), wk =   0.0416667
        k(   53) = (   0.2083333  -0.6495191   0.0000000), wk =   0.0416667
        k(   54) = (   0.2083333  -0.6014065   0.0000000), wk =   0.0416667
        k(   55) = (   0.2500000  -0.7216878   0.0000000), wk =   0.0208333
        k(   56) = (   0.2500000  -0.6735753   0.0000000), wk =   0.0416667
        k(   57) = (   0.2500000  -0.6254628   0.0000000), wk =   0.0416667
        k(   58) = (   0.2500000  -0.5773503   0.0000000), wk =   0.0208333
        k(   59) = (   0.2916667  -0.6495191   0.0000000), wk =   0.0208333
        k(   60) = (   0.2916667  -0.6014065   0.0000000), wk =   0.0416667
        k(   61) = (   0.3333333  -0.5773503   0.0000000), wk =   0.0069444

     Dense  grid:    52477 G-vectors     FFT dimensions: (  36,  36, 100)

     Estimated max dynamical RAM per process >      17.37 MB

     Estimated total dynamical RAM >     555.79 MB

     Check: negative core charge=   -0.000001

     Initial potential from superposition of free atoms

     starting charge      25.9978, renormalised to      26.0000
     Starting wfcs are   21 randomized atomic wfcs +   25 random wfcs
     Checking if some PAW data can be deallocated... 

     total cpu time spent up to now is        1.9 secs

     Self-consistent Calculation

     iteration #  1     ecut=    65.00 Ry     beta= 0.70
     Davidson diagonalization with overlap
     ethr =  1.00E-02,  avg # of iterations =  7.3

     Threshold (ethr) on eigenvalues was too large:
     Diagonalizing with lowered threshold

     Davidson diagonalization with overlap
     ethr =  5.10E-04,  avg # of iterations =  1.3

     negative rho (up, down):  7.168E-08 0.000E+00

     total cpu time spent up to now is       17.3 secs

     total energy              =    -716.17520699 Ry
     estimated scf accuracy    <       0.13268823 Ry

     iteration #  2     ecut=    65.00 Ry     beta= 0.70
     Davidson diagonalization with overlap
     ethr =  5.10E-04,  avg # of iterations =  3.7

     total cpu time spent up to now is       23.4 secs

     total energy              =    -716.15249031 Ry
     estimated scf accuracy    <       0.51850799 Ry

     iteration #  3     ecut=    65.00 Ry     beta= 0.70
     Davidson diagonalization with overlap
     ethr =  5.10E-04,  avg # of iterations =  2.2

     total cpu time spent up to now is       28.7 secs

     total energy              =    -716.24591048 Ry
     estimated scf accuracy    <       0.00462373 Ry

     iteration #  4     ecut=    65.00 Ry     beta= 0.70
     Davidson diagonalization with overlap
     ethr =  1.78E-05,  avg # of iterations =  4.3

     total cpu time spent up to now is       34.1 secs

     total energy              =    -716.24674568 Ry
     estimated scf accuracy    <       0.00031775 Ry

     iteration #  5     ecut=    65.00 Ry     beta= 0.70
     Davidson diagonalization with overlap
     ethr =  1.22E-06,  avg # of iterations =  4.4

     total cpu time spent up to now is       39.7 secs

     total energy              =    -716.24680473 Ry
     estimated scf accuracy    <       0.00002198 Ry

     iteration #  6     ecut=    65.00 Ry     beta= 0.70
     Davidson diagonalization with overlap
     ethr =  8.46E-08,  avg # of iterations =  1.0

     total cpu time spent up to now is       43.7 secs

     total energy              =    -716.24680838 Ry
     estimated scf accuracy    <       0.00000065 Ry

     iteration #  7     ecut=    65.00 Ry     beta= 0.70
     Davidson diagonalization with overlap
     ethr =  2.50E-09,  avg # of iterations =  2.0

     total cpu time spent up to now is       48.4 secs

     total energy              =    -716.24680849 Ry
     estimated scf accuracy    <       0.00000001 Ry

     iteration #  8     ecut=    65.00 Ry     beta= 0.70
     Davidson diagonalization with overlap
     ethr =  5.34E-11,  avg # of iterations =  2.0

     total cpu time spent up to now is       53.4 secs

     End of self-consistent calculation

          k = 0.0000 0.0000 0.0000 (  6619 PWs)   bands (ev):

   -44.5706 -22.7826 -22.4373 -22.4373 -12.1576 -11.7046  -1.5604   0.5214
     1.4245   1.4245   1.6940   1.6940   4.5486   6.2990   6.2990   6.9080
     6.9080   7.0124   8.7376   9.6293  11.7384  13.7811  13.7811  13.9673
    14.8426  15.4706  15.4706  16.8206  18.3775  18.3775  18.6561  18.6561
    19.2947  19.2970  21.2654  22.1170  22.1170  22.2183  23.4813  23.9404
    23.9404  24.4724  24.7510  24.7511  25.2801  25.5285

          k = 0.0000 0.0481 0.0000 (  6597 PWs)   bands (ev):

   -44.5701 -22.7812 -22.4430 -22.4385 -12.1454 -11.6995  -1.5399   0.5117
     1.3431   1.4241   1.6428   1.6699   4.5537   6.2602   6.3116   6.8880
     6.9353   7.1038   8.7945   9.7484  11.7621  13.4506  13.8409  14.2584
    14.8714  15.1824  15.4805  17.0560  18.0670  18.4209  18.5277  18.5442
    19.3764  19.7807  21.1842  22.1551  22.2294  22.2535  22.9855  23.7071
    24.0871  24.0894  24.6143  24.6814  25.7991  25.8274

          k = 0.0000 0.0962 0.0000 (  6585 PWs)   bands (ev):

   -44.5688 -22.7769 -22.4595 -22.4421 -12.1095 -11.6847  -1.4797   0.4810
     1.1183   1.4225   1.4983   1.6010   4.5636   6.1701   6.3511   6.8489
     7.0126   7.3442   8.9598  10.0700  11.8312  13.0433  14.0167  14.5115
    14.6561  14.9831  15.5152  16.9974  18.1859  18.1905  18.2501  18.5442
    19.6183  20.5975  20.9859  21.8945  22.3464  22.4550  22.5623  23.2629
    23.3122  24.0848  24.5200  25.0529  25.6961  26.3643

          k = 0.0000 0.1443 0.0000 (  6569 PWs)   bands (ev):

   -44.5667 -22.7701 -22.4856 -22.4477 -12.0518 -11.6608  -1.3844   0.4230
     0.7942   1.2887   1.4184   1.4960   4.5628   6.0807   6.4222   6.8267
     7.1278   7.6655   9.2190  10.5117  11.9379  12.6669  14.1483  14.2969
    14.5640  15.2036  15.5880  16.5225  17.7656  17.8524  18.7290  18.8691
    19.9454  20.6087  21.3404  21.4029  22.2656  22.3115  22.5701  22.8086
    23.3507  24.1146  24.3459  25.1703  25.5464  26.6388

          k = 0.0000 0.1925 0.0000 (  6579 PWs)   bands (ev):

   -44.5640 -22.7612 -22.5195 -22.4550 -11.9756 -11.6292  -1.2614   0.3212
     0.4171   1.0601   1.3670   1.4102   4.5305   6.0451   6.5305   6.8411
     7.2646   8.0041   9.5408  10.9736  12.0510  12.3595  13.7792  14.4658
    14.6581  15.3981  15.7142  16.0654  17.3932  17.4176  18.9509  19.6215
    19.6775  20.4819  21.1867  21.3959  21.8142  22.3943  22.6326  23.1087
    23.7692  24.1520  24.2127  24.7276  25.8452  26.4651

          k = 0.0000 0.2406 0.0000 (  6575 PWs)   bands (ev):

   -44.5608 -22.7508 -22.5585 -22.4635 -11.8852 -11.5916  -1.1223   0.0258
     0.1508   0.8691   1.2263   1.3967   4.4579   6.0982   6.6799   6.8924
     7.4065   8.3222   9.8567  11.3473  12.0836  12.1601  13.7038  14.2941
    15.0455  15.3930  15.7023  15.9052  17.0174  17.2001  18.9039  19.1853
    20.1065  20.6043  21.0455  21.2821  21.3258  22.8530  22.8661  23.5248
    24.0943  24.1265  24.1502  24.6879  25.7947  26.1213

          k = 0.0000 0.2887 0.0000 (  6587 PWs)   bands (ev):

   -44.5573 -22.7397 -22.6000 -22.4726 -11.7862 -11.5502  -0.9862  -0.3450
    -0.0886   0.7449   1.0849   1.3781   4.3597   6.2433   6.8706   6.9695
     7.5395   8.6077  10.0687  11.5316  12.0161  12.0871  13.9884  14.1239
    15.1459  15.3025  15.4639  16.1642  16.8110  17.1173  18.3049  19.4139
    19.8185  20.5282  20.7870  21.3886  21.5966  22.9998  23.2283  23.8028
    24.1110  24.1708  24.1899  25.3425  25.7353  26.2383

          k = 0.0000 0.3368 0.0000 (  6563 PWs)   bands (ev):

   -44.5539 -22.7285 -22.6411 -22.4816 -11.6848 -11.5078  -0.9251  -0.6161
    -0.3581   0.6725   0.9520   1.3555   4.2623   6.4622   7.0574   7.0969
     7.6546   8.8601  10.1271  11.4573  12.0256  12.0788  13.9909  14.4171
    14.8124  15.1966  15.4175  16.4828  16.8602  17.0263  18.1373  19.3807
    19.6296  20.3608  20.3782  21.6551  21.9007  22.9497  23.3309  24.0132
    24.2704  24.3570  24.5956  25.6665  26.1072  26.5648

          k = 0.0000 0.3849 0.0000 (  6553 PWs)   bands (ev):

   -44.5506 -22.7180 -22.6791 -22.4901 -11.5880 -11.4673  -1.1104  -0.6169
    -0.6124   0.6296   0.8348   1.3314   4.1864   6.7301   7.1415   7.3461
     7.7470   9.0791  10.0698  11.2738  12.0403  12.0877  13.7513  14.6085
    14.6528  14.8401  15.7181  16.5874  16.8380  17.5387  18.2409  19.0687
    19.8397  20.0330  20.2494  21.4821  22.1475  23.0553  23.3999  23.7791
    24.4282  25.0161  25.0274  25.7856  26.3671  26.5255

          k = 0.0000 0.4330 0.0000 (  6531 PWs)   bands (ev):

   -44.5479 -22.7114 -22.7090 -22.4973 -11.5029 -11.4316  -1.3469  -0.8385
    -0.5258   0.6038   0.7386   1.3085   4.1398   7.0184   7.2108   7.5968
     7.8159   9.2604   9.9557  11.1087  11.9673  12.1377  13.3517  14.4371
    14.4772  14.6675  16.2580  16.6081  17.1905  18.1056  18.3786  18.9498
    19.8513  20.0614  20.1897  21.0819  22.2412  23.1258  23.5734  23.6783
    24.6075  24.7384  25.5688  25.8463  26.0617  26.2096

          k = 0.0000 0.4811 0.0000 (  6565 PWs)   bands (ev):

   -44.5458 -22.7360 -22.7022 -22.5028 -11.4363 -11.4037  -1.5323  -1.0067
    -0.4540   0.5887   0.6674   1.2897   4.1191   7.2597   7.2901   7.8183
     7.8627   9.3888   9.8410  10.9923  11.8856  12.1714  12.9785  14.0847
    14.2670  14.6163  16.7740  16.8897  17.4893  18.4997  18.5292  19.0466
    19.9055  20.1982  20.3029  20.6276  22.2601  23.0327  23.4282  23.8809
    24.3175  24.7508  24.9960  25.4294  25.7435  25.7661

          k = 0.0000 0.5292 0.0000 (  6549 PWs)   bands (ev):

   -44.5444 -22.7514 -22.6978 -22.5063 -11.3938 -11.3860  -1.6482  -1.1114
    -0.4096   0.5808   0.6236   1.2774   4.1139   7.2877   7.4944   7.8896
     7.9741   9.4309   9.7933  10.9260  11.7939  12.1923  12.7620  13.8439
    14.0647  14.5626  17.1279  17.1772  17.6869  18.6108  18.6996  19.3246
    20.1777  20.1831  20.2356  20.5259  22.3282  22.8570  23.3414  23.3623
    24.2783  24.5550  24.6416  25.0275  25.5351  25.5399

          k = 0.0000-0.5774 0.0000 (  6546 PWs)   bands (ev):

   -44.5440 -22.7567 -22.6963 -22.5075 -11.3798 -11.3792  -1.6875  -1.1469
    -0.3947   0.5784   0.6089   1.2732   4.1136   7.2966   7.5724   7.8984
     8.0307   9.4238   9.7969  10.9048  11.7442  12.1996  12.7039  13.7580
    13.9817  14.5403  17.2527  17.2886  17.7554  18.6661  18.7310  19.6111
    19.8572  20.2553  20.3426  20.6244  22.4285  22.7685  23.0061  23.3635
    23.9641  24.4519  24.6942  25.0217  25.4512  25.4560

          k = 0.0417 0.0722 0.0000 (  6573 PWs)   bands (ev):

   -44.5693 -22.7783 -22.4540 -22.4410 -12.1213 -11.6896  -1.4995   0.4917
     1.1914   1.4220   1.5433   1.6248   4.5614   6.1955   6.3384   6.8590
     6.9877   7.2691   8.9056   9.9682  11.8087  13.1540  13.9477  14.4714
    14.8042  14.9398  15.4911  17.1229  18.0024  18.2493  18.3870  18.5375
    19.5418  20.3714  21.0537  22.0745  22.3094  22.3208  22.6552  23.3233
    23.4838  24.3265  24.5030  24.7396  26.1209  26.1718

          k = 0.0417 0.1203 0.0000 (  6575 PWs)   bands (ev):

   -44.5675 -22.7727 -22.4751 -22.4457 -12.0745 -11.6703  -1.4217   0.4486
     0.9209   1.3615   1.4157   1.5415   4.5669   6.1037   6.3969   6.8310
     7.0839   7.5483   9.1180  10.3481  11.8992  12.8017  14.1368  14.3202
    14.6150  15.1180  15.5079  16.7969  17.7798  18.1339  18.3459  18.8597
    19.8478  20.7966  21.1540  21.5322  22.1076  22.4029  22.8196  22.8395
    23.1545  24.2269  24.3888  25.1313  25.7670  26.5601

          k = 0.0417 0.1684 0.0000 (  6565 PWs)   bands (ev):

   -44.5651 -22.7649 -22.5048 -22.4525 -12.0075 -11.6425  -1.3123   0.3730
     0.5761   1.1338   1.4042   1.4293   4.5526   6.0362   6.4927   6.8316
     7.2093   7.8760   9.4109  10.7980  12.0217  12.4799  13.8839  14.3260
    14.6840  15.3557  15.5276  16.4264  17.2593  17.8430  18.6653  19.4556
    20.0083  20.4265  21.0738  21.6634  21.9169  22.2253  22.7907  22.8195
    23.4660  23.9980  24.4184  25.3433  25.5865  26.1293

          k = 0.0417 0.2165 0.0000 (  6568 PWs)   bands (ev):

   -44.5621 -22.7552 -22.5409 -22.4608 -11.9242 -11.6078  -1.1804   0.1980
     0.2428   0.9137   1.2996   1.3865   4.5028   6.0380   6.6309   6.8696
     7.3472   8.2020   9.7363  11.2126  12.1251  12.2381  13.6334  14.3009
    14.9179  15.4687  15.4987  16.2249  16.8324  17.5847  18.9124  19.3181
    20.1065  20.4429  21.0273  21.2083  21.7662  22.6612  22.7855  23.2142
    23.7990  23.9613  24.4404  25.0564  25.5942  26.0801

          k = 0.0417 0.2646 0.0000 (  6570 PWs)   bands (ev):

   -44.5588 -22.7445 -22.5808 -22.4700 -11.8295 -11.5683  -1.0400  -0.1791
     0.0378   0.7522   1.1633   1.3623   4.4199   6.1290   6.8129   6.9393
     7.4820   8.5028  10.0056  11.4901  12.1096  12.1164  13.7337  14.1555
    15.1801  15.2943  15.3823  16.2759  16.6508  17.4116  18.6163  19.0988
    20.1722  20.2467  21.2090  21.2301  21.6303  22.8330  23.0736  23.5816
    23.8529  24.2235  24.4727  25.1691  25.5090  26.2119

          k = 0.0417 0.3127 0.0000 (  6565 PWs)   bands (ev):

   -44.5554 -22.7333 -22.6216 -22.4794 -11.7292 -11.5263  -0.9224  -0.5129
    -0.2210   0.6549   1.0301   1.3329   4.3257   6.3025   7.0274   7.0344
     7.6021   8.7734  10.1339  11.5484  12.0532  12.1015  14.0274  14.1333
    14.8954  15.2281  15.2836  16.4965  16.7792  17.1876  18.2695  19.1542
    19.8402  19.9892  21.1763  21.6087  21.7255  22.8227  23.3135  23.9292
    23.9329  24.4431  24.5435  25.5384  25.8196  26.4421

          k = 0.0417 0.3608 0.0000 (  6559 PWs)   bands (ev):

   -44.5520 -22.7225 -22.6607 -22.4886 -11.6300 -11.4847  -0.9841  -0.6418
    -0.4883   0.5982   0.9077   1.3008   4.2439   6.5391   7.1192   7.2829
     7.7001   9.0142  10.1199  11.4120  12.0827  12.0942  13.8845  14.5395
    14.5426  15.0102  15.3641  16.7295  16.7975  17.2867  18.3198  19.0282
    19.5546  19.9637  20.9665  21.6437  21.9673  22.9422  23.2527  24.0348
    24.1368  24.8831  24.9179  25.5437  26.3258  26.5635

          k = 0.0417 0.4090 0.0000 (  6554 PWs)   bands (ev):

   -44.5490 -22.7128 -22.6955 -22.4968 -11.5389 -11.4465  -1.2219  -0.7301
    -0.5658   0.5648   0.8021   1.2694   4.1883   6.8160   7.2022   7.5363
     7.7733   9.2236  10.0213  11.2423  12.0366  12.1312  13.5438  14.2987
    14.6797  14.7789  15.7768  16.5415  17.1161  17.7730  18.4977  18.9026
    19.3898  20.1206  20.8001  21.3422  22.0996  23.0952  23.3133  23.9789
    24.2762  24.9246  25.3385  25.6276  26.2984  26.4197

          k = 0.0417 0.4571 0.0000 (  6551 PWs)   bands (ev):

   -44.5466 -22.7237 -22.7049 -22.5035 -11.4628 -11.4146  -1.4339  -0.9259
    -0.4829   0.5463   0.7172   1.2422   4.1604   7.1057   7.2675   7.7620
     7.8225   9.3925   9.8971  11.1099  11.9577  12.1677  13.1310  14.0048
    14.5764  14.6538  16.3181  16.6774  17.3895  18.1127  18.7256  18.9225
    19.4370  20.3708  20.7138  20.9189  22.1155  23.0670  23.4097  23.9558
    24.4039  24.4109  25.3688  25.3909  26.1405  26.2995

          k = 0.0417 0.5052 0.0000 (  6555 PWs)   bands (ev):

   -44.5449 -22.7435 -22.6993 -22.5082 -11.4081 -11.3917  -1.5837  -1.0627
    -0.4242   0.5387   0.6563   1.2223   4.1521   7.3112   7.3681   7.8513
     7.9227   9.4751   9.8302  11.0271  11.8710  12.1918  12.8194  13.7396
    14.3506  14.5937  16.7932  16.9756  17.5561  18.2418  18.9140  19.1218
    19.7245  20.4507  20.6720  20.6958  22.1421  22.8922  23.3020  23.5257
    24.4485  24.4842  24.8859  25.0147  25.7303  25.9861

          k = 0.0417-0.6014 0.0000 (  6551 PWs)   bands (ev):

   -44.5440 -22.7537 -22.6963 -22.5106 -11.3797 -11.3795  -1.6607  -1.1329
    -0.3945   0.5379   0.6229   1.2118   4.1521   7.3328   7.5385   7.8642
     7.9964   9.4575   9.8568  10.9887  11.7904  12.2044  12.6790  13.5897
    14.1975  14.5503  17.0960  17.1793  17.5951  18.2973  19.0068  19.4562
    20.0037  20.0103  20.7049  20.8866  22.2199  22.7428  22.8494  23.5376
    24.1905  24.5014  24.6694  24.8028  25.5691  25.8340

          k = 0.0833 0.1443 0.0000 (  6567 PWs)   bands (ev):

   -44.5655 -22.7661 -22.4994 -22.4520 -12.0184 -11.6470  -1.3296   0.3914
     0.6363   1.1536   1.3962   1.4559   4.5611   6.0297   6.4853   6.8299
     7.1901   7.8318   9.3655  10.7339  12.0140  12.5341  13.9263  14.2207
    14.7395  15.3422  15.4337  16.6414  17.2024  18.0033  18.4474  19.4483
    20.1455  20.4253  21.0508  21.7809  21.7832  22.2780  22.5804  23.0227
    23.3001  23.8736  24.8371  25.1467  25.9554  26.0195

          k = 0.0833 0.1925 0.0000 (  6561 PWs)   bands (ev):

   -44.5628 -22.7576 -22.5308 -22.4603 -11.9443 -11.6162  -1.2104   0.2973
     0.3012   0.9185   1.3497   1.3642   4.5332   5.9912   6.6215   6.8613
     7.3152   8.1433   9.6695  11.1331  12.1694  12.3029  13.5775  14.2059
    14.9142  15.3302  15.5394  16.5653  16.6478  17.8667  18.5978  19.7511
    20.1017  20.1535  20.9493  21.5549  21.7694  22.4825  22.8440  23.0035
    23.6312  23.8019  24.8476  25.3463  25.6860  25.7621

          k = 0.0833 0.2406 0.0000 (  6577 PWs)   bands (ev):

   -44.5597 -22.7475 -22.5669 -22.4701 -11.8565 -11.5795  -1.0747  -0.0517
     0.1403   0.7150   1.2308   1.3210   4.4776   6.0216   6.8067   6.9262
     7.4432   8.4489   9.9613  11.4429  12.1622  12.2861  13.4426  14.1007
    15.1117  15.2297  15.3923  16.4280  16.5887  17.7523  18.7453  19.0359
    19.7912  20.6281  21.2055  21.2128  21.9329  22.4325  23.0184  23.4780
    23.8666  24.0937  24.5268  25.3457  25.5477  26.0206

          k = 0.0833 0.2887 0.0000 (  6562 PWs)   bands (ev):

   -44.5564 -22.7368 -22.6052 -22.4806 -11.7604 -11.5392  -0.9396  -0.3914
    -0.0893   0.5827   1.1071   1.2692   4.4046   6.1323   7.0155   7.0352
     7.5606   8.7352  10.1462  11.6000  12.1426  12.2399  13.6909  13.9836
    14.8891  15.1512  15.1940  16.5845  16.7044  17.5895  18.5697  18.8421
    19.4162  20.5076  21.4491  21.5364  21.9372  22.3970  23.3083  23.7307
    23.9171  24.4876  24.5412  25.4123  25.6594  26.3543

          k = 0.0833 0.3368 0.0000 (  6560 PWs)   bands (ev):

   -44.5531 -22.7260 -22.6431 -22.4911 -11.6620 -11.4979  -0.8791  -0.6367
    -0.3530   0.5079   0.9860   1.2130   4.3342   6.3164   7.1159   7.2927
     7.6575   8.9999  10.1790  11.5848  12.1714  12.1799  13.9090  14.1675
    14.3763  15.0654  15.1154  16.7527  16.8738  17.3786  18.5482  18.8828
    19.1052  20.3344  21.6498  21.7467  21.7875  22.5995  23.2517  24.0356
    24.0499  24.7165  24.8033  25.4622  26.1295  26.5002

          k = 0.0833 0.3849 0.0000 (  6557 PWs)   bands (ev):

   -44.5500 -22.7159 -22.6782 -22.5008 -11.5682 -11.4585  -1.0737  -0.6071
    -0.6031   0.4668   0.8736   1.1575   4.2831   6.5586   7.2148   7.5538
     7.7281   9.2440  10.0991  11.4625  12.1611  12.1717  13.6647  14.1009
    14.5926  14.8783  15.2208  16.5658  17.0468  17.5599  18.7305  18.9070
    18.9569  20.3537  21.5549  21.6059  21.8169  22.9262  23.1920  23.9668
    24.2702  24.9911  25.0779  25.2244  26.3594  26.4825

          k = 0.0833 0.4330 0.0000 (  6552 PWs)   bands (ev):

   -44.5473 -22.7081 -22.7072 -22.5092 -11.4858 -11.4238  -1.2994  -0.8247
    -0.5112   0.4472   0.7750   1.1081   4.2573   6.8403   7.3024   7.7709
     7.7801   9.4654   9.9680  11.3403  12.0825  12.1933  13.2388  13.8996
    14.6971  14.7817  15.6432  16.4716  17.1915  17.7269  18.9207  18.9538
    19.1283  20.5699  21.2956  21.3923  21.8331  23.0347  23.3057  23.9006
    24.1020  24.5757  25.1616  25.3292  26.5890  26.7250

          k = 0.0833 0.4811 0.0000 (  6557 PWs)   bands (ev):

   -44.5453 -22.7309 -22.7006 -22.5156 -11.4213 -11.3966  -1.4738  -0.9898
    -0.4388   0.4431   0.6946   1.0695   4.2522   7.1350   7.3720   7.7892
     7.9273   9.6026   9.8920  11.2591  11.9953  12.2114  12.8560  13.6462
    14.6418  14.6463  16.1672  16.6609  17.2845  17.7454  19.0540  19.1071
    19.5135  20.7690  21.0417  21.2332  21.8663  22.8942  23.1952  23.6162
    23.9036  24.5931  25.1414  25.3406  26.2719  26.6105

          k = 0.0833-0.6255 0.0000 (  6553 PWs)   bands (ev):

   -44.5440 -22.7451 -22.6964 -22.5196 -11.3802 -11.3793  -1.5826  -1.0925
    -0.3945   0.4482   0.6386   1.0451   4.2567   7.3962   7.4180   7.7922
     7.9696   9.5485  10.0019  11.2185  11.9131  12.2220  12.5961  13.4689
    14.4755  14.5818  16.6169  16.9027  17.2813  17.7670  19.2447  19.2544
    19.8974  20.3826  21.0650  21.3387  21.8671  22.7348  22.7497  23.6792
    23.9155  24.6188  24.9694  25.0864  25.9631  26.2851

          k = 0.0833-0.5774 0.0000 (  6550 PWs)   bands (ev):

   -44.5435 -22.7500 -22.6949 -22.5210 -11.3734 -11.3661  -1.6195  -1.1273
    -0.3797   0.4524   0.6174   1.0367   4.2597   7.4343   7.5191   7.7914
     7.9551   9.5033  10.0758  11.2070  11.8690  12.2254  12.5085  13.4097
    14.4035  14.5548  16.8394  16.9914  17.2191  17.7981  19.3165  19.4059
    20.0855  20.1289  20.9549  21.4851  21.7962  22.6585  22.6879  23.7932
    23.9175  24.4547  24.8323  24.9913  25.9104  26.2029

          k = 0.1250 0.2165 0.0000 (  6577 PWs)   bands (ev):

   -44.5601 -22.7486 -22.5617 -22.4706 -11.8657 -11.5833  -1.0866  -0.0025
     0.1831   0.6918   1.2564   1.2996   4.5016   5.9789   6.8086   6.9226
     7.4299   8.4329   9.9454  11.4236  12.1853  12.3939  13.2917  14.0568
    15.1030  15.1743  15.4372  16.3305  16.7470  17.8854  18.5817  19.4181
    19.4476  20.7184  21.2110  21.3794  21.9098  22.1566  23.1209  23.4569
    23.9051  24.0059  24.5457  25.2651  25.8686  25.8815

          k = 0.1250 0.2646 0.0000 (  6563 PWs)   bands (ev):

   -44.5570 -22.7385 -22.5954 -22.4824 -11.7764 -11.5459  -0.9519  -0.3111
     0.0047   0.5137   1.1516   1.2162   4.4599   6.0266   7.0109   7.0453
     7.5397   8.7232  10.1574  11.6087  12.1766  12.5355  13.2481  13.9120
    14.8664  15.0938  15.1976  16.4696  16.8802  17.8712  18.6406  18.8118
    19.1574  20.9811  21.3646  21.4740  21.9243  22.2285  23.2358  23.9449
    24.0596  24.2492  24.3996  25.4205  25.6403  26.2246

          k = 0.1250 0.3127 0.0000 (  6563 PWs)   bands (ev):

   -44.5537 -22.7281 -22.6299 -22.4949 -11.6821 -11.5061  -0.8316  -0.5918
    -0.2328   0.4075   1.0404   1.1222   4.4177   6.1457   7.1146   7.3145
     7.6348   9.0053  10.2354  11.6881  12.2668  12.4225  13.6272  13.8222
    14.2412  15.0605  15.1287  16.6072  16.9263  17.7353  18.5031  18.8035
    19.0481  20.7657  21.4667  21.7267  22.1293  22.3380  23.3321  23.8211
    24.3383  24.4848  24.7129  25.5589  25.6505  26.4786

          k = 0.1250 0.3608 0.0000 (  6551 PWs)   bands (ev):

   -44.5506 -22.7181 -22.6627 -22.5070 -11.5889 -11.4668  -0.9253  -0.6410
    -0.4845   0.3511   0.9287   1.0267   4.3875   6.3333   7.2202   7.5881
     7.7087   9.2788  10.1859  11.6731  12.3144  12.3223  13.6665  13.8678
    14.1513  14.9316  15.0457  16.5162  16.9034  17.5834  18.5175  19.0343
    19.1625  20.6215  21.4935  21.7357  22.2666  22.5498  23.1913  24.1179
    24.2580  24.6959  24.8638  25.2620  26.1025  26.3196

          k = 0.1250 0.4090 0.0000 (  6563 PWs)   bands (ev):

   -44.5479 -22.7090 -22.6920 -22.5179 -11.5035 -11.4307  -1.1482  -0.7140
    -0.5407   0.3249   0.8226   0.9388   4.3771   6.5778   7.3169   7.7577
     7.8240   9.5494  10.0603  11.6088  12.2454  12.2781  13.2349  13.8709
    14.6143  14.7821  15.1035  16.3395  16.8749  17.4165  18.7806  19.1933
    19.4166  20.7312  21.4000  21.6130  22.1844  22.7810  23.1954  23.8011
    24.2352  24.6919  24.9461  25.0412  26.6201  26.6341

          k = 0.1250 0.4571 0.0000 (  6559 PWs)   bands (ev):

   -44.5456 -22.7156 -22.7016 -22.5268 -11.4323 -11.4005  -1.3328  -0.9002
    -0.4549   0.3195   0.7284   0.8662   4.3851   6.8612   7.3981   7.7813
     7.9722   9.7756   9.9514  11.5571  12.1101  12.2711  12.8750  13.7000
    14.7092  14.7506  15.4882  16.3579  16.8760  17.2431  19.1064  19.2240
    19.7274  20.9926  21.2548  21.4080  22.1078  22.8225  23.0017  23.5695
    23.7991  24.7562  25.0874  25.3631  26.9088  26.9842

          k = 0.1250-0.6495 0.0000 (  6552 PWs)   bands (ev):

   -44.5440 -22.7322 -22.6964 -22.5331 -11.3812 -11.3788  -1.4619  -1.0306
    -0.3961   0.3272   0.6537   0.8149   4.4020   7.1537   7.4594   7.7846
     7.9998   9.6835  10.1644  11.5384  12.0107  12.2657  12.5487  13.5118
    14.6365  14.6665  15.9787  16.5698  16.8727  17.1592  19.2366  19.3702
    20.0135  20.7025  21.1242  21.7160  21.7594  22.7976  22.8149  23.4393
    23.8537  24.8109  25.1978  25.4731  26.6227  26.8261

          k = 0.1250-0.6014 0.0000 (  6547 PWs)   bands (ev):

   -44.5431 -22.7408 -22.6937 -22.5364 -11.3675 -11.3545  -1.5282  -1.0976
    -0.3666   0.3372   0.6099   0.7884   4.4150   7.3856   7.4943   7.7796
     7.9357   9.5822  10.3696  11.5386  11.9716  12.2599  12.3097  13.4193
    14.5770  14.5779  16.3514  16.6919  16.8088  17.2186  19.2946  19.5417
    20.2021  20.3525  20.9932  21.3406  21.9981  22.8650  22.8967  23.3915
    24.0464  24.7938  25.1501  25.2138  26.4840  26.5802

          k = 0.1667 0.2887 0.0000 (  6549 PWs)   bands (ev):

   -44.5540 -22.7289 -22.6248 -22.4967 -11.6889 -11.5089  -0.8223  -0.5639
    -0.1783   0.3585   1.0596   1.0835   4.4523   6.0814   7.1133   7.3237
     7.6290   9.0093  10.2598  11.7141  12.3066  12.6598  13.2873  13.7580
    14.1974  15.0548  15.1669  16.5387  16.9404  17.9818  18.2960  18.7842
    19.1468  21.0879  21.3899  21.5240  21.9651  22.5823  23.2246  23.8832
    24.3688  24.5808  24.7183  25.3012  25.5708  26.3882

          k = 0.1667 0.3368 0.0000 (  6553 PWs)   bands (ev):

   -44.5510 -22.7192 -22.6532 -22.5117 -11.5996 -11.4711  -0.8096  -0.6844
    -0.3970   0.2640   0.9382   0.9583   4.4577   6.2005   7.2161   7.6104
     7.7095   9.3006  10.2491  11.7756  12.4623  12.5559  13.5871  13.6765
    13.6995  15.0219  15.0531  16.3920  16.7876  17.7151  18.3267  19.1563
    19.3971  20.8712  21.3435  21.6479  22.2996  22.7279  23.0690  24.2125
    24.4329  24.5377  24.8998  25.2711  25.4564  26.3649

          k = 0.1667 0.3849 0.0000 (  6553 PWs)   bands (ev):

   -44.5482 -22.7102 -22.6791 -22.5261 -11.5146 -11.4349  -1.0148  -0.6168
    -0.5712   0.2151   0.7960   0.8539   4.4790   6.3842   7.3026   7.7818
     7.8603   9.6021  10.1561  11.8004  12.3998  12.4623  13.2099  13.7629
    14.1682  14.8069  15.0418  16.1604  16.5936  17.2965  18.7039  19.4766
    19.7290  20.8199  21.2075  21.7867  22.4034  22.6836  23.0758  24.0861
    24.2618  24.6149  24.8879  24.9330  25.9500  26.6421

          k = 0.1667 0.4330 0.0000 (  6551 PWs)   bands (ev):

   -44.5458 -22.7024 -22.7008 -22.5388 -11.4402 -11.4032  -1.1874  -0.8097
    -0.4742   0.1969   0.6709   0.7540   4.5149   6.6225   7.3643   7.8438
     8.0186   9.9191  10.0238  11.8147  12.1343  12.4157  12.9897  13.8115
    14.6133  14.6785  15.0499  16.0600  16.4708  16.9431  19.0544  19.5061
    20.0808  21.0297  21.0943  21.6282  22.4978  22.6115  22.8239  23.8112
    23.8760  24.8649  25.0060  25.2024  26.4585  27.1227

          k = 0.1667-0.6736 0.0000 (  6553 PWs)   bands (ev):

   -44.5440 -22.7173 -22.6964 -22.5487 -11.3822 -11.3784  -1.3168  -0.9578
    -0.4020   0.1986   0.5739   0.6673   4.5568   6.8958   7.4025   7.8900
     8.0468   9.8444  10.2914  11.8505  11.9149  12.3804  12.7515  13.6809
    14.6773  14.6976  15.3579  16.2113  16.4285  16.6736  19.3120  19.3972
    20.3135  20.8901  20.9279  21.8049  21.8951  22.7859  22.9796  23.5346
    23.9403  25.0159  25.2519  25.5273  26.9086  27.2619

          k = 0.1667-0.6255 0.0000 (  6539 PWs)   bands (ev):

   -44.5428 -22.7275 -22.6927 -22.5549 -11.3625 -11.3453  -1.3970  -1.0506
    -0.3580   0.2091   0.5127   0.6055   4.5910   7.1625   7.4226   7.9174
     7.9595   9.7114  10.6237  11.8068  11.9063  12.3379  12.4721  13.5616
    14.6184  14.6554  15.7536  16.3876  16.4044  16.6246  19.3096  19.4930
    20.2800  20.4562  20.9089  21.3472  22.1016  23.1861  23.2275  23.3338
    24.1873  25.0008  25.4052  25.6556  27.0125  27.0211

          k = 0.1667-0.5774 0.0000 (  6542 PWs)   bands (ev):

   -44.5424 -22.7310 -22.6914 -22.5570 -11.3571 -11.3326  -1.4242  -1.0822
    -0.3433   0.2150   0.4918   0.5823   4.6042   7.3013   7.4289   7.8789
     7.9262   9.6598  10.7799  11.7801  11.9376  12.3135  12.3238  13.5242
    14.5810  14.6373  15.9402  16.3615  16.3739  16.7460  19.2828  19.5865
    20.1664  20.2728  20.8578  21.2280  22.1952  23.2488  23.3345  23.4259
    24.4528  24.8893  25.4088  25.5234  26.8920  27.0731

          k = 0.2083 0.3608 0.0000 (  6551 PWs)   bands (ev):

   -44.5483 -22.7105 -22.6740 -22.5297 -11.5184 -11.4364  -0.9565  -0.5880
    -0.5749   0.1680   0.7393   0.8649   4.5201   6.3116   7.2924   7.7973
     7.8738   9.6183  10.1989  11.8588  12.4639  12.6038  13.2344  13.6457
    13.9089  14.8667  15.0690  16.0422  16.4792  17.2873  18.6850  19.6101
    19.8531  20.8400  21.1608  21.8450  22.2314  22.7784  23.1161  24.2021
    24.2396  24.5199  25.0223  25.1263  25.4073  26.6115

          k = 0.2083 0.4090 0.0000 (  6549 PWs)   bands (ev):

   -44.5459 -22.7028 -22.6912 -22.5470 -11.4444 -11.4045  -1.0860  -0.7474
    -0.4920   0.1156   0.5478   0.7678   4.5985   6.4805   7.3302   7.8992
     8.0458   9.9654  10.1117  11.9349  12.0976  12.6182  13.1992  13.7729
    14.2571  14.6630  15.0595  15.7709  16.2024  16.8810  19.0190  19.7417
    20.3024  20.9680  21.0711  21.7463  22.2401  22.5195  23.2373  23.6911
    24.1833  24.6343  25.0510  25.5029  25.8212  26.9209

          k = 0.2083-0.6976 0.0000 (  6546 PWs)   bands (ev):

   -44.5440 -22.7043 -22.6964 -22.5621 -11.3830 -11.3780  -1.1845  -0.8940
    -0.4134   0.0953   0.3832   0.6770   4.6821   6.6976   7.3392   7.9970
     8.0817   9.9925  10.3572  11.7664  12.0209  12.6157  13.0785  13.8818
    14.5280  14.5894  15.0364  15.7585  16.0572  16.5335  19.2018  19.6089
    20.5621  20.8406  20.9794  21.5999  21.9829  22.7715  23.2607  23.8494
    24.0114  24.8935  25.2404  25.7671  26.3364  27.3213

          k = 0.2083-0.6495 0.0000 (  6543 PWs)   bands (ev):

   -44.5426 -22.7130 -22.6920 -22.5732 -11.3589 -11.3390  -1.2502  -0.9995
    -0.3574   0.0945   0.2618   0.6040   4.7544   6.9394   7.3356   7.9886
     8.0708   9.8740  10.7513  11.5908  12.1319  12.5760  12.8421  13.7778
    14.5664  14.6562  15.2110  15.9778  16.0261  16.2915  19.2545  19.4385
    20.3509  20.4635  20.7643  21.7426  21.8057  23.4319  23.5279  23.8337
    24.0937  25.1631  25.5086  25.9252  26.8382  27.1332

          k = 0.2083-0.6014 0.0000 (  6546 PWs)   bands (ev):

   -44.5419 -22.7173 -22.6896 -22.5792 -11.3490 -11.3160  -1.2829  -1.0545
    -0.3278   0.0996   0.1969   0.5619   4.7969   7.1406   7.3311   7.8506
     8.1095   9.7960  11.0352  11.5541  12.2452  12.5039  12.5876  13.6929
    14.5970  14.6125  15.4229  16.0166  16.0301  16.3676  19.2429  19.3180
    20.0031  20.1568  20.7231  21.7599  21.8962  23.6579  23.7014  24.0636
    24.5008  25.1563  25.6332  26.0058  26.9448  27.0857

          k = 0.2500-0.7217 0.0000 (  6535 PWs)   bands (ev):

   -44.5440 -22.6988 -22.6964 -22.5677 -11.3832 -11.3778  -1.1267  -0.8674
    -0.4212   0.0545   0.3085   0.6806   4.7320   6.6218   7.3148   8.0389
     8.0940  10.0590  10.3712  11.7034  12.0625  12.7692  13.2661  13.9496
    14.4070  14.4494  15.0441  15.5269  15.8972  16.5268  19.1495  19.7144
    20.5914  20.9006  21.0101  21.4615  21.9998  22.7892  23.4662  23.7400
    24.2941  24.6937  25.2419  26.0004  26.1003  27.0823

          k = 0.2500-0.6736 0.0000 (  6534 PWs)   bands (ev):

   -44.5425 -22.7025 -22.6916 -22.5857 -11.3570 -11.3357  -1.1398  -0.9644
    -0.3652   0.0248   0.1040   0.6038   4.8588   6.7978   7.2852   8.0051
     8.1632  10.0086  10.7482  11.4906  12.1911  12.8711  13.1828  13.9613
    14.3942  14.5636  14.9681  15.5709  15.7725  16.2458  19.0814  19.5760
    20.3258  20.4343  20.7722  21.5596  22.0688  23.5995  23.6620  24.0829
    24.2933  24.8922  25.4918  26.3261  26.4402  27.2909

          k = 0.2500-0.6255 0.0000 (  6546 PWs)   bands (ev):

   -44.5415 -22.7035 -22.6885 -22.5984 -11.3438 -11.3056  -1.1366  -1.0274
    -0.3266  -0.0398   0.0147   0.5500   4.9521   6.9791   7.2608   7.8446
     8.2464   9.9579  10.9295  11.6042  12.3124  12.8971  12.9475  13.7647
    14.5577  14.6046  14.9698  15.7356  15.7669  16.1198  18.9076  19.4214
    19.8286  20.0365  20.7738  21.5927  22.2744  23.9334  24.1487  24.4251
    24.5254  25.1900  25.7208  26.2883  26.8791  27.1935

          k = 0.2500-0.5774 0.0000 (  6538 PWs)   bands (ev):

   -44.5412 -22.7035 -22.6875 -22.6031 -11.3392 -11.2953  -1.1328  -1.0493
    -0.3110  -0.0941   0.0130   0.5304   4.9868   7.0734   7.2516   7.7507
     8.2753   9.9353  10.9497  11.7776  12.3700  12.7635  12.8889  13.7021
    14.5827  14.6257  15.0119  15.7520  15.7762  16.1704  18.7913  19.3433
    19.6400  19.9088  20.7837  21.5966  22.3403  24.0126  24.1610  24.7154
    24.9257  25.2927  25.7845  26.2258  27.0347  27.0591

          k = 0.2917-0.6495 0.0000 (  6531 PWs)   bands (ev):

   -44.5414 -22.6969 -22.6882 -22.6068 -11.3420 -11.3021  -1.0645  -1.0160
    -0.3368  -0.1326  -0.0169   0.5461   5.0143   6.9105   7.2358   7.8444
     8.2966  10.0457  10.8216  11.6582  12.3276  13.1029  13.1993  13.6640
    14.5568  14.5851  14.8117  15.5818  15.6606  16.0550  18.7814  19.4936
    19.7589  19.9695  20.8062  21.4744  22.5102  23.9433  24.3787  24.5643
    24.7066  24.9369  25.6979  26.5280  26.7440  27.1312

          k = 0.2917-0.6014 0.0000 (  6536 PWs)   bands (ev):

   -44.5409 -22.6911 -22.6864 -22.6207 -11.3341 -11.2846  -1.0434  -0.9939
    -0.3517  -0.2573  -0.0354   0.5142   5.1084   7.0022   7.2076   7.7029
     8.3698  10.0774  10.7328  12.0511  12.4149  13.0197  13.2293  13.4443
    14.5660  14.6929  14.7599  15.6282  15.6628  15.9895  18.4806  19.4120
    19.4441  19.7362  20.8484  21.4127  22.7330  24.2225  24.5442  24.7825
    25.2537  25.4732  25.8515  26.3661  26.8397  26.9709

          k = 0.3333-0.5774 0.0000 (  6546 PWs)   bands (ev):

   -44.5406 -22.6856 -22.6838 -22.6313 -11.3308 -11.2774  -1.0486  -0.9046
    -0.4564  -0.2760  -0.0524   0.5016   5.1698   7.0079   7.1886   7.6449
     8.4140  10.1533  10.6135  12.3477  12.4516  13.0578  13.1708  13.3856
    14.5539  14.5562  14.8747  15.5784  15.7040  15.8975  18.2820  19.3198
    19.4293  19.6115  20.8799  21.3451  22.8898  24.5478  24.6252  24.6959
    25.5058  25.8164  26.1342  26.3295  26.4936  26.9997

     highest occupied, lowest unoccupied level (ev):     5.1698    5.9789

!    total energy              =    -716.24680849 Ry
     total all-electron energy =    -17623.787216 Ry
     estimated scf accuracy    <          5.3E-10 Ry

     The total energy is the sum of the following terms:
     one-electron contribution =    -185.67669597 Ry
     hartree contribution      =     101.02137102 Ry
     xc contribution           =     -35.44999621 Ry
     ewald contribution        =     -34.79615844 Ry
     one-center paw contrib.   =    -561.34532889 Ry

     convergence has been achieved in   8 iterations

     Writing all to output data dir ./tmp/ZrBr2.save/

     init_run     :      1.56s CPU      1.61s WALL (       1 calls)
     electrons    :     50.77s CPU     51.85s WALL (       1 calls)

     Called by init_run:
     wfcinit      :      1.36s CPU      1.39s WALL (       1 calls)
     potinit      :      0.08s CPU      0.10s WALL (       1 calls)
     hinit0       :      0.08s CPU      0.09s WALL (       1 calls)

     Called by electrons:
     c_bands      :     45.96s CPU     46.47s WALL (       9 calls)
     sum_band     :      4.32s CPU      4.40s WALL (       9 calls)
     v_of_rho     :      0.04s CPU      0.04s WALL (       9 calls)
     newd         :      0.08s CPU      0.09s WALL (       9 calls)
     PAW_pot      :      0.41s CPU      0.51s WALL (       9 calls)
     mix_rho      :      0.00s CPU      0.01s WALL (       9 calls)

     Called by c_bands:
     init_us_2    :      0.10s CPU      0.10s WALL (    1159 calls)
     init_us_2:cp :      0.10s CPU      0.10s WALL (    1159 calls)
     cegterg      :     45.06s CPU     45.49s WALL (     549 calls)

     Called by *egterg:
     cdiaghg      :      7.16s CPU      7.20s WALL (    2211 calls)
     h_psi        :     20.06s CPU     20.39s WALL (    2333 calls)
     s_psi        :      0.62s CPU      0.62s WALL (    2333 calls)
     g_psi        :      0.03s CPU      0.03s WALL (    1723 calls)

     Called by h_psi:
     h_psi:calbec :      2.08s CPU      2.10s WALL (    2333 calls)
     vloc_psi     :     17.30s CPU     17.60s WALL (    2333 calls)
     add_vuspsi   :      0.63s CPU      0.63s WALL (    2333 calls)

     General routines
     calbec       :      2.87s CPU      2.90s WALL (    2882 calls)
     fft          :      0.03s CPU      0.04s WALL (     100 calls)
     ffts         :      0.00s CPU      0.00s WALL (       9 calls)
     fftw         :     19.81s CPU     20.14s WALL (  154122 calls)

     Parallel routines

     PWSCF        :     53.18s CPU     55.04s WALL


   This run was terminated on:   3:23:16  10Sep2026            

=------------------------------------------------------------------------------=
   JOB DONE.
=------------------------------------------------------------------------------=
