
     Program PWSCF v.7.2 starts on 18Sep2026 at  8:51:19 

     This program is part of the open-source Quantum ESPRESSO suite
     for quantum simulation of materials; please cite
         "P. Giannozzi et al., J. Phys.:Condens. Matter 21 395502 (2009);
         "P. Giannozzi et al., J. Phys.:Condens. Matter 29 465901 (2017);
         "P. Giannozzi et al., J. Chem. Phys. 152 154105 (2020);
          URL http://www.quantum-espresso.org", 
     in publications or presentations arising from this work. More details at
     http://www.quantum-espresso.org/quote

     Parallel version (MPI), running on    32 processors

     MPI processes distributed on     1 nodes
     228839 MiB available memory on the printing compute node when the environment starts

     Waiting for input...
     Reading input from standard input

     Current dimensions of program PWSCF are:
     Max number of different atomic species (ntypx) = 10
     Max number of k-points (npk) =  40000
     Max angular momentum in pseudopotentials (lmaxx) =  4
     file Zr.pbe-spn-kjpaw_psl.1.0.0.UPF: wavefunction(s)  4S 4P renormalized
     file F.pbe-n-kjpaw_psl.1.0.0.UPF: wavefunction(s)  2S 2P renormalized
     file Br.pbe-n-kjpaw_psl.1.0.0.UPF: wavefunction(s)  4S 4P renormalized
     Message from routine setup:
     using ibrav=0 with symmetry is DISCOURAGED, use correct ibrav instead

     R & G space division:  proc/nbgrp/npool/nimage =      32
     Subspace diagonalization in iterative solution of the eigenvalue problem:
     a serial algorithm will be used


     Parallelization info
     --------------------
     sticks:   dense  smooth     PW     G-vecs:    dense   smooth      PW
     Min          22      22      6                 1462     1462     228
     Max          23      23      7                 1475     1475     245
     Sum         733     733    211                47021    47021    7527

     Using Slab Decomposition



     bravais-lattice index     =            0
     lattice parameter (alat)  =       6.4148  a.u.
     unit-cell volume          =     663.4922 (a.u.)^3
     number of atoms/cell      =            3
     number of atomic types    =            3
     number of electrons       =        26.00
     number of Kohn-Sham states=           26
     kinetic-energy cutoff     =      65.0000  Ry
     charge density cutoff     =     260.0000  Ry
     scf convergence threshold =      1.0E-08
     mixing beta               =       0.7000
     number of iterations used =            8  plain     mixing
     energy convergence thresh.=      1.0E-05
     force convergence thresh. =      1.0E-04
     Exchange-correlation= SLA  PW   PBX  PBC
                           (   1   4   3   4   0   0   0)
     nstep                     =           50


     celldm(1)=   6.414845  celldm(2)=   0.000000  celldm(3)=   0.000000
     celldm(4)=   0.000000  celldm(5)=   0.000000  celldm(6)=   0.000000

     crystal axes: (cart. coord. in units of alat)
               a(1) = (   1.000000   0.000000   0.000000 )  
               a(2) = (  -0.500000   0.853227   0.000000 )  
               a(3) = (   0.000000   0.000000   2.945864 )  

     reciprocal axes: (cart. coord. in units 2 pi/alat)
               b(1) = (  1.000000  0.586011 -0.000000 )  
               b(2) = (  0.000000  1.172021  0.000000 )  
               b(3) = (  0.000000 -0.000000  0.339459 )  


     PseudoPot. # 1 for Zr read from file:
     /mgpfs/home/rabdillah/repo/qe/pseudo/Zr.pbe-spn-kjpaw_psl.1.0.0.UPF
     MD5 check sum: 02112c41713a0468aff2bb39ef194e36
     Pseudo is Projector augmented-wave + core cor, Zval = 12.0
     Generated using &quot;atomic&quot; code by A. Dal Corso  v.6.2.2
     Shape of augmentation charge: PSQ
     Using radial grid of 1225 points,  6 beta functions with: 
                l(1) =   0
                l(2) =   0
                l(3) =   1
                l(4) =   1
                l(5) =   2
                l(6) =   2
     Q(r) pseudized with 0 coefficients 


     PseudoPot. # 2 for F  read from file:
     /mgpfs/home/rabdillah/repo/qe/pseudo/F.pbe-n-kjpaw_psl.1.0.0.UPF
     MD5 check sum: 66d718ea72839a4268ab2a9540e8cdd4
     Pseudo is Projector augmented-wave + core cor, Zval =  7.0
     Generated using &quot;atomic&quot; code by A. Dal Corso  v.6.3
     Shape of augmentation charge: PSQ
     Using radial grid of 1105 points,  4 beta functions with: 
                l(1) =   0
                l(2) =   0
                l(3) =   1
                l(4) =   1
     Q(r) pseudized with 0 coefficients 


     PseudoPot. # 3 for Br read from file:
     /mgpfs/home/rabdillah/repo/qe/pseudo/Br.pbe-n-kjpaw_psl.1.0.0.UPF
     MD5 check sum: b00de77caabc69c0a6b76eb37264f235
     Pseudo is Projector augmented-wave + core cor, Zval =  7.0
     Generated using &quot;atomic&quot; code by A. Dal Corso  v.6.3
     Shape of augmentation charge: PSQ
     Using radial grid of 1213 points,  4 beta functions with: 
                l(1) =   0
                l(2) =   0
                l(3) =   1
                l(4) =   1
     Q(r) pseudized with 0 coefficients 


     atomic species   valence    mass     pseudopotential
        Zr            12.00    91.22400     Zr( 1.00)
        F              7.00    18.99800     F ( 1.00)
        Br             7.00    79.90400     Br( 1.00)

      2 Sym. Ops. (no inversion) found



   Cartesian axes

     site n.     atom                  positions (alat units)
         1           Zr  tau(   1) = (   0.0000000   0.0000000   2.9764323  )
         2           F   tau(   2) = (  -0.0000000   0.5688180   3.3601807  )
         3           Br  tau(   3) = (  -0.0000000   0.5688180   2.4179579  )

     number of k points=    73
                       cart. coord. in units 2pi/alat
        k(    1) = (   0.0000000   0.0000000   0.0000000), wk =   0.0078125
        k(    2) = (   0.0000000   0.0732513   0.0000000), wk =   0.0156250
        k(    3) = (   0.0000000   0.1465026   0.0000000), wk =   0.0156250
        k(    4) = (   0.0000000   0.2197539   0.0000000), wk =   0.0156250
        k(    5) = (   0.0000000   0.2930053   0.0000000), wk =   0.0156250
        k(    6) = (   0.0000000   0.3662566   0.0000000), wk =   0.0156250
        k(    7) = (   0.0000000   0.4395079   0.0000000), wk =   0.0156250
        k(    8) = (   0.0000000   0.5127592   0.0000000), wk =   0.0156250
        k(    9) = (   0.0000000  -0.5860105   0.0000000), wk =   0.0078125
        k(   10) = (   0.0625000   0.0366257   0.0000000), wk =   0.0312500
        k(   11) = (   0.0625000   0.1098770   0.0000000), wk =   0.0312500
        k(   12) = (   0.0625000   0.1831283   0.0000000), wk =   0.0312500
        k(   13) = (   0.0625000   0.2563796   0.0000000), wk =   0.0312500
        k(   14) = (   0.0625000   0.3296309   0.0000000), wk =   0.0312500
        k(   15) = (   0.0625000   0.4028822   0.0000000), wk =   0.0312500
        k(   16) = (   0.0625000   0.4761336   0.0000000), wk =   0.0312500
        k(   17) = (   0.0625000   0.5493849   0.0000000), wk =   0.0312500
        k(   18) = (   0.1250000   0.0732513   0.0000000), wk =   0.0312500
        k(   19) = (   0.1250000   0.1465026   0.0000000), wk =   0.0312500
        k(   20) = (   0.1250000   0.2197539   0.0000000), wk =   0.0312500
        k(   21) = (   0.1250000   0.2930053   0.0000000), wk =   0.0312500
        k(   22) = (   0.1250000   0.3662566   0.0000000), wk =   0.0312500
        k(   23) = (   0.1250000   0.4395079   0.0000000), wk =   0.0312500
        k(   24) = (   0.1250000   0.5127592   0.0000000), wk =   0.0312500
        k(   25) = (   0.1250000   0.5860105   0.0000000), wk =   0.0156250
        k(   26) = (   0.1250000   0.0000000   0.0000000), wk =   0.0156250
        k(   27) = (   0.1875000   0.1098770   0.0000000), wk =   0.0312500
        k(   28) = (   0.1875000   0.1831283   0.0000000), wk =   0.0312500
        k(   29) = (   0.1875000   0.2563796   0.0000000), wk =   0.0312500
        k(   30) = (   0.1875000   0.3296309   0.0000000), wk =   0.0312500
        k(   31) = (   0.1875000   0.4028822   0.0000000), wk =   0.0312500
        k(   32) = (   0.1875000   0.4761336   0.0000000), wk =   0.0312500
        k(   33) = (   0.1875000   0.5493849   0.0000000), wk =   0.0312500
        k(   34) = (   0.1875000  -0.0366257   0.0000000), wk =   0.0312500
        k(   35) = (   0.2500000   0.1465026   0.0000000), wk =   0.0312500
        k(   36) = (   0.2500000   0.2197539   0.0000000), wk =   0.0312500
        k(   37) = (   0.2500000   0.2930053   0.0000000), wk =   0.0312500
        k(   38) = (   0.2500000   0.3662566   0.0000000), wk =   0.0312500
        k(   39) = (   0.2500000   0.4395079   0.0000000), wk =   0.0312500
        k(   40) = (   0.2500000   0.5127592   0.0000000), wk =   0.0312500
        k(   41) = (   0.2500000   0.5860105   0.0000000), wk =   0.0156250
        k(   42) = (   0.2500000  -0.0732513   0.0000000), wk =   0.0312500
        k(   43) = (   0.2500000   0.0000000   0.0000000), wk =   0.0156250
        k(   44) = (   0.3125000   0.1831283   0.0000000), wk =   0.0312500
        k(   45) = (   0.3125000   0.2563796   0.0000000), wk =   0.0312500
        k(   46) = (   0.3125000   0.3296309   0.0000000), wk =   0.0312500
        k(   47) = (   0.3125000   0.4028822   0.0000000), wk =   0.0312500
        k(   48) = (   0.3125000   0.4761336   0.0000000), wk =   0.0312500
        k(   49) = (   0.3125000   0.5493849   0.0000000), wk =   0.0312500
        k(   50) = (   0.3125000  -0.1098770   0.0000000), wk =   0.0312500
        k(   51) = (   0.3125000  -0.0366257   0.0000000), wk =   0.0312500
        k(   52) = (   0.3750000   0.2197539   0.0000000), wk =   0.0312500
        k(   53) = (   0.3750000   0.2930053   0.0000000), wk =   0.0312500
        k(   54) = (   0.3750000   0.3662566   0.0000000), wk =   0.0312500
        k(   55) = (   0.3750000   0.4395079   0.0000000), wk =   0.0312500
        k(   56) = (   0.3750000   0.5127592   0.0000000), wk =   0.0312500
        k(   57) = (   0.3750000   0.5860105   0.0000000), wk =   0.0156250
        k(   58) = (   0.3750000  -0.1465026   0.0000000), wk =   0.0312500
        k(   59) = (   0.3750000  -0.0732513   0.0000000), wk =   0.0312500
        k(   60) = (   0.3750000   0.0000000   0.0000000), wk =   0.0156250
        k(   61) = (   0.4375000   0.2563796   0.0000000), wk =   0.0312500
        k(   62) = (   0.4375000   0.3296309   0.0000000), wk =   0.0312500
        k(   63) = (   0.4375000   0.4028822   0.0000000), wk =   0.0312500
        k(   64) = (   0.4375000   0.4761336   0.0000000), wk =   0.0312500
        k(   65) = (   0.4375000   0.5493849   0.0000000), wk =   0.0312500
        k(   66) = (   0.4375000  -0.1831283   0.0000000), wk =   0.0312500
        k(   67) = (   0.4375000  -0.1098770   0.0000000), wk =   0.0312500
        k(   68) = (   0.4375000  -0.0366257   0.0000000), wk =   0.0312500
        k(   69) = (  -0.5000000  -0.2930053   0.0000000), wk =   0.0156250
        k(   70) = (  -0.5000000  -0.2197539   0.0000000), wk =   0.0312500
        k(   71) = (  -0.5000000  -0.1465026   0.0000000), wk =   0.0312500
        k(   72) = (  -0.5000000  -0.0732513   0.0000000), wk =   0.0312500
        k(   73) = (  -0.5000000  -0.0000000   0.0000000), wk =   0.0156250

     Dense  grid:    47021 G-vectors     FFT dimensions: (  36,  36, 100)

     Estimated max dynamical RAM per process >      14.63 MB

     Estimated total dynamical RAM >     468.30 MB

     Check: negative core charge=   -0.000002

     Initial potential from superposition of free atoms

     starting charge      25.9978, renormalised to      26.0000

     negative rho (up, down):  2.662E-07 0.000E+00
     Starting wfcs are   21 randomized atomic wfcs +    5 random wfcs
     Checking if some PAW data can be deallocated... 

     total cpu time spent up to now is        0.9 secs

     Self-consistent Calculation

     iteration #  1     ecut=    65.00 Ry     beta= 0.70
     Davidson diagonalization with overlap
     ethr =  1.00E-02,  avg # of iterations =  5.8

     Threshold (ethr) on eigenvalues was too large:
     Diagonalizing with lowered threshold

     Davidson diagonalization with overlap
     ethr =  9.37E-04,  avg # of iterations =  1.0

     negative rho (up, down):  2.732E-05 0.000E+00

     total cpu time spent up to now is        4.3 secs

     total energy              =    -571.11923308 Ry
     estimated scf accuracy    <       0.24501122 Ry

     iteration #  2     ecut=    65.00 Ry     beta= 0.70
     Davidson diagonalization with overlap
     ethr =  9.42E-04,  avg # of iterations =  3.6

     negative rho (up, down):  2.454E-06 0.000E+00

     total cpu time spent up to now is        6.1 secs

     total energy              =    -571.11011861 Ry
     estimated scf accuracy    <       0.57285116 Ry

     iteration #  3     ecut=    65.00 Ry     beta= 0.70
     Davidson diagonalization with overlap
     ethr =  9.42E-04,  avg # of iterations =  2.3

     negative rho (up, down):  6.643E-06 0.000E+00

     total cpu time spent up to now is        7.6 secs

     total energy              =    -571.22888897 Ry
     estimated scf accuracy    <       0.02328234 Ry

     iteration #  4     ecut=    65.00 Ry     beta= 0.70
     Davidson diagonalization with overlap
     ethr =  8.95E-05,  avg # of iterations =  3.2

     negative rho (up, down):  1.758E-05 0.000E+00

     total cpu time spent up to now is        9.1 secs

     total energy              =    -571.23327751 Ry
     estimated scf accuracy    <       0.00327725 Ry

     iteration #  5     ecut=    65.00 Ry     beta= 0.70
     Davidson diagonalization with overlap
     ethr =  1.26E-05,  avg # of iterations =  4.3

     negative rho (up, down):  2.920E-05 0.000E+00

     total cpu time spent up to now is       10.7 secs

     total energy              =    -571.23393065 Ry
     estimated scf accuracy    <       0.00135550 Ry

     iteration #  6     ecut=    65.00 Ry     beta= 0.70
     Davidson diagonalization with overlap
     ethr =  5.21E-06,  avg # of iterations =  2.7

     negative rho (up, down):  3.332E-05 0.000E+00

     total cpu time spent up to now is       12.1 secs

     total energy              =    -571.23419357 Ry
     estimated scf accuracy    <       0.00001550 Ry

     iteration #  7     ecut=    65.00 Ry     beta= 0.70
     Davidson diagonalization with overlap
     ethr =  5.96E-08,  avg # of iterations =  3.0

     negative rho (up, down):  3.444E-05 0.000E+00

     total cpu time spent up to now is       13.6 secs

     total energy              =    -571.23419849 Ry
     estimated scf accuracy    <       0.00000062 Ry

     iteration #  8     ecut=    65.00 Ry     beta= 0.70
     Davidson diagonalization with overlap
     ethr =  2.40E-09,  avg # of iterations =  2.0

     negative rho (up, down):  3.475E-05 0.000E+00

     total cpu time spent up to now is       15.0 secs

     total energy              =    -571.23419862 Ry
     estimated scf accuracy    <       0.00000002 Ry

     iteration #  9     ecut=    65.00 Ry     beta= 0.70
     Davidson diagonalization with overlap
     ethr =  8.44E-11,  avg # of iterations =  2.0

     negative rho (up, down):  3.479E-05 0.000E+00

     total cpu time spent up to now is       16.5 secs

     End of self-consistent calculation

          k = 0.0000 0.0000 0.0000 (  5891 PWs)   bands (ev):

   -45.5481 -23.9933 -23.2796 -23.2587 -20.7525 -13.0568  -3.2116  -2.5533
    -2.5272  -1.2045   1.1715   1.2673   3.6990   5.6018   5.7401   5.7733
     6.5774   6.6619   7.8243   8.6177  11.0204  13.8679  14.3859  14.6528
    15.1408  17.0730

          k = 0.0000 0.0733 0.0000 (  5862 PWs)   bands (ev):

   -45.5460 -23.9850 -23.2882 -23.2844 -20.7446 -13.0289  -3.1778  -2.5635
    -2.5531  -1.1821   1.0459   1.1295   3.7152   5.6466   5.7037   5.8422
     6.6060   6.6288   7.9491   8.8468  11.1527  13.9159  14.2384  14.5206
    15.0404  17.5396

          k = 0.0000 0.1465 0.0000 (  5850 PWs)   bands (ev):

   -45.5398 -23.9618 -23.3695 -23.2981 -20.7245 -12.9478  -3.0872  -2.6559
    -2.5536  -1.1279   0.4889   1.0143   3.7361   5.5912   5.7886   5.9572
     6.6678   6.7632   8.2844   9.3376  11.5360  13.5020  13.9282  14.9113
    14.9210  17.3053

          k = 0.0000 0.2198 0.0000 (  5848 PWs)   bands (ev):

   -45.5306 -23.9283 -23.4842 -23.3185 -20.7002 -12.8217  -2.9776  -2.7610
    -2.5577  -1.0741  -0.2057   0.8529   3.7048   5.5389   6.0196   6.0381
     6.9388   6.9826   8.7480   9.8356  11.9090  13.1158  13.5610  15.2765
    15.5727  16.9669

          k = 0.0000 0.2930 0.0000 (  5884 PWs)   bands (ev):

   -45.5197 -23.8946 -23.6056 -23.3424 -20.6794 -12.6649  -2.9709  -2.7654
    -2.5671  -1.1691  -0.7610   0.6773   3.6058   5.6025   6.1757   6.3856
     7.1227   7.4132   9.2288  10.2380  11.7731  12.8032  14.0054  15.7660
    16.3277  16.3717

          k = 0.0000 0.3663 0.0000 (  5902 PWs)   bands (ev):

   -45.5088 -23.8853 -23.6953 -23.3662 -20.6659 -12.4980  -3.0648  -2.6874
    -2.5813  -1.6904  -0.8102   0.5155   3.4893   5.7528   6.4269   6.7762
     7.3161   7.9194   9.5832  10.5084  11.6626  12.4949  14.6520  15.0953
    16.0186  16.2689

          k = 0.0000 0.4395 0.0000 (  5892 PWs)   bands (ev):

   -45.4995 -23.9263 -23.7171 -23.3862 -20.6595 -12.3473  -3.1561  -2.6435
    -2.5968  -2.1657  -0.7587   0.3876   3.4048   5.9548   6.6364   7.0768
     7.5775   8.5160   9.7286  10.7098  11.7874  12.4333  13.6432  15.0303
    15.4925  15.5200

          k = 0.0000 0.5128 0.0000 (  5882 PWs)   bands (ev):

   -45.4933 -23.9757 -23.7072 -23.3996 -20.6576 -12.2414  -3.2268  -2.6631
    -2.6089  -2.4273  -0.7158   0.3065   3.3636   6.1724   6.6794   7.2117
     7.8712   9.1620   9.8003  10.8825  11.8271  12.3864  13.0101  14.4833
    14.8301  15.0543

          k = 0.0000-0.5860 0.0000 (  5882 PWs)   bands (ev):

   -45.4911 -23.9951 -23.7013 -23.4042 -20.6574 -12.2030  -3.2561  -2.7011
    -2.6134  -2.4838  -0.6999   0.2787   3.3527   6.2999   6.6312   7.2473
     8.0004   9.5312   9.8240  11.0604  11.4808  12.2961  13.1701  14.0146
    14.6606  14.8789

          k = 0.0625 0.0366 0.0000 (  5871 PWs)   bands (ev):

   -45.5461 -23.9854 -23.3048 -23.2664 -20.7447 -13.0300  -3.1787  -2.5838
    -2.5311  -1.1833   0.9728   1.2104   3.7124   5.5640   5.7903   5.8425
     6.5479   6.6987   7.9427   8.8373  11.1481  13.9145  14.0847  14.7262
    15.0232  17.2522

          k = 0.0625 0.1099 0.0000 (  5871 PWs)   bands (ev):

   -45.5420 -23.9697 -23.3494 -23.2865 -20.7308 -12.9755  -3.1162  -2.6344
    -2.5454  -1.1451   0.6366   1.0807   3.7305   5.5620   5.8041   5.9453
     6.5703   6.7710   8.1738   9.1931  11.4127  13.6457  13.9561  14.7594
    15.0011  17.3248

          k = 0.0625 0.1831 0.0000 (  5862 PWs)   bands (ev):

   -45.5343 -23.9411 -23.4416 -23.3093 -20.7087 -12.8719  -3.0111  -2.7301
    -2.5549  -1.0896   0.0520   0.9016   3.7288   5.5005   5.9726   6.0361
     6.7352   6.9626   8.5748   9.6759  11.8834  13.1159  13.6479  14.9543
    15.5102  16.9060

          k = 0.0625 0.2564 0.0000 (  5877 PWs)   bands (ev):

   -45.5242 -23.9067 -23.5561 -23.3356 -20.6865 -12.7301  -2.9335  -2.7979
    -2.5672  -1.0719  -0.5788   0.6983   3.6721   5.5177   6.0751   6.3350
     6.9791   7.2748   9.0513  10.1288  12.0231  12.9475  13.4629  15.4231
    16.1960  16.4801

          k = 0.0625 0.3296 0.0000 (  5875 PWs)   bands (ev):

   -45.5133 -23.8820 -23.6610 -23.3631 -20.6696 -12.5675  -3.0044  -2.7273
    -2.5852  -1.4137  -0.8237   0.4999   3.5777   5.6567   6.2300   6.7114
     7.2011   7.7291   9.4837  10.4905  11.7870  12.6181  14.2547  15.3160
    15.9099  16.3492

          k = 0.0625 0.4029 0.0000 (  5899 PWs)   bands (ev):

   -45.5032 -23.8983 -23.7129 -23.3882 -20.6600 -12.4076  -3.0985  -2.6596
    -2.6079  -1.9293  -0.7871   0.3308   3.4944   5.8702   6.4431   6.9985
     7.4403   8.3209   9.7477  10.7369  11.7721  12.4416  14.1922  14.8452
    15.4391  16.2509

          k = 0.0625 0.4761 0.0000 (  5891 PWs)   bands (ev):

   -45.4954 -23.9486 -23.7112 -23.4073 -20.6561 -12.2780  -3.1757  -2.6750
    -2.6070  -2.2825  -0.7368   0.2087   3.4482   6.1037   6.6066   7.1406
     7.6821   9.0240   9.8637  10.9068  11.8966  12.4744  13.1902  14.5179
    14.9703  15.5551

          k = 0.0625 0.5494 0.0000 (  5883 PWs)   bands (ev):

   -45.4912 -23.9836 -23.7013 -23.4176 -20.6551 -12.2049  -3.2240  -2.7396
    -2.6012  -2.4182  -0.7067   0.1449   3.4326   6.2945   6.6345   7.1899
     7.8510   9.6321   9.9519  11.0651  11.6650  12.3230  13.0819  14.0804
    14.6587  14.9843

          k = 0.1250 0.0733 0.0000 (  5860 PWs)   bands (ev):

   -45.5403 -23.9632 -23.3822 -23.2802 -20.7249 -12.9523  -3.0904  -2.6709
    -2.5328  -1.1322   0.4307   1.0997   3.7237   5.4983   5.9022   5.9501
     6.6372   6.8245   8.2651   9.3183  11.5184  13.4444  13.8859  14.8870
    15.1046  17.3302

          k = 0.1250 0.1465 0.0000 (  5864 PWs)   bands (ev):

   -45.5346 -23.9422 -23.4474 -23.2996 -20.7090 -12.8752  -3.0135  -2.7363
    -2.5444  -1.0927   0.0206   0.9544   3.7171   5.4800   5.9961   6.0435
     6.7333   6.9811   8.5628   9.6669  11.8715  13.0919  13.6266  14.9519
    15.5760  16.9360

          k = 0.1250 0.2198 0.0000 (  5850 PWs)   bands (ev):

   -45.5261 -23.9123 -23.5384 -23.3296 -20.6891 -12.7556  -2.9153  -2.8164
    -2.5645  -1.0598  -0.4856   0.7053   3.6972   5.4504   6.0929   6.3430
     6.8830   7.2534   8.9802  10.0971  12.4158  12.6785  13.2329  15.2210
    16.1915  16.4682

          k = 0.1250 0.2930 0.0000 (  5874 PWs)   bands (ev):

   -45.5160 -23.8838 -23.6332 -23.3653 -20.6714 -12.6073  -2.9412  -2.7750
    -2.5929  -1.2233  -0.8219   0.4229   3.6632   5.5200   6.2003   6.6770
     7.1200   7.6567   9.4231  10.5307  12.2265  12.7173  13.3995  15.1612
    16.0211  16.4419

          k = 0.1250 0.3663 0.0000 (  5895 PWs)   bands (ev):

   -45.5059 -23.8790 -23.6986 -23.4011 -20.6590 -12.4501  -3.0281  -2.6909
    -2.6265  -1.6793  -0.8181   0.1627   3.6307   5.7199   6.3266   6.8888
     7.3980   8.2542   9.7894  10.9145  12.0031  12.4980  14.1813  14.5650
    15.2711  16.2919

          k = 0.1250 0.4395 0.0000 (  5882 PWs)   bands (ev):

   -45.4973 -23.9138 -23.7111 -23.4316 -20.6523 -12.3089  -3.1011  -2.7035
    -2.6151  -2.0599  -0.7684  -0.0433   3.6180   6.0074   6.4427   7.0254
     7.5755   9.0225  10.0169  11.1751  11.9851  12.4794  13.6074  14.2684
    15.0526  16.0942

          k = 0.1250 0.5128 0.0000 (  5880 PWs)   bands (ev):

   -45.4916 -23.9535 -23.7011 -23.4521 -20.6496 -12.2100  -3.1502  -2.7821
    -2.5920  -2.2639  -0.7284  -0.1757   3.6232   6.2764   6.5317   7.1064
     7.6351   9.7971  10.1792  11.2868  11.9574  12.4562  12.9919  14.0338
    14.7129  15.4172

          k = 0.1250 0.5860 0.0000 (  5872 PWs)   bands (ev):

   -45.4896 -23.9690 -23.6956 -23.4593 -20.6490 -12.1743  -3.1681  -2.8248
    -2.5864  -2.3181  -0.7133  -0.2215   3.6284   6.3762   6.5911   7.1151
     7.6488  10.0278  10.4943  11.4096  11.5638  12.2922  13.1245  13.9390
    14.6563  14.9101

          k = 0.1250 0.0000 0.0000 (  5835 PWs)   bands (ev):

   -45.5423 -23.9706 -23.3583 -23.2737 -20.7310 -12.9788  -3.1184  -2.6463
    -2.5291  -1.1483   0.6028   1.1311   3.7245   5.4851   5.8833   5.9513
     6.5755   6.7935   8.1575   9.1773  11.4017  13.5874  13.9360  14.8130
    15.0895  17.3566

          k = 0.1875 0.1099 0.0000 (  5863 PWs)   bands (ev):

   -45.5317 -23.9312 -23.4930 -23.2990 -20.7007 -12.8314  -2.9837  -2.7711
    -2.5360  -1.0829  -0.2507   0.9503   3.6790   5.4974   5.9852   6.1445
     6.9527   7.0027   8.7156   9.8171  11.8898  13.0746  13.5124  15.2374
    15.7330  17.0138

          k = 0.1875 0.1831 0.0000 (  5861 PWs)   bands (ev):

   -45.5252 -23.9094 -23.5624 -23.3198 -20.6867 -12.7387  -2.9398  -2.8027
    -2.5511  -1.0826  -0.6134   0.7852   3.6453   5.5119   6.0690   6.3701
     7.0035   7.2745   9.0268  10.1201  12.0196  12.9143  13.4023  15.3872
    16.2804  16.5119

          k = 0.1875 0.2564 0.0000 (  5865 PWs)   bands (ev):

   -45.5166 -23.8855 -23.6359 -23.3569 -20.6714 -12.6127  -2.9450  -2.7753
    -2.5855  -1.2377  -0.8309   0.4701   3.6476   5.5233   6.1987   6.6851
     7.1370   7.6516   9.4104  10.5310  12.2360  12.7176  13.3326  15.1564
    15.9702  16.4288

          k = 0.1875 0.3296 0.0000 (  5878 PWs)   bands (ev):

   -45.5073 -23.8741 -23.6909 -23.4039 -20.6583 -12.4692  -2.9932  -2.7122
    -2.6300  -1.5697  -0.8390   0.0971   3.6891   5.6092   6.3679   6.7942
     7.4102   8.2347   9.7959  10.9956  12.3346  12.5476  13.6217  14.4179
    15.5628  16.0521

          k = 0.1875 0.4029 0.0000 (  5892 PWs)   bands (ev):

   -45.4988 -23.8902 -23.7081 -23.4514 -20.6491 -12.3294  -3.0451  -2.7222
    -2.6228  -1.8739  -0.8077  -0.2428   3.7551   5.8048   6.5020   6.8492
     7.5861   9.0264  10.1146  11.4329  12.2470  12.5075  13.7198  14.3122
    14.6705  15.6345

          k = 0.1875 0.4761 0.0000 (  5881 PWs)   bands (ev):

   -45.4922 -23.9193 -23.7005 -23.4899 -20.6440 -12.2171  -3.0871  -2.7920
    -2.5874  -2.0765  -0.7830  -0.4887   3.8238   6.0869   6.5133   6.9942
     7.5826   9.8917  10.3244  11.6882  12.1199  12.6531  13.2366  13.9178
    14.7457  15.4401

          k = 0.1875 0.5494 0.0000 (  5861 PWs)   bands (ev):

   -45.4886 -23.9384 -23.6916 -23.5114 -20.6418 -12.1542  -3.1110  -2.8463
    -2.5711  -2.1672  -0.7800  -0.6067   3.8688   6.3303   6.4985   7.1133
     7.4790  10.2372  10.9055  11.7177  11.9198  12.3855  13.1534  14.0051
    14.5404  15.1757

          k = 0.1875-0.0366 0.0000 (  5838 PWs)   bands (ev):

   -45.5352 -23.9436 -23.4484 -23.2933 -20.7090 -12.8803  -3.0161  -2.7397
    -2.5353  -1.0971   0.0256   0.9644   3.7148   5.4374   5.9955   6.0992
     6.7769   6.9588   8.5425   9.6566  11.8639  13.0919  13.6227  14.9711
    15.6156  16.9225

          k = 0.2500 0.1465 0.0000 (  5866 PWs)   bands (ev):

   -45.5215 -23.8992 -23.6108 -23.3207 -20.6795 -12.6813  -2.9785  -2.7714
    -2.5434  -1.1900  -0.7859   0.7879   3.5714   5.5962   6.1400   6.4638
     7.1727   7.3911   9.1871  10.2274  11.7677  12.7671  13.9168  15.6798
    16.2179  16.5118

          k = 0.2500 0.2198 0.0000 (  5878 PWs)   bands (ev):

   -45.5149 -23.8864 -23.6659 -23.3429 -20.6695 -12.5830  -3.0114  -2.7304
    -2.5653  -1.4421  -0.8405   0.6094   3.5418   5.6611   6.2191   6.7435
     7.2420   7.7110   9.4504  10.4919  11.7808  12.5867  14.1390  15.2190
    15.8945  16.3599

          k = 0.2500 0.2930 0.0000 (  5868 PWs)   bands (ev):

   -45.5072 -23.8823 -23.7021 -23.3863 -20.6586 -12.4624  -3.0330  -2.6870
    -2.6180  -1.7015  -0.8285   0.2421   3.6050   5.7251   6.3217   6.9057
     7.4171   8.2439   9.7676  10.9287  12.0023  12.4915  14.0964  14.4820
    15.2090  16.2842

          k = 0.2500 0.3663 0.0000 (  5873 PWs)   bands (ev):

   -45.4994 -23.8916 -23.7099 -23.4440 -20.6488 -12.3363  -3.0470  -2.7149
    -2.6247  -1.8839  -0.8116  -0.2056   3.7437   5.8046   6.5002   6.8574
     7.5908   9.0218  10.1030  11.4480  12.2444  12.5347  13.7071  14.1993
    14.6150  15.7052

          k = 0.2500 0.4395 0.0000 (  5876 PWs)   bands (ev):

   -45.4929 -23.9040 -23.7009 -23.5035 -20.6413 -12.2247  -3.0660  -2.7857
    -2.5865  -1.9773  -0.8476  -0.5824   3.9112   5.9478   6.5748   6.9042
     7.5993   9.9107  10.3718  11.7659  12.3084  12.8265  13.4620  13.9967
    14.4245  14.9922

          k = 0.2500 0.5128 0.0000 (  5865 PWs)   bands (ev):

   -45.4885 -23.9105 -23.6902 -23.5492 -20.6368 -12.1475  -3.0965  -2.8158
    -2.5591  -2.0054  -1.0463  -0.6908   4.0478   6.1544   6.4970   7.0735
     7.4726  10.3418  10.9318  11.6864  12.5718  12.9830  13.1955  13.7750
    14.4356  14.9909

          k = 0.2500 0.5860 0.0000 (  5860 PWs)   bands (ev):

   -45.4869 -23.9119 -23.6859 -23.5667 -20.6353 -12.1198  -3.1131  -2.8190
    -2.5492  -2.0064  -1.1554  -0.6992   4.1006   6.2868   6.4465   7.1305
     7.3941  10.3178  11.5869  11.8954  11.9467  12.8833  13.3872  13.8501
    14.4761  15.0673

          k = 0.2500-0.0733 0.0000 (  5866 PWs)   bands (ev):

   -45.5258 -23.9108 -23.5590 -23.3178 -20.6864 -12.7450  -2.9401  -2.8033
    -2.5461  -1.0838  -0.5942   0.7715   3.6519   5.4918   6.0700   6.4008
     7.0324   7.2503   9.0077  10.1140  12.0279  12.9260  13.4311  15.4106
    16.2138  16.4964

          k = 0.2500 0.0000 0.0000 (  5832 PWs)   bands (ev):

   -45.5274 -23.9152 -23.5366 -23.3205 -20.6889 -12.7671  -2.9194  -2.8182
    -2.5515  -1.0674  -0.4699   0.7183   3.6952   5.4169   6.1030   6.3895
     6.9292   7.2275   8.9443  10.0849  12.4139  12.7066  13.2363  15.2213
    16.1506  16.4817

          k = 0.3125 0.1831 0.0000 (  5881 PWs)   bands (ev):

   -45.5112 -23.8900 -23.6989 -23.3422 -20.6652 -12.5218  -3.0711  -2.6911
    -2.5550  -1.7092  -0.8301   0.6378   3.4524   5.7605   6.3983   6.8252
     7.3642   7.8880   9.5409  10.5111  11.6433  12.4545  14.4873  15.0083
    16.1275  16.2053

          k = 0.3125 0.2564 0.0000 (  5875 PWs)   bands (ev):

   -45.5055 -23.9023 -23.7176 -23.3648 -20.6592 -12.4306  -3.1055  -2.6579
    -2.5870  -1.9504  -0.8060   0.4539   3.4560   5.8784   6.4255   7.0324
     7.4717   8.2964   9.7158  10.7525  11.7450  12.4013  14.0456  14.7786
    15.4281  16.2125

          k = 0.3125 0.3296 0.0000 (  5867 PWs)   bands (ev):

   -45.4993 -23.9165 -23.7157 -23.4125 -20.6512 -12.3287  -3.1065  -2.6849
    -2.6175  -2.0744  -0.7836   0.0531   3.5893   6.0112   6.4316   7.0497
     7.5855   9.0068   9.9923  11.2158  11.9657  12.4556  13.4995  14.2475
    14.9396  16.0540

          k = 0.3125 0.4029 0.0000 (  5877 PWs)   bands (ev):

   -45.4935 -23.9203 -23.7040 -23.4775 -20.6429 -12.2315  -3.0885  -2.7835
    -2.5882  -2.0832  -0.7868  -0.4353   3.8088   6.0792   6.5118   7.0072
     7.5865   9.8722  10.3055  11.7346  12.1449  12.6472  13.1298  13.9220
    14.6352  15.5149

          k = 0.3125 0.4761 0.0000 (  5866 PWs)   bands (ev):

   -45.4891 -23.9101 -23.6920 -23.5441 -20.6361 -12.1549  -3.0950  -2.8135
    -2.5590  -2.0072  -1.0247  -0.6926   4.0445   6.1449   6.4970   7.0793
     7.4751  10.3163  10.9297  11.7028  12.5492  13.0199  13.1499  13.8373
    14.3993  14.9649

          k = 0.3125 0.5494 0.0000 (  5865 PWs)   bands (ev):

   -45.4868 -23.8960 -23.6854 -23.5891 -20.6323 -12.1127  -3.1219  -2.7895
    -2.5375  -1.8620  -1.4004  -0.7105   4.2039   6.2333   6.4321   7.0794
     7.4324  10.2964  11.6073  11.8461  12.6034  12.8625  13.4987  13.7785
    14.5505  15.1762

          k = 0.3125-0.1099 0.0000 (  5868 PWs)   bands (ev):

   -45.5156 -23.8865 -23.6617 -23.3433 -20.6688 -12.5897  -3.0085  -2.7318
    -2.5621  -1.4204  -0.8396   0.5855   3.5552   5.6579   6.2218   6.7486
     7.2446   7.6996   9.4350  10.4873  11.7950  12.5947  14.1971  15.2288
    15.8841  16.3293

          k = 0.3125-0.0366 0.0000 (  5854 PWs)   bands (ev):

   -45.5180 -23.8872 -23.6292 -23.3542 -20.6704 -12.6258  -2.9409  -2.7787
    -2.5771  -1.2123  -0.8224   0.4463   3.6618   5.5064   6.2131   6.7031
     7.1488   7.6313   9.3774  10.5211  12.2688  12.7353  13.3911  15.1299
    15.9349  16.4036

          k = 0.3750 0.2198 0.0000 (  5885 PWs)   bands (ev):

   -45.5025 -23.9279 -23.7229 -23.3603 -20.6580 -12.3781  -3.1630  -2.6422
    -2.5678  -2.1752  -0.7824   0.5189   3.3675   5.9646   6.6214   7.1121
     7.6049   8.4741   9.6952  10.7135  11.7439  12.3744  13.5124  14.9376
    15.3880  15.6712

          k = 0.3750 0.2930 0.0000 (  5877 PWs)   bands (ev):

   -45.4983 -23.9499 -23.7178 -23.3819 -20.6544 -12.3079  -3.1839  -2.6562
    -2.5974  -2.2907  -0.7598   0.3376   3.4107   6.1135   6.5879   7.1807
     7.6868   8.9938   9.8401  10.9206  11.8423  12.4056  13.0873  14.5011
    14.8750  15.5979

          k = 0.3750 0.3663 0.0000 (  5876 PWs)   bands (ev):

   -45.4941 -23.9537 -23.7072 -23.4310 -20.6478 -12.2366  -3.1559  -2.7651
    -2.5904  -2.2636  -0.7480  -0.0753   3.5966   6.2853   6.5102   7.1380
     7.6306   9.7563  10.1701  11.3382  11.8940  12.3883  12.9424  14.0167
    14.6147  15.4062

          k = 0.3750 0.4395 0.0000 (  5862 PWs)   bands (ev):

   -45.4905 -23.9369 -23.6965 -23.4973 -20.6400 -12.1752  -3.1105  -2.8365
    -2.5701  -2.1624  -0.7748  -0.5641   3.8571   6.3235   6.4861   7.1377
     7.4742  10.1780  10.9021  11.7186  11.9182  12.3942  13.1077  13.9752
    14.4982  15.1302

          k = 0.3750 0.5128 0.0000 (  5876 PWs)   bands (ev):

   -45.4882 -23.9085 -23.6890 -23.5605 -20.6338 -12.1338  -3.1093  -2.8129
    -2.5480  -1.9954  -1.1313  -0.7094   4.1025   6.2790   6.4334   7.1419
     7.3951  10.2688  11.5965  11.8337  11.8971  13.0074  13.4101  13.8474
    14.4442  15.0412

          k = 0.3750 0.5860 0.0000 (  5856 PWs)   bands (ev):

   -45.4873 -23.8926 -23.6865 -23.5886 -20.6314 -12.1192  -3.1199  -2.7851
    -2.5364  -1.8381  -1.4115  -0.7166   4.2101   6.2360   6.4186   7.0807
     7.4337  10.2721  11.6200  11.7337  12.6768  12.8580  13.6253  13.7123
    14.5290  15.1610

          k = 0.3750-0.1465 0.0000 (  5880 PWs)   bands (ev):

   -45.5061 -23.8996 -23.7162 -23.3662 -20.6583 -12.4366  -3.1017  -2.6600
    -2.5839  -1.9276  -0.8082   0.4297   3.4709   5.8823   6.4368   7.0217
     7.4664   8.2785   9.7024  10.7495  11.7524  12.4016  14.0620  14.8232
    15.3922  16.2524

          k = 0.3750-0.0733 0.0000 (  5874 PWs)   bands (ev):

   -45.5084 -23.8795 -23.6972 -23.3875 -20.6571 -12.4752  -3.0265  -2.6909
    -2.6102  -1.6568  -0.8324   0.2030   3.6283   5.7222   6.3309   6.9141
     7.4007   8.2176   9.7380  10.9179  12.0309  12.5020  14.1659  14.4958
    15.2331  16.2475

          k = 0.3750 0.0000 0.0000 (  5852 PWs)   bands (ev):

   -45.5093 -23.8731 -23.6853 -23.4000 -20.6564 -12.4887  -2.9869  -2.7144
    -2.6193  -1.5227  -0.8461   0.0771   3.7065   5.6006   6.3802   6.8128
     7.3982   8.2034   9.7513  10.9834  12.3543  12.6206  13.6481  14.3902
    15.5586  15.9894

          k = 0.4375 0.2564 0.0000 (  5876 PWs)   bands (ev):

   -45.4967 -23.9749 -23.7151 -23.3723 -20.6554 -12.2772  -3.2354  -2.6531
    -2.5778  -2.4331  -0.7425   0.4433   3.3256   6.1776   6.6820   7.2509
     7.8642   9.1099   9.7762  10.8721  11.7432  12.2929  12.9449  14.4058
    14.7117  15.2469

          k = 0.4375 0.3296 0.0000 (  5885 PWs)   bands (ev):

   -45.4945 -23.9825 -23.7092 -23.3916 -20.6528 -12.2397  -3.2328  -2.7197
    -2.5894  -2.4148  -0.7326   0.2728   3.3978   6.2990   6.6336   7.2287
     7.8327   9.5753   9.9538  11.0607  11.5523  12.2508  13.0402  14.0183
    14.5636  15.1021

          k = 0.4375 0.4029 0.0000 (  5875 PWs)   bands (ev):

   -45.4925 -23.9665 -23.7026 -23.4384 -20.6465 -12.2055  -3.1725  -2.8064
    -2.5825  -2.3066  -0.7350  -0.1281   3.6073   6.3787   6.5856   7.1455
     7.6319   9.9511  10.4990  11.4147  11.4994  12.2530  13.0875  13.8796
    14.6024  14.9293

          k = 0.4375 0.4761 0.0000 (  5871 PWs)   bands (ev):

   -45.4909 -23.9334 -23.6970 -23.4986 -20.6393 -12.1796  -3.1087  -2.8316
    -2.5693  -2.1487  -0.7739  -0.5808   3.8652   6.3343   6.4777   7.1500
     7.4556  10.1625  10.8147  11.7464  11.9600  12.3977  13.1003  13.9829
    14.5206  15.1529

          k = 0.4375 0.5494 0.0000 (  5874 PWs)   bands (ev):

   -45.4901 -23.9028 -23.6933 -23.5456 -20.6346 -12.1658  -3.0921  -2.8033
    -2.5573  -1.9700  -1.0416  -0.7089   4.0598   6.1544   6.4732   7.1063
     7.4483  10.2851  10.8124  11.7232  12.5417  13.0609  13.2325  13.8002
    14.4209  15.0020

          k = 0.4375-0.1831 0.0000 (  5888 PWs)   bands (ev):

   -45.4987 -23.9467 -23.7180 -23.3833 -20.6537 -12.3122  -3.1804  -2.6581
    -2.5951  -2.2753  -0.7616   0.3200   3.4219   6.1124   6.6120   7.1651
     7.6850   8.9618   9.8256  10.9208  11.8484  12.3981  13.0989  14.5302
    14.8743  15.6028

          k = 0.4375-0.1099 0.0000 (  5870 PWs)   bands (ev):

   -45.5002 -23.9099 -23.7152 -23.4151 -20.6497 -12.3391  -3.1000  -2.6844
    -2.6133  -2.0377  -0.7873   0.0163   3.6114   6.0175   6.4388   7.0571
     7.5610   8.9627   9.9595  11.2091  11.9798  12.4472  13.5322  14.2682
    14.9921  16.0942

          k = 0.4375-0.0366 0.0000 (  5867 PWs)   bands (ev):

   -45.5011 -23.8839 -23.7083 -23.4451 -20.6466 -12.3537  -3.0393  -2.7090
    -2.6214  -1.8278  -0.8181  -0.2472   3.7696   5.8036   6.4919   6.8897
     7.5576   8.9721  10.0535  11.4305  12.2419  12.5896  13.7092  14.2853
    14.6615  15.6712

          k =-0.5000-0.2930 0.0000 (  5886 PWs)   bands (ev):

   -45.4946 -23.9935 -23.7098 -23.3766 -20.6549 -12.2407  -3.2656  -2.6868
    -2.5818  -2.4890  -0.7277   0.4174   3.3144   6.2973   6.6472   7.2889
     7.9778   9.4628   9.8235  11.0425  11.3586  12.2179  13.1147  13.9448
    14.5428  15.0802

          k =-0.5000-0.2198 0.0000 (  5873 PWs)   bands (ev):

   -45.4946 -23.9812 -23.7093 -23.3921 -20.6525 -12.2412  -3.2312  -2.7197
    -2.5888  -2.4101  -0.7332   0.2665   3.4020   6.2934   6.6512   7.2203
     7.8343   9.5507   9.9473  11.0573  11.5735  12.2455  13.0290  14.0363
    14.5875  15.0844

          k =-0.5000-0.1465 0.0000 (  5870 PWs)   bands (ev):

   -45.4946 -23.9491 -23.7078 -23.4329 -20.6468 -12.2424  -3.1515  -2.7618
    -2.5889  -2.2457  -0.7496  -0.0972   3.6097   6.2803   6.5346   7.1354
     7.6154   9.7121  10.1291  11.3364  11.9329  12.3795  12.9397  14.0451
    14.6504  15.4099

          k =-0.5000-0.0733 0.0000 (  5863 PWs)   bands (ev):

   -45.4946 -23.9118 -23.7047 -23.4802 -20.6412 -12.2436  -3.0830  -2.7744
    -2.5863  -2.0429  -0.7887  -0.4747   3.8303   6.0897   6.4948   7.0402
     7.5491   9.8196  10.2366  11.7234  12.1435  12.6740  13.1802  13.9310
    14.7045  15.5210

          k =-0.5000-0.0000 0.0000 (  5884 PWs)   bands (ev):

   -45.4946 -23.8942 -23.7024 -23.5029 -20.6389 -12.2441  -3.0603  -2.7719
    -2.5849  -1.9245  -0.8521  -0.6156   3.9326   5.9482   6.5425   6.9587
     7.5603   9.8494  10.2853  11.7726  12.2637  12.9372  13.4865  14.0174
    14.4387  15.0250

     highest occupied, lowest unoccupied level (ev):     4.2101    5.4169

!    total energy              =    -571.23419863 Ry
     total all-electron energy =    -12610.611610 Ry
     estimated scf accuracy    <          1.5E-09 Ry

     The total energy is the sum of the following terms:
     one-electron contribution =    -276.30860039 Ry
     hartree contribution      =     146.56206533 Ry
     xc contribution           =     -36.33116337 Ry
     ewald contribution        =      -8.30248036 Ry
     one-center paw contrib.   =    -396.85401984 Ry

     convergence has been achieved in   9 iterations

     negative rho (up, down):  3.479E-05 0.000E+00

     Forces acting on atoms (cartesian axes, Ry/au):

     atom    1 type  1   force =     0.00000000   -0.00074246   -0.00085501
     atom    2 type  2   force =     0.00000000   -0.00010420   -0.00185149
     atom    3 type  3   force =     0.00000000    0.00084666    0.00270650
     The non-local contrib.  to forces
     atom    1 type  1   force =     0.00000000   -0.00340886   -0.02472179
     atom    2 type  2   force =     0.00000000   -0.02234696   -0.98439058
     atom    3 type  3   force =     0.00000000   -0.00084823    0.21205396
     The ionic contribution  to forces
     atom    1 type  1   force =    -0.00000001   -0.17077351   -0.51048006
     atom    2 type  2   force =     0.00000001    0.12248414   24.20595256
     atom    3 type  3   force =     0.00000000    0.04828936  -23.69547251
     The local contribution  to forces
     atom    1 type  1   force =    -0.00000000    0.17331555    0.53013573
     atom    2 type  2   force =     0.00000027   -0.10031040  -23.22667372
     atom    3 type  3   force =    -0.00000000   -0.04644494   23.48908280
     The core correction contribution to forces
     atom    1 type  1   force =    -0.00000000    0.00012399    0.00412701
     atom    2 type  2   force =     0.00000000    0.00006736    0.00320797
     atom    3 type  3   force =    -0.00000000   -0.00015103   -0.00294400
     The Hubbard contrib.    to forces
     atom    1 type  1   force =     0.00000000    0.00000000    0.00000000
     atom    2 type  2   force =     0.00000000    0.00000000    0.00000000
     atom    3 type  3   force =     0.00000000    0.00000000    0.00000000
     The SCF correction term to forces
     atom    1 type  1   force =    -0.00000000   -0.00000012    0.00007811
     atom    2 type  2   force =     0.00000000    0.00000116    0.00004629
     atom    3 type  3   force =     0.00000000    0.00000100   -0.00001974

     Total force =     0.003573     Total SCF correction =     0.000093

     BFGS Geometry Optimization
     Energy error            =      0.0E+00 Ry
     Gradient error          =      2.7E-03 Ry/Bohr

     number of scf cycles    =   1
     number of bfgs steps    =   0

     energy             new  =    -571.2341986293 Ry

     new trust radius        =       0.0028358387 bohr
     new conv_thr            =       0.0000000100 Ry


ATOMIC_POSITIONS (angstrom)
Zr            0.0000000000       -0.0003928910       10.1033147673
F            -0.0000000020        1.9308487400       11.4054560769
Br           -0.0000000020        1.9313519142        8.2094078688



     Writing config-only to output data dir ./tmp/ZrFBr.save/
     NEW-OLD atomic charge density approx. for the potential

     Check: negative core charge=   -0.000002

     negative rho (up, down):  3.514E-05 0.000E+00

     total cpu time spent up to now is       16.9 secs

     Self-consistent Calculation

     iteration #  1     ecut=    65.00 Ry     beta= 0.70
     Davidson diagonalization with overlap
     ethr =  1.00E-06,  avg # of iterations =  2.0

     Threshold (ethr) on eigenvalues was too large:
     Diagonalizing with lowered threshold

     Davidson diagonalization with overlap
     ethr =  4.01E-09,  avg # of iterations =  3.8

     negative rho (up, down):  3.507E-05 0.000E+00

     total cpu time spent up to now is       20.1 secs

     total energy              =    -571.23420949 Ry
     estimated scf accuracy    <       0.00000114 Ry

     iteration #  2     ecut=    65.00 Ry     beta= 0.70
     Davidson diagonalization with overlap
     ethr =  4.38E-09,  avg # of iterations =  2.0

     negative rho (up, down):  3.496E-05 0.000E+00

     total cpu time spent up to now is       21.5 secs

     total energy              =    -571.23420933 Ry
     estimated scf accuracy    <       0.00000394 Ry

     iteration #  3     ecut=    65.00 Ry     beta= 0.70
     Davidson diagonalization with overlap
     ethr =  4.38E-09,  avg # of iterations =  2.0

     negative rho (up, down):  3.490E-05 0.000E+00

     total cpu time spent up to now is       22.8 secs

     total energy              =    -571.23421005 Ry
     estimated scf accuracy    <       0.00000005 Ry

     iteration #  4     ecut=    65.00 Ry     beta= 0.70
     Davidson diagonalization with overlap
     ethr =  2.05E-10,  avg # of iterations =  2.0

     negative rho (up, down):  3.488E-05 0.000E+00

     total cpu time spent up to now is       24.2 secs

     total energy              =    -571.23421006 Ry
     estimated scf accuracy    <       0.00000001 Ry

     iteration #  5     ecut=    65.00 Ry     beta= 0.70
     Davidson diagonalization with overlap
     ethr =  5.69E-11,  avg # of iterations =  2.0

     negative rho (up, down):  3.487E-05 0.000E+00

     total cpu time spent up to now is       25.5 secs

     End of self-consistent calculation

          k = 0.0000 0.0000 0.0000 (  5891 PWs)   bands (ev):

   -45.5444 -23.9906 -23.2764 -23.2554 -20.7524 -13.0593  -3.2131  -2.5544
    -2.5279  -1.2039   1.1650   1.2620   3.7042   5.6053   5.7422   5.7771
     6.5802   6.6622   7.8233   8.6174  11.0195  13.8643  14.3869  14.6535
    15.1538  17.0738

          k = 0.0000 0.0733 0.0000 (  5862 PWs)   bands (ev):

   -45.5422 -23.9823 -23.2849 -23.2812 -20.7445 -13.0314  -3.1794  -2.5641
    -2.5542  -1.1816   1.0408   1.1231   3.7203   5.6500   5.7083   5.8435
     6.6064   6.6318   7.9483   8.8464  11.1518  13.9132  14.2394  14.5214
    15.0516  17.5416

          k = 0.0000 0.1465 0.0000 (  5850 PWs)   bands (ev):

   -45.5361 -23.9590 -23.3664 -23.2949 -20.7243 -12.9504  -3.0887  -2.6564
    -2.5547  -1.1276   0.4843   1.0080   3.7406   5.5959   5.7919   5.9582
     6.6688   6.7665   8.2843   9.3371  11.5353  13.5037  13.9286  14.9169
    14.9214  17.3080

          k = 0.0000 0.2198 0.0000 (  5848 PWs)   bands (ev):

   -45.5268 -23.9255 -23.4812 -23.3153 -20.7000 -12.8244  -2.9791  -2.7615
    -2.5587  -1.0743  -0.2095   0.8468   3.7085   5.5437   6.0206   6.0414
     6.9425   6.9842   8.7489   9.8352  11.9096  13.1181  13.5621  15.2775
    15.5724  16.9698

          k = 0.0000 0.2930 0.0000 (  5884 PWs)   bands (ev):

   -45.5159 -23.8918 -23.6027 -23.3392 -20.6792 -12.6677  -2.9719  -2.7661
    -2.5682  -1.1719  -0.7618   0.6714   3.6089   5.6069   6.1770   6.3888
     7.1267   7.4154   9.2310  10.2378  11.7740  12.8081  14.0029  15.7670
    16.3286  16.3701

          k = 0.0000 0.3663 0.0000 (  5902 PWs)   bands (ev):

   -45.5050 -23.8826 -23.6923 -23.3630 -20.6656 -12.5009  -3.0656  -2.6882
    -2.5823  -1.6940  -0.8101   0.5099   3.4920   5.7569   6.4287   6.7798
     7.3201   7.9225   9.5867  10.5079  11.6631  12.4992  14.6509  15.0956
    16.0207  16.2713

          k = 0.0000 0.4395 0.0000 (  5892 PWs)   bands (ev):

   -45.4957 -23.9239 -23.7139 -23.3831 -20.6592 -12.3505  -3.1570  -2.6443
    -2.5978  -2.1689  -0.7589   0.3822   3.4075   5.9587   6.6387   7.0813
     7.5807   8.5199   9.7313  10.7099  11.7891  12.4361  13.6438  15.0302
    15.4945  15.5232

          k = 0.0000 0.5128 0.0000 (  5882 PWs)   bands (ev):

   -45.4895 -23.9734 -23.7040 -23.3964 -20.6574 -12.2446  -3.2277  -2.6641
    -2.6099  -2.4297  -0.7161   0.3012   3.3663   6.1764   6.6821   7.2168
     7.8740   9.1664   9.8011  10.8842  11.8295  12.3879  13.0107  14.4854
    14.8316  15.0560

          k = 0.0000-0.5860 0.0000 (  5882 PWs)   bands (ev):

   -45.4873 -23.9928 -23.6980 -23.4011 -20.6571 -12.2063  -3.2571  -2.7025
    -2.6144  -2.4858  -0.7003   0.2735   3.3555   6.3041   6.6341   7.2526
     8.0031   9.5353   9.8248  11.0641  11.4805  12.2990  13.1694  14.0182
    14.6614  14.8806

          k = 0.0625 0.0366 0.0000 (  5871 PWs)   bands (ev):

   -45.5424 -23.9827 -23.3017 -23.2631 -20.7446 -13.0326  -3.1802  -2.5849
    -2.5318  -1.1828   0.9668   1.2050   3.7173   5.5676   5.7952   5.8437
     6.5502   6.6995   7.9420   8.8371  11.1471  13.9118  14.0859  14.7269
    15.0339  17.2533

          k = 0.0625 0.1099 0.0000 (  5871 PWs)   bands (ev):

   -45.5382 -23.9669 -23.3463 -23.2832 -20.7306 -12.9781  -3.1177  -2.6351
    -2.5463  -1.1447   0.6315   1.0747   3.7350   5.5662   5.8078   5.9469
     6.5715   6.7735   8.1735   9.1927  11.4119  13.6475  13.9551  14.7626
    15.0055  17.3275

          k = 0.0625 0.1831 0.0000 (  5862 PWs)   bands (ev):

   -45.5305 -23.9383 -23.4386 -23.3061 -20.7085 -12.8745  -3.0126  -2.7307
    -2.5559  -1.0896   0.0477   0.8956   3.7327   5.5052   5.9754   6.0379
     6.7370   6.9654   8.5753   9.6754  11.8832  13.1176  13.6506  14.9549
    15.5109  16.9084

          k = 0.0625 0.2564 0.0000 (  5877 PWs)   bands (ev):

   -45.5204 -23.9039 -23.5532 -23.3324 -20.6862 -12.7328  -2.9348  -2.7985
    -2.5682  -1.0731  -0.5815   0.6925   3.6753   5.5225   6.0767   6.3379
     6.9823   7.2774   9.0530  10.1284  12.0240  12.9517  13.4620  15.4227
    16.1955  16.4825

          k = 0.0625 0.3296 0.0000 (  5875 PWs)   bands (ev):

   -45.5095 -23.8792 -23.6581 -23.3599 -20.6693 -12.5704  -3.0053  -2.7282
    -2.5862  -1.4175  -0.8236   0.4944   3.5804   5.6612   6.2317   6.7146
     7.2048   7.7318   9.4868  10.4901  11.7875  12.6227  14.2526  15.3178
    15.9113  16.3490

          k = 0.0625 0.4029 0.0000 (  5899 PWs)   bands (ev):

   -45.4994 -23.8958 -23.7098 -23.3850 -20.6597 -12.4107  -3.0993  -2.6605
    -2.6089  -1.9327  -0.7872   0.3255   3.4969   5.8744   6.4452   7.0026
     7.4439   8.3241   9.7513  10.7364  11.7731  12.4451  14.1929  14.8455
    15.4401  16.2546

          k = 0.0625 0.4761 0.0000 (  5891 PWs)   bands (ev):

   -45.4916 -23.9462 -23.7080 -23.4042 -20.6558 -12.2812  -3.1765  -2.6763
    -2.6078  -2.2852  -0.7371   0.2036   3.4508   6.1077   6.6091   7.1454
     7.6857   9.0275   9.8658  10.9075  11.8990  12.4762  13.1909  14.5198
    14.9705  15.5584

          k = 0.0625 0.5494 0.0000 (  5883 PWs)   bands (ev):

   -45.4874 -23.9812 -23.6980 -23.4145 -20.6548 -12.2081  -3.2249  -2.7412
    -2.6019  -2.4202  -0.7072   0.1399   3.4353   6.2988   6.6371   7.1951
     7.8545   9.6354   9.9532  11.0674  11.6662  12.3255  13.0818  14.0829
    14.6595  14.9866

          k = 0.1250 0.0733 0.0000 (  5860 PWs)   bands (ev):

   -45.5366 -23.9604 -23.3791 -23.2770 -20.7247 -12.9549  -3.0918  -2.6718
    -2.5335  -1.1320   0.4254   1.0943   3.7277   5.5026   5.9058   5.9523
     6.6389   6.8261   8.2650   9.3182  11.5177  13.4462  13.8863  14.8914
    15.1049  17.3336

          k = 0.1250 0.1465 0.0000 (  5864 PWs)   bands (ev):

   -45.5309 -23.9394 -23.4444 -23.2964 -20.7087 -12.8779  -3.0149  -2.7371
    -2.5452  -1.0928   0.0162   0.9488   3.7206   5.4847   5.9981   6.0467
     6.7348   6.9837   8.5634   9.6667  11.8711  13.0936  13.6291  14.9526
    15.5765  16.9391

          k = 0.1250 0.2198 0.0000 (  5850 PWs)   bands (ev):

   -45.5224 -23.9095 -23.5356 -23.3264 -20.6889 -12.7584  -2.9166  -2.8170
    -2.5654  -1.0608  -0.4888   0.6998   3.7002   5.4553   6.0949   6.3458
     6.8854   7.2562   8.9818  10.0967  12.4164  12.6799  13.2356  15.2203
    16.1920  16.4701

          k = 0.1250 0.2930 0.0000 (  5874 PWs)   bands (ev):

   -45.5123 -23.8811 -23.6303 -23.3621 -20.6710 -12.6102  -2.9419  -2.7761
    -2.5937  -1.2270  -0.8222   0.4177   3.6656   5.5249   6.2023   6.6801
     7.1232   7.6594   9.4260  10.5300  12.2273  12.7213  13.3986  15.1628
    16.0205  16.4437

          k = 0.1250 0.3663 0.0000 (  5895 PWs)   bands (ev):

   -45.5022 -23.8764 -23.6956 -23.3980 -20.6586 -12.4532  -3.0288  -2.6920
    -2.6274  -1.6828  -0.8183   0.1579   3.6329   5.7247   6.3288   6.8927
     7.4016   8.2568   9.7934  10.9137  12.0034  12.5014  14.1808  14.5669
    15.2725  16.2923

          k = 0.1250 0.4395 0.0000 (  5882 PWs)   bands (ev):

   -45.4936 -23.9114 -23.7079 -23.4285 -20.6519 -12.3121  -3.1017  -2.7049
    -2.6159  -2.0627  -0.7690  -0.0478   3.6203   6.0118   6.4452   7.0296
     7.5798   9.0248  10.0205  11.1745  11.9865  12.4816  13.6086  14.2699
    15.0526  16.0981

          k = 0.1250 0.5128 0.0000 (  5880 PWs)   bands (ev):

   -45.4878 -23.9511 -23.6979 -23.4490 -20.6493 -12.2132  -3.1508  -2.7840
    -2.5927  -2.2660  -0.7292  -0.1800   3.6256   6.2807   6.5341   7.1110
     7.6398   9.7991  10.1819  11.2872  11.9601  12.4575  12.9923  14.0357
    14.7133  15.4203

          k = 0.1250 0.5860 0.0000 (  5872 PWs)   bands (ev):

   -45.4858 -23.9667 -23.6923 -23.4562 -20.6487 -12.1775  -3.1688  -2.8268
    -2.5871  -2.3200  -0.7142  -0.2258   3.6309   6.3808   6.5931   7.1202
     7.6535  10.0291  10.4976  11.4117  11.5637  12.2949  13.1243  13.9407
    14.6579  14.9123

          k = 0.1250 0.0000 0.0000 (  5835 PWs)   bands (ev):

   -45.5386 -23.9679 -23.3552 -23.2704 -20.7309 -12.9814  -3.1199  -2.6473
    -2.5297  -1.1480   0.5971   1.1259   3.7287   5.4891   5.8873   5.9534
     6.5775   6.7943   8.1573   9.1773  11.4008  13.5894  13.9351  14.8177
    15.0915  17.3587

          k = 0.1875 0.1099 0.0000 (  5863 PWs)   bands (ev):

   -45.5279 -23.9284 -23.4901 -23.2958 -20.7004 -12.8341  -2.9850  -2.7718
    -2.5366  -1.0833  -0.2548   0.9449   3.6820   5.5023   5.9867   6.1483
     6.9549   7.0047   8.7167   9.8173  11.8901  13.0764  13.5134  15.2379
    15.7326  17.0175

          k = 0.1875 0.1831 0.0000 (  5861 PWs)   bands (ev):

   -45.5214 -23.9066 -23.5596 -23.3166 -20.6864 -12.7415  -2.9409  -2.8035
    -2.5517  -1.0842  -0.6159   0.7799   3.6479   5.5170   6.0710   6.3734
     7.0060   7.2770   9.0287  10.1201  12.0206  12.9173  13.4017  15.3870
    16.2803  16.5140

          k = 0.1875 0.2564 0.0000 (  5865 PWs)   bands (ev):

   -45.5128 -23.8827 -23.6331 -23.3537 -20.6711 -12.6156  -2.9458  -2.7764
    -2.5862  -1.2416  -0.8310   0.4651   3.6497   5.5285   6.2010   6.6882
     7.1401   7.6542   9.4135  10.5306  12.2373  12.7203  13.3319  15.1583
    15.9699  16.4300

          k = 0.1875 0.3296 0.0000 (  5878 PWs)   bands (ev):

   -45.5036 -23.8715 -23.6880 -23.4008 -20.6579 -12.4722  -2.9938  -2.7133
    -2.6309  -1.5734  -0.8393   0.0926   3.6909   5.6143   6.3706   6.7977
     7.4138   8.2370   9.8001  10.9946  12.3362  12.5486  13.6217  14.4206
    15.5644  16.0517

          k = 0.1875 0.4029 0.0000 (  5892 PWs)   bands (ev):

   -45.4950 -23.8877 -23.7049 -23.4483 -20.6488 -12.3325  -3.0457  -2.7233
    -2.6238  -1.8769  -0.8085  -0.2467   3.7569   5.8095   6.5052   6.8529
     7.5906   9.0282  10.1191  11.4316  12.2482  12.5086  13.7223  14.3126
    14.6717  15.6347

          k = 0.1875 0.4761 0.0000 (  5881 PWs)   bands (ev):

   -45.4884 -23.9169 -23.6972 -23.4868 -20.6436 -12.2203  -3.0875  -2.7937
    -2.5882  -2.0789  -0.7847  -0.4918   3.8258   6.0909   6.5170   6.9979
     7.5882   9.8928  10.3284  11.6873  12.1219  12.6543  13.2379  13.9195
    14.7461  15.4402

          k = 0.1875 0.5494 0.0000 (  5861 PWs)   bands (ev):

   -45.4848 -23.9361 -23.6883 -23.5084 -20.6415 -12.1575  -3.1114  -2.8482
    -2.5719  -2.1693  -0.7828  -0.6087   3.8710   6.3342   6.5016   7.1174
     7.4852  10.2389  10.9082  11.7176  11.9213  12.3870  13.1540  14.0065
    14.5418  15.1770

          k = 0.1875-0.0366 0.0000 (  5838 PWs)   bands (ev):

   -45.5315 -23.9408 -23.4456 -23.2900 -20.7088 -12.8830  -3.0175  -2.7406
    -2.5359  -1.0972   0.0209   0.9593   3.7179   5.4422   5.9975   6.1031
     6.7785   6.9607   8.5432   9.6567  11.8633  13.0938  13.6247  14.9714
    15.6161  16.9248

          k = 0.2500 0.1465 0.0000 (  5866 PWs)   bands (ev):

   -45.5177 -23.8964 -23.6081 -23.3175 -20.6791 -12.6841  -2.9795  -2.7722
    -2.5440  -1.1935  -0.7866   0.7827   3.5734   5.6013   6.1418   6.4674
     7.1757   7.3936   9.1897  10.2280  11.7684  12.7704  13.9146  15.6808
    16.2182  16.5102

          k = 0.2500 0.2198 0.0000 (  5878 PWs)   bands (ev):

   -45.5112 -23.8836 -23.6631 -23.3397 -20.6692 -12.5859  -3.0123  -2.7314
    -2.5660  -1.4462  -0.8404   0.6044   3.5436   5.6662   6.2213   6.7469
     7.2451   7.7138   9.4539  10.4922  11.7813  12.5896  14.1373  15.2208
    15.8954  16.3600

          k = 0.2500 0.2930 0.0000 (  5868 PWs)   bands (ev):

   -45.5034 -23.8797 -23.6991 -23.3831 -20.6583 -12.4655  -3.0337  -2.6880
    -2.6188  -1.7050  -0.8287   0.2375   3.6065   5.7302   6.3245   6.9092
     7.4207   8.2463   9.7719  10.9282  12.0029  12.4935  14.0954  14.4845
    15.2101  16.2847

          k = 0.2500 0.3663 0.0000 (  5873 PWs)   bands (ev):

   -45.4957 -23.8892 -23.7067 -23.4409 -20.6484 -12.3395  -3.0476  -2.7160
    -2.6257  -1.8869  -0.8124  -0.2094   3.7452   5.8095   6.5041   6.8605
     7.5954   9.0235  10.1078  11.4468  12.2459  12.5348  13.7094  14.2002
    14.6158  15.7057

          k = 0.2500 0.4395 0.0000 (  5876 PWs)   bands (ev):

   -45.4891 -23.9017 -23.6976 -23.5004 -20.6409 -12.2279  -3.0665  -2.7870
    -2.5874  -1.9799  -0.8499  -0.5845   3.9127   5.9521   6.5797   6.9069
     7.6051   9.9115  10.3764  11.7645  12.3098  12.8273  13.4643  13.9976
    14.4255  14.9918

          k = 0.2500 0.5128 0.0000 (  5865 PWs)   bands (ev):

   -45.4847 -23.9082 -23.6869 -23.5462 -20.6364 -12.1508  -3.0972  -2.8171
    -2.5599  -2.0079  -1.0498  -0.6917   4.0497   6.1578   6.5016   7.0765
     7.4798  10.3440  10.9335  11.6867  12.5727  12.9837  13.1965  13.7761
    14.4380  14.9898

          k = 0.2500 0.5860 0.0000 (  5860 PWs)   bands (ev):

   -45.4831 -23.9096 -23.6826 -23.5636 -20.6349 -12.1232  -3.1139  -2.8202
    -2.5500  -2.0089  -1.1589  -0.7000   4.1026   6.2895   6.4511   7.1335
     7.4021  10.3200  11.5886  11.8962  11.9467  12.8842  13.3877  13.8516
    14.4774  15.0683

          k = 0.2500-0.0733 0.0000 (  5866 PWs)   bands (ev):

   -45.5221 -23.9080 -23.5563 -23.3145 -20.6861 -12.7478  -2.9413  -2.8041
    -2.5466  -1.0855  -0.5969   0.7665   3.6540   5.4970   6.0723   6.4040
     7.0343   7.2532   9.0097  10.1144  12.0286  12.9289  13.4301  15.4097
    16.2144  16.4974

          k = 0.2500 0.0000 0.0000 (  5832 PWs)   bands (ev):

   -45.5236 -23.9124 -23.5339 -23.3173 -20.6886 -12.7699  -2.9206  -2.8190
    -2.5520  -1.0686  -0.4734   0.7136   3.6973   5.4221   6.1059   6.3924
     6.9306   7.2304   8.9462  10.0851  12.4138  12.7082  13.2381  15.2199
    16.1522  16.4826

          k = 0.3125 0.1831 0.0000 (  5881 PWs)   bands (ev):

   -45.5074 -23.8874 -23.6961 -23.3390 -20.6648 -12.5248  -3.0720  -2.6919
    -2.5555  -1.7130  -0.8301   0.6328   3.4540   5.7654   6.4006   6.8288
     7.3674   7.8914   9.5447  10.5117  11.6435  12.4571  14.4879  15.0066
    16.1300  16.2069

          k = 0.3125 0.2564 0.0000 (  5875 PWs)   bands (ev):

   -45.5017 -23.8999 -23.7146 -23.3616 -20.6588 -12.4337  -3.1063  -2.6587
    -2.5877  -1.9537  -0.8063   0.4491   3.4575   5.8835   6.4280   7.0365
     7.4750   8.2996   9.7198  10.7528  11.7456  12.4033  14.0468  14.7776
    15.4295  16.2153

          k = 0.3125 0.3296 0.0000 (  5867 PWs)   bands (ev):

   -45.4955 -23.9142 -23.7125 -23.4094 -20.6509 -12.3319  -3.1072  -2.6860
    -2.6183  -2.0770  -0.7843   0.0488   3.5907   6.0163   6.4348   7.0534
     7.5900   9.0091   9.9964  11.2154  11.9670  12.4566  13.5005  14.2490
    14.9396  16.0571

          k = 0.3125 0.4029 0.0000 (  5877 PWs)   bands (ev):

   -45.4898 -23.9180 -23.7007 -23.4744 -20.6426 -12.2347  -3.0891  -2.7850
    -2.5890  -2.0854  -0.7883  -0.4386   3.8102   6.0835   6.5165   7.0103
     7.5923   9.8733  10.3097  11.7333  12.1469  12.6477  13.1309  13.9244
    14.6353  15.5150

          k = 0.3125 0.4761 0.0000 (  5866 PWs)   bands (ev):

   -45.4854 -23.9079 -23.6887 -23.5410 -20.6357 -12.1582  -3.0957  -2.8148
    -2.5598  -2.0096  -1.0281  -0.6936   4.0460   6.1483   6.5020   7.0822
     7.4825  10.3185  10.9313  11.7031  12.5498  13.0207  13.1511  13.8388
    14.4015  14.9637

          k = 0.3125 0.5494 0.0000 (  5865 PWs)   bands (ev):

   -45.4830 -23.8938 -23.6820 -23.5861 -20.6319 -12.1160  -3.1228  -2.7903
    -2.5382  -1.8651  -1.4032  -0.7115   4.2056   6.2356   6.4374   7.0827
     7.4406  10.2986  11.6082  11.8467  12.6041  12.8624  13.5003  13.7802
    14.5526  15.1756

          k = 0.3125-0.1099 0.0000 (  5868 PWs)   bands (ev):

   -45.5118 -23.8837 -23.6590 -23.3401 -20.6685 -12.5926  -3.0093  -2.7327
    -2.5625  -1.4245  -0.8396   0.5807   3.5568   5.6632   6.2243   6.7515
     7.2474   7.7029   9.4385  10.4879  11.7952  12.5976  14.1953  15.2302
    15.8847  16.3295

          k = 0.3125-0.0366 0.0000 (  5854 PWs)   bands (ev):

   -45.5142 -23.8844 -23.6265 -23.3510 -20.6700 -12.6287  -2.9417  -2.7797
    -2.5775  -1.2164  -0.8227   0.4419   3.6632   5.5118   6.2165   6.7052
     7.1510   7.6347   9.3807  10.5213  12.2696  12.7375  13.3902  15.1313
    15.9346  16.4046

          k = 0.3750 0.2198 0.0000 (  5885 PWs)   bands (ev):

   -45.4987 -23.9256 -23.7198 -23.3571 -20.6576 -12.3813  -3.1640  -2.6429
    -2.5683  -2.1783  -0.7830   0.5141   3.3689   5.9697   6.6241   7.1162
     7.6077   8.4785   9.6980  10.7145  11.7451  12.3759  13.5135  14.9368
    15.3909  15.6723

          k = 0.3750 0.2930 0.0000 (  5877 PWs)   bands (ev):

   -45.4945 -23.9476 -23.7146 -23.3788 -20.6540 -12.3111  -3.1849  -2.6573
    -2.5980  -2.2930  -0.7606   0.3329   3.4122   6.1190   6.5904   7.1853
     7.6903   8.9975   9.8424  10.9216  11.8442  12.4064  13.0882  14.5020
    14.8759  15.6000

          k = 0.3750 0.3663 0.0000 (  5876 PWs)   bands (ev):

   -45.4903 -23.9515 -23.7039 -23.4279 -20.6474 -12.2399  -3.1567  -2.7668
    -2.5909  -2.2654  -0.7490  -0.0794   3.5980   6.2911   6.5128   7.1422
     7.6355   9.7587  10.1727  11.3386  11.8963  12.3889  12.9427  14.0187
    14.6152  15.4084

          k = 0.3750 0.4395 0.0000 (  5862 PWs)   bands (ev):

   -45.4868 -23.9347 -23.6931 -23.4942 -20.6396 -12.1785  -3.1110  -2.8383
    -2.5707  -2.1642  -0.7767  -0.5668   3.8586   6.3276   6.4902   7.1415
     7.4806  10.1799  10.9044  11.7191  11.9188  12.3958  13.1081  13.9773
    14.4994  15.1312

          k = 0.3750 0.5128 0.0000 (  5876 PWs)   bands (ev):

   -45.4844 -23.9064 -23.6856 -23.5574 -20.6334 -12.1372  -3.1101  -2.8141
    -2.5487  -1.9978  -1.1345  -0.7105   4.1041   6.2815   6.4386   7.1448
     7.4035  10.2706  11.5984  11.8341  11.8974  13.0083  13.4111  13.8495
    14.4448  15.0425

          k = 0.3750 0.5860 0.0000 (  5856 PWs)   bands (ev):

   -45.4835 -23.8905 -23.6831 -23.5855 -20.6310 -12.1226  -3.1207  -2.7859
    -2.5371  -1.8413  -1.4141  -0.7178   4.2117   6.2382   6.4241   7.0840
     7.4420  10.2738  11.6214  11.7342  12.6775  12.8578  13.6272  13.7147
    14.5305  15.1600

          k = 0.3750-0.1465 0.0000 (  5880 PWs)   bands (ev):

   -45.5023 -23.8971 -23.7132 -23.3630 -20.6579 -12.4397  -3.1025  -2.6608
    -2.5844  -1.9311  -0.8086   0.4251   3.4723   5.8875   6.4397   7.0249
     7.4696   8.2824   9.7061  10.7501  11.7528  12.4037  14.0635  14.8224
    15.3931  16.2549

          k = 0.3750-0.0733 0.0000 (  5874 PWs)   bands (ev):

   -45.5047 -23.8769 -23.6944 -23.3843 -20.6567 -12.4783  -3.0272  -2.6918
    -2.6108  -1.6606  -0.8327   0.1988   3.6294   5.7275   6.3344   6.9167
     7.4038   8.2209   9.7421  10.9180  12.0310  12.5040  14.1655  14.4978
    15.2336  16.2479

          k = 0.3750 0.0000 0.0000 (  5852 PWs)   bands (ev):

   -45.5055 -23.8704 -23.6825 -23.3968 -20.6560 -12.4917  -2.9875  -2.7153
    -2.6198  -1.5268  -0.8464   0.0732   3.7076   5.6059   6.3845   6.8148
     7.4013   8.2065   9.7556  10.9832  12.3559  12.6204  13.6481  14.3929
    15.5597  15.9887

          k = 0.4375 0.2564 0.0000 (  5876 PWs)   bands (ev):

   -45.4929 -23.9727 -23.7118 -23.3691 -20.6550 -12.2804  -3.2366  -2.6540
    -2.5783  -2.4353  -0.7434   0.4386   3.3271   6.1833   6.6851   7.2555
     7.8666   9.1151   9.7769  10.8740  11.7451  12.2938  12.9458  14.4071
    14.7129  15.2479

          k = 0.4375 0.3296 0.0000 (  5885 PWs)   bands (ev):

   -45.4907 -23.9803 -23.7059 -23.3884 -20.6524 -12.2430  -3.2339  -2.7212
    -2.5898  -2.4163  -0.7335   0.2683   3.3993   6.3052   6.6360   7.2335
     7.8361   9.5796   9.9547  11.0626  11.5534  12.2526  13.0402  14.0205
    14.5641  15.1036

          k = 0.4375 0.4029 0.0000 (  5875 PWs)   bands (ev):

   -45.4887 -23.9644 -23.6993 -23.4352 -20.6461 -12.2088  -3.1733  -2.8081
    -2.5830  -2.3081  -0.7362  -0.1321   3.6088   6.3849   6.5877   7.1504
     7.6365   9.9532  10.5017  11.4155  11.5002  12.2555  13.0872  13.8816
    14.6036  14.9306

          k = 0.4375 0.4761 0.0000 (  5871 PWs)   bands (ev):

   -45.4872 -23.9313 -23.6936 -23.4955 -20.6389 -12.1829  -3.1092  -2.8333
    -2.5699  -2.1506  -0.7760  -0.5835   3.8667   6.3387   6.4815   7.1540
     7.4618  10.1641  10.8169  11.7469  11.9611  12.3995  13.1009  13.9845
    14.5214  15.1542

          k = 0.4375 0.5494 0.0000 (  5874 PWs)   bands (ev):

   -45.4863 -23.9007 -23.6900 -23.5424 -20.6342 -12.1691  -3.0927  -2.8044
    -2.5581  -1.9725  -1.0448  -0.7100   4.0613   6.1578   6.4782   7.1092
     7.4558  10.2867  10.8141  11.7243  12.5424  13.0614  13.2347  13.8017
    14.4221  15.0005

          k = 0.4375-0.1831 0.0000 (  5888 PWs)   bands (ev):

   -45.4949 -23.9445 -23.7147 -23.3801 -20.6533 -12.3154  -3.1813  -2.6590
    -2.5956  -2.2778  -0.7623   0.3155   3.4233   6.1178   6.6152   7.1691
     7.6882   8.9662   9.8274  10.9221  11.8502  12.3990  13.1000  14.5313
    14.8751  15.6045

          k = 0.4375-0.1099 0.0000 (  5870 PWs)   bands (ev):

   -45.4965 -23.9077 -23.7121 -23.4119 -20.6493 -12.3423  -3.1007  -2.6853
    -2.6140  -2.0406  -0.7880   0.0123   3.6127   6.0227   6.4424   7.0605
     7.5650   8.9657   9.9628  11.2094  11.9809  12.4487  13.5336  14.2694
    14.9918  16.0968

          k = 0.4375-0.0366 0.0000 (  5867 PWs)   bands (ev):

   -45.4973 -23.8816 -23.7052 -23.4420 -20.6462 -12.3569  -3.0399  -2.7098
    -2.6222  -1.8311  -0.8190  -0.2507   3.7706   5.8085   6.4967   6.8922
     7.5617   8.9745  10.0577  11.4299  12.2432  12.5900  13.7119  14.2857
    14.6616  15.6711

          k =-0.5000-0.2930 0.0000 (  5886 PWs)   bands (ev):

   -45.4908 -23.9913 -23.7065 -23.3734 -20.6545 -12.2440  -3.2669  -2.6880
    -2.5823  -2.4906  -0.7287   0.4127   3.3158   6.3036   6.6500   7.2937
     7.9801   9.4683   9.8239  11.0452  11.3589  12.2201  13.1145  13.9476
    14.5432  15.0811

          k =-0.5000-0.2198 0.0000 (  5873 PWs)   bands (ev):

   -45.4908 -23.9791 -23.7060 -23.3890 -20.6521 -12.2445  -3.2323  -2.7211
    -2.5893  -2.4117  -0.7341   0.2620   3.4034   6.2994   6.6541   7.2249
     7.8375   9.5553   9.9480  11.0591  11.5747  12.2475  13.0292  14.0383
    14.5882  15.0855

          k =-0.5000-0.1465 0.0000 (  5870 PWs)   bands (ev):

   -45.4908 -23.9469 -23.7045 -23.4297 -20.6464 -12.2457  -3.1523  -2.7632
    -2.5895  -2.2476  -0.7506  -0.1012   3.6111   6.2858   6.5377   7.1396
     7.6199   9.7150  10.1309  11.3370  11.9354  12.3804  12.9405  14.0465
    14.6508  15.4117

          k =-0.5000-0.0733 0.0000 (  5863 PWs)   bands (ev):

   -45.4908 -23.9096 -23.7014 -23.4771 -20.6408 -12.2469  -3.0836  -2.7756
    -2.5870  -2.0454  -0.7903  -0.4778   3.8316   6.0940   6.4995   7.0435
     7.5545   9.8212  10.2398  11.7230  12.1458  12.6751  13.1814  13.9325
    14.7043  15.5215

          k =-0.5000-0.0000 0.0000 (  5884 PWs)   bands (ev):

   -45.4909 -23.8920 -23.6992 -23.4997 -20.6384 -12.2474  -3.0609  -2.7729
    -2.5857  -1.9273  -0.8544  -0.6176   3.9337   5.9525   6.5479   6.9614
     7.5659   9.8506  10.2890  11.7721  12.2654  12.9384  13.4887  14.0182
    14.4390  15.0238

     highest occupied, lowest unoccupied level (ev):     4.2117    5.4221

!    total energy              =    -571.23421007 Ry
     total all-electron energy =    -12610.611621 Ry
     estimated scf accuracy    <          1.7E-09 Ry

     The total energy is the sum of the following terms:
     one-electron contribution =    -276.52472634 Ry
     hartree contribution      =     146.67104536 Ry
     xc contribution           =     -36.33235217 Ry
     ewald contribution        =      -8.19409104 Ry
     one-center paw contrib.   =    -396.85408588 Ry

     convergence has been achieved in   5 iterations

     negative rho (up, down):  3.487E-05 0.000E+00

     Forces acting on atoms (cartesian axes, Ry/au):

     atom    1 type  1   force =     0.00000000   -0.00057991   -0.00038273
     atom    2 type  2   force =     0.00000000   -0.00013153   -0.00169101
     atom    3 type  3   force =     0.00000000    0.00071144    0.00207374
     The non-local contrib.  to forces
     atom    1 type  1   force =     0.00000000   -0.00330425   -0.02485899
     atom    2 type  2   force =     0.00000000   -0.02213121   -0.98387668
     atom    3 type  3   force =     0.00000000   -0.00090400    0.21180084
     The ionic contribution  to forces
     atom    1 type  1   force =    -0.00000001   -0.16842186   -0.50329619
     atom    2 type  2   force =     0.00000001    0.12111200   24.21371683
     atom    3 type  3   force =     0.00000000    0.04730986  -23.71042064
     The local contribution  to forces
     atom    1 type  1   force =    -0.00000000    0.17103086    0.52363967
     atom    2 type  2   force =     0.00000027   -0.09917726  -23.23473649
     atom    3 type  3   force =    -0.00000000   -0.04554819   23.50361807
     The core correction contribution to forces
     atom    1 type  1   force =    -0.00000000    0.00012389    0.00414424
     atom    2 type  2   force =     0.00000000    0.00006688    0.00320581
     atom    3 type  3   force =    -0.00000000   -0.00014319   -0.00290109
     The Hubbard contrib.    to forces
     atom    1 type  1   force =     0.00000000    0.00000000    0.00000000
     atom    2 type  2   force =     0.00000000    0.00000000    0.00000000
     atom    3 type  3   force =     0.00000000    0.00000000    0.00000000
     The SCF correction term to forces
     atom    1 type  1   force =     0.00000000   -0.00000707   -0.00001005
     atom    2 type  2   force =    -0.00000000   -0.00000046    0.00000094
     atom    3 type  3   force =    -0.00000000   -0.00000157   -0.00002204

     Total force =     0.002858     Total SCF correction =     0.000025
     Energy error            =      1.1E-05 Ry
     Gradient error          =      2.1E-03 Ry/Bohr

     number of scf cycles    =   2
     number of bfgs steps    =   1

     energy             old  =    -571.2341986293 Ry
     energy             new  =    -571.2342100662 Ry

     CASE: energy            _new < energy            _old

     new trust radius        =       0.0031194226 bohr
     new conv_thr            =       0.0000000001 Ry


ATOMIC_POSITIONS (angstrom)
Zr            0.0000000000       -0.0008292409       10.1030126186
F            -0.0000000020        1.9307522642       11.4041958564
Br           -0.0000000020        1.9318847399        8.2109702380



     Writing config-only to output data dir ./tmp/ZrFBr.save/
     NEW-OLD atomic charge density approx. for the potential

     Check: negative core charge=   -0.000002

     negative rho (up, down):  3.518E-05 0.000E+00

     total cpu time spent up to now is       25.9 secs

     Self-consistent Calculation

     iteration #  1     ecut=    65.00 Ry     beta= 0.70
     Davidson diagonalization with overlap
     ethr =  1.00E-06,  avg # of iterations =  2.2

     Threshold (ethr) on eigenvalues was too large:
     Diagonalizing with lowered threshold

     Davidson diagonalization with overlap
     ethr =  5.07E-09,  avg # of iterations =  3.7

     negative rho (up, down):  3.519E-05 0.000E+00

     total cpu time spent up to now is       29.2 secs

     total energy              =    -571.23421940 Ry
     estimated scf accuracy    <       0.00000145 Ry

     iteration #  2     ecut=    65.00 Ry     beta= 0.70
     Davidson diagonalization with overlap
     ethr =  5.56E-09,  avg # of iterations =  2.0

     negative rho (up, down):  3.506E-05 0.000E+00

     total cpu time spent up to now is       30.6 secs

     total energy              =    -571.23421924 Ry
     estimated scf accuracy    <       0.00000452 Ry

     iteration #  3     ecut=    65.00 Ry     beta= 0.70
     Davidson diagonalization with overlap
     ethr =  5.56E-09,  avg # of iterations =  2.2

     negative rho (up, down):  3.500E-05 0.000E+00

     total cpu time spent up to now is       31.9 secs

     total energy              =    -571.23422009 Ry
     estimated scf accuracy    <       0.00000010 Ry

     iteration #  4     ecut=    65.00 Ry     beta= 0.70
     Davidson diagonalization with overlap
     ethr =  3.67E-10,  avg # of iterations =  2.0

     negative rho (up, down):  3.499E-05 0.000E+00

     total cpu time spent up to now is       33.2 secs

     total energy              =    -571.23422011 Ry
     estimated scf accuracy    <       0.00000002 Ry

     iteration #  5     ecut=    65.00 Ry     beta= 0.70
     Davidson diagonalization with overlap
     ethr =  9.40E-11,  avg # of iterations =  2.0

     negative rho (up, down):  3.498E-05 0.000E+00

     total cpu time spent up to now is       34.6 secs

     total energy              =    -571.23422012 Ry
     estimated scf accuracy    <          2.0E-09 Ry

     iteration #  6     ecut=    65.00 Ry     beta= 0.70
     Davidson diagonalization with overlap
     ethr =  7.73E-12,  avg # of iterations =  2.0

     negative rho (up, down):  3.497E-05 0.000E+00

     total cpu time spent up to now is       36.0 secs

     End of self-consistent calculation

          k = 0.0000 0.0000 0.0000 (  5891 PWs)   bands (ev):

   -45.5399 -23.9876 -23.2725 -23.2514 -20.7531 -13.0611  -3.2153  -2.5571
    -2.5300  -1.2028   1.1593   1.2577   3.7107   5.6100   5.7442   5.7822
     6.5840   6.6631   7.8222   8.6170  11.0188  13.8604  14.3886  14.6551
    15.1671  17.0764

          k = 0.0000 0.0733 0.0000 (  5862 PWs)   bands (ev):

   -45.5378 -23.9793 -23.2810 -23.2773 -20.7451 -13.0332  -3.1815  -2.5662
    -2.5568  -1.1805   1.0366   1.1174   3.7267   5.6547   5.7140   5.8448
     6.6075   6.6357   7.9474   8.8459  11.1513  13.9102  14.2411  14.5230
    15.0632  17.3210

          k = 0.0000 0.1465 0.0000 (  5850 PWs)   bands (ev):

   -45.5316 -23.9560 -23.3627 -23.2910 -20.7248 -12.9522  -3.0909  -2.6584
    -2.5573  -1.1267   0.4805   1.0024   3.7464   5.6018   5.7964   5.9593
     6.6702   6.7708   8.2840   9.3364  11.5352  13.5059  13.9291  14.9225
    14.9225  17.3111

          k = 0.0000 0.2198 0.0000 (  5848 PWs)   bands (ev):

   -45.5224 -23.9224 -23.4776 -23.3114 -20.7004 -12.8263  -2.9814  -2.7632
    -2.5612  -1.0737  -0.2124   0.8414   3.7134   5.5495   6.0223   6.0457
     6.9472   6.9860   8.7497   9.8345  11.9108  13.1208  13.5640  15.2784
    15.5729  16.9731

          k = 0.0000 0.2930 0.0000 (  5884 PWs)   bands (ev):

   -45.5115 -23.8887 -23.5992 -23.3354 -20.6794 -12.6697  -2.9741  -2.7678
    -2.5705  -1.1739  -0.7619   0.6663   3.6130   5.6120   6.1797   6.3929
     7.1319   7.4176   9.2334  10.2373  11.7753  12.8134  14.0011  15.7680
    16.3292  16.3694

          k = 0.0000 0.3663 0.0000 (  5902 PWs)   bands (ev):

   -45.5005 -23.8797 -23.6887 -23.3592 -20.6659 -12.5031  -3.0676  -2.6899
    -2.5846  -1.6967  -0.8091   0.5050   3.4958   5.7613   6.4319   6.7840
     7.3254   7.9255   9.5906  10.5073  11.6640  12.5040  14.6497  15.0961
    16.0236  16.2744

          k = 0.0000 0.4395 0.0000 (  5892 PWs)   bands (ev):

   -45.4912 -23.9212 -23.7101 -23.3793 -20.6595 -12.3527  -3.1588  -2.6458
    -2.6001  -2.1714  -0.7582   0.3775   3.4112   5.9628   6.6420   7.0864
     7.5852   8.5242   9.7345  10.7100  11.7911  12.4392  13.6440  15.0302
    15.4975  15.5270

          k = 0.0000 0.5128 0.0000 (  5882 PWs)   bands (ev):

   -45.4850 -23.9708 -23.7001 -23.3926 -20.6576 -12.2469  -3.2295  -2.6655
    -2.6121  -2.4320  -0.7156   0.2966   3.3701   6.1807   6.6855   7.2227
     7.8778   9.1718   9.8023  10.8862  11.8320  12.3893  13.0111  14.4872
    14.8334  15.0590

          k = 0.0000-0.5860 0.0000 (  5882 PWs)   bands (ev):

   -45.4828 -23.9902 -23.6942 -23.3973 -20.6574 -12.2087  -3.2589  -2.7038
    -2.6166  -2.4880  -0.6998   0.2690   3.3593   6.3088   6.6373   7.2587
     8.0067   9.5407   9.8261  11.0681  11.4798  12.3022  13.1685  14.0217
    14.6621  14.8836

          k = 0.0625 0.0366 0.0000 (  5871 PWs)   bands (ev):

   -45.5379 -23.9797 -23.2978 -23.2591 -20.7452 -13.0343  -3.1824  -2.5874
    -2.5340  -1.1817   0.9615   1.2005   3.7235   5.5723   5.8013   5.8447
     6.5533   6.7010   7.9412   8.8368  11.1465  13.9088  14.0879  14.7284
    15.0450  17.2557

          k = 0.0625 0.1099 0.0000 (  5871 PWs)   bands (ev):

   -45.5337 -23.9639 -23.3425 -23.2793 -20.7312 -12.9799  -3.1199  -2.6373
    -2.5486  -1.1437   0.6273   1.0695   3.7409   5.5717   5.8126   5.9485
     6.5734   6.7767   8.1730   9.1922  11.4116  13.6500  13.9541  14.7662
    15.0104  17.3310

          k = 0.0625 0.1831 0.0000 (  5862 PWs)   bands (ev):

   -45.5260 -23.9352 -23.4349 -23.3023 -20.7089 -12.8764  -3.0149  -2.7326
    -2.5582  -1.0888   0.0444   0.8903   3.7377   5.5111   5.9788   6.0404
     6.7395   6.9688   8.5757   9.6747  11.8835  13.1199  13.6536  14.9557
    15.5123  16.9117

          k = 0.0625 0.2564 0.0000 (  5877 PWs)   bands (ev):

   -45.5160 -23.9008 -23.5497 -23.3285 -20.6865 -12.7348  -2.9371  -2.8002
    -2.5705  -1.0735  -0.5834   0.6875   3.6795   5.5283   6.0789   6.3418
     6.9865   7.2799   9.0548  10.1277  12.0256  12.9564  13.4618  15.4223
    16.1957  16.4856

          k = 0.0625 0.3296 0.0000 (  5875 PWs)   bands (ev):

   -45.5050 -23.8762 -23.6546 -23.3561 -20.6696 -12.5725  -3.0072  -2.7300
    -2.5885  -1.4203  -0.8228   0.4896   3.5841   5.6664   6.2346   6.7186
     7.2099   7.7344   9.4902  10.4894  11.7884  12.6277  14.2512  15.3197
    15.9129  16.3489

          k = 0.0625 0.4029 0.0000 (  5899 PWs)   bands (ev):

   -45.4949 -23.8930 -23.7060 -23.3812 -20.6599 -12.4129  -3.1011  -2.6622
    -2.6111  -1.9353  -0.7864   0.3210   3.5005   5.8789   6.4485   7.0072
     7.4488   8.3274   9.7554  10.7358  11.7742  12.4490  14.1933  14.8462
    15.4417  16.2590

          k = 0.0625 0.4761 0.0000 (  5891 PWs)   bands (ev):

   -45.4871 -23.9436 -23.7042 -23.4004 -20.6560 -12.2835  -3.1783  -2.6783
    -2.6096  -2.2875  -0.7366   0.1993   3.4544   6.1120   6.6125   7.1509
     7.6903   9.0316   9.8684  10.9083  11.9017  12.4782  13.1911  14.5221
    14.9711  15.5623

          k = 0.0625 0.5494 0.0000 (  5883 PWs)   bands (ev):

   -45.4829 -23.9787 -23.6942 -23.4107 -20.6551 -12.2105  -3.2266  -2.7433
    -2.6035  -2.4223  -0.7068   0.1357   3.4390   6.3033   6.6402   7.2010
     7.8590   9.6397   9.9550  11.0699  11.6671  12.3281  13.0816  14.0854
    14.6605  14.9896

          k = 0.1250 0.0733 0.0000 (  5860 PWs)   bands (ev):

   -45.5321 -23.9573 -23.3755 -23.2730 -20.7252 -12.9567  -3.0939  -2.6741
    -2.5356  -1.1311   0.4210   1.0897   3.7330   5.5080   5.9103   5.9548
     6.6412   6.8284   8.2649   9.3180  11.5174  13.4486  13.8869  14.8959
    15.1060  17.3377

          k = 0.1250 0.1465 0.0000 (  5864 PWs)   bands (ev):

   -45.5264 -23.9363 -23.4409 -23.2925 -20.7091 -12.8797  -3.0171  -2.7391
    -2.5474  -1.0921   0.0126   0.9439   3.7254   5.4906   6.0004   6.0511
     6.7369   6.9869   8.5639   9.6662  11.8713  13.0959  13.6319  14.9533
    15.5776  16.9428

          k = 0.1250 0.2198 0.0000 (  5850 PWs)   bands (ev):

   -45.5179 -23.9064 -23.5321 -23.3225 -20.6892 -12.7603  -2.9188  -2.8189
    -2.5676  -1.0609  -0.4912   0.6951   3.7042   5.4614   6.0973   6.3497
     6.8888   7.2591   8.9835  10.0960  12.4175  12.6819  13.2387  15.2195
    16.1931  16.4726

          k = 0.1250 0.2930 0.0000 (  5874 PWs)   bands (ev):

   -45.5078 -23.8780 -23.6268 -23.3583 -20.6713 -12.6123  -2.9438  -2.7781
    -2.5958  -1.2297  -0.8217   0.4133   3.6690   5.5310   6.2049   6.6840
     7.1278   7.6619   9.4292  10.5292  12.2285  12.7258  13.3984  15.1648
    16.0202  16.4455

          k = 0.1250 0.3663 0.0000 (  5895 PWs)   bands (ev):

   -45.4977 -23.8735 -23.6920 -23.3942 -20.6588 -12.4553  -3.0305  -2.6940
    -2.6295  -1.6855  -0.8176   0.1539   3.6360   5.7303   6.3318   6.8972
     7.4063   8.2593   9.7978  10.9127  12.0041  12.5053  14.1809  14.5694
    15.2737  16.2931

          k = 0.1250 0.4395 0.0000 (  5882 PWs)   bands (ev):

   -45.4891 -23.9088 -23.7041 -23.4247 -20.6521 -12.3144  -3.1033  -2.7073
    -2.6176  -2.0650  -0.7686  -0.0515   3.6235   6.0167   6.4486   7.0347
     7.5849   9.0274  10.0248  11.1740  11.9884  12.4841  13.6098  14.2716
    15.0530  16.1027

          k = 0.1250 0.5128 0.0000 (  5880 PWs)   bands (ev):

   -45.4833 -23.9486 -23.6940 -23.4452 -20.6495 -12.2156  -3.1523  -2.7865
    -2.5942  -2.2680  -0.7291  -0.1835   3.6290   6.2853   6.5374   7.1164
     7.6456   9.8016  10.1852  11.2878  11.9633  12.4587  12.9926  14.0379
    14.7137  15.4239

          k = 0.1250 0.5860 0.0000 (  5872 PWs)   bands (ev):

   -45.4813 -23.9642 -23.6884 -23.4525 -20.6489 -12.1800  -3.1703  -2.8294
    -2.5885  -2.3218  -0.7142  -0.2292   3.6344   6.3857   6.5955   7.1260
     7.6594  10.0312  10.5016  11.4143  11.5630  12.2982  13.1241  13.9421
    14.6599  14.9148

          k = 0.1250 0.0000 0.0000 (  5835 PWs)   bands (ev):

   -45.5341 -23.9648 -23.3515 -23.2665 -20.7314 -12.9832  -3.1220  -2.6497
    -2.5317  -1.1471   0.5922   1.1216   3.7342   5.4943   5.8923   5.9557
     6.5803   6.7958   8.1570   9.1772  11.4003  13.5920  13.9342  14.8227
    15.0941  17.3616

          k = 0.1875 0.1099 0.0000 (  5863 PWs)   bands (ev):

   -45.5235 -23.9252 -23.4867 -23.2918 -20.7007 -12.8360  -2.9872  -2.7739
    -2.5386  -1.0831  -0.2580   0.9405   3.6860   5.5084   5.9889   6.1531
     6.9574   7.0075   8.7178   9.8173  11.8910  13.0786  13.5150  15.2382
    15.7330  17.0215

          k = 0.1875 0.1831 0.0000 (  5861 PWs)   bands (ev):

   -45.5169 -23.9035 -23.5562 -23.3127 -20.6867 -12.7435  -2.9431  -2.8053
    -2.5538  -1.0851  -0.6176   0.7754   3.6515   5.5231   6.0737   6.3776
     7.0095   7.2797   9.0306  10.1200  12.0222  12.9205  13.4018  15.3869
    16.2809  16.5166

          k = 0.1875 0.2564 0.0000 (  5865 PWs)   bands (ev):

   -45.5084 -23.8796 -23.6297 -23.3499 -20.6713 -12.6177  -2.9477  -2.7784
    -2.5882  -1.2446  -0.8303   0.4609   3.6527   5.5347   6.2040   6.6920
     7.1445   7.6566   9.4168  10.5300  12.2390  12.7235  13.3319  15.1605
    15.9697  16.4312

          k = 0.1875 0.3296 0.0000 (  5878 PWs)   bands (ev):

   -45.4991 -23.8686 -23.6844 -23.3970 -20.6581 -12.4744  -2.9955  -2.7154
    -2.6329  -1.5763  -0.8387   0.0890   3.6935   5.6205   6.3739   6.8019
     7.4185   8.2392   9.8048  10.9935  12.3380  12.5501  13.6223  14.4240
    15.5657  16.0513

          k = 0.1875 0.4029 0.0000 (  5892 PWs)   bands (ev):

   -45.4905 -23.8850 -23.7012 -23.4446 -20.6489 -12.3348  -3.0473  -2.7256
    -2.6256  -1.8793  -0.8085  -0.2497   3.7595   5.8152   6.5090   6.8575
     7.5959   9.0300  10.1244  11.4302  12.2495  12.5101  13.7255  14.3135
    14.6727  15.6348

          k = 0.1875 0.4761 0.0000 (  5881 PWs)   bands (ev):

   -45.4839 -23.9144 -23.6933 -23.4831 -20.6437 -12.2227  -3.0891  -2.7961
    -2.5898  -2.0809  -0.7855  -0.4940   3.8286   6.0956   6.5214   7.0025
     7.5944   9.8939  10.3332  11.6866  12.1245  12.6557  13.2391  13.9211
    14.7468  15.4402

          k = 0.1875 0.5494 0.0000 (  5861 PWs)   bands (ev):

   -45.4803 -23.9336 -23.6843 -23.5047 -20.6416 -12.1599  -3.1130  -2.8507
    -2.5733  -2.1711  -0.7848  -0.6097   3.8740   6.3383   6.5056   7.1223
     7.4924  10.2414  10.9112  11.7179  11.9232  12.3886  13.1546  14.0078
    14.5432  15.1784

          k = 0.1875-0.0366 0.0000 (  5838 PWs)   bands (ev):

   -45.5270 -23.9377 -23.4421 -23.2860 -20.7092 -12.8848  -3.0196  -2.7428
    -2.5378  -1.0967   0.0169   0.9552   3.7222   5.4482   5.9999   6.1080
     6.7805   6.9632   8.5440   9.6566  11.8633  13.0963  13.6271  14.9715
    15.6173  16.9277

          k = 0.2500 0.1465 0.0000 (  5866 PWs)   bands (ev):

   -45.5132 -23.8933 -23.6048 -23.3135 -20.6794 -12.6862  -2.9816  -2.7740
    -2.5459  -1.1962  -0.7865   0.7784   3.5764   5.6071   6.1448   6.4717
     7.1798   7.3960   9.1924  10.2284  11.7695  12.7739  13.9131  15.6816
    16.2184  16.5097

          k = 0.2500 0.2198 0.0000 (  5878 PWs)   bands (ev):

   -45.5067 -23.8806 -23.6597 -23.3358 -20.6694 -12.5881  -3.0143  -2.7331
    -2.5679  -1.4493  -0.8396   0.6001   3.5464   5.6720   6.2246   6.7511
     7.2495   7.7164   9.4576  10.4923  11.7822  12.5928  14.1361  15.2225
    15.8965  16.3604

          k = 0.2500 0.2930 0.0000 (  5868 PWs)   bands (ev):

   -45.4989 -23.8768 -23.6956 -23.3793 -20.6584 -12.4677  -3.0355  -2.6898
    -2.6208  -1.7078  -0.8281   0.2338   3.6090   5.7363   6.3280   6.9135
     7.4254   8.2487   9.7768  10.9275  12.0039  12.4957  14.0950  14.4874
    15.2112  16.2858

          k = 0.2500 0.3663 0.0000 (  5873 PWs)   bands (ev):

   -45.4912 -23.8865 -23.7030 -23.4371 -20.6485 -12.3418  -3.0492  -2.7181
    -2.6275  -1.8892  -0.8124  -0.2124   3.7474   5.8153   6.5087   6.8646
     7.6008   9.0252  10.1133  11.4454  12.2476  12.5353  13.7123  14.2016
    14.6164  15.7061

          k = 0.2500 0.4395 0.0000 (  5876 PWs)   bands (ev):

   -45.4846 -23.8992 -23.6937 -23.4967 -20.6410 -12.2303  -3.0681  -2.7892
    -2.5892  -1.9819  -0.8515  -0.5858   3.9150   5.9572   6.5853   6.9106
     7.6116   9.9121  10.3820  11.7637  12.3109  12.8287  13.4669  13.9982
    14.4271  14.9911

          k = 0.2500 0.5128 0.0000 (  5865 PWs)   bands (ev):

   -45.4802 -23.9058 -23.6829 -23.5425 -20.6365 -12.1533  -3.0990  -2.8191
    -2.5615  -2.0098  -1.0526  -0.6916   4.0522   6.1618   6.5071   7.0806
     7.4877  10.3469  10.9353  11.6879  12.5736  12.9847  13.1976  13.7771
    14.4406  14.9885

          k = 0.2500 0.5860 0.0000 (  5860 PWs)   bands (ev):

   -45.4786 -23.9072 -23.6786 -23.5600 -20.6350 -12.1257  -3.1157  -2.8221
    -2.5515  -2.0109  -1.1616  -0.6999   4.1052   6.2923   6.4568   7.1379
     7.4107  10.3231  11.5912  11.8970  11.9464  12.8855  13.3883  13.8530
    14.4785  15.0700

          k = 0.2500-0.0733 0.0000 (  5866 PWs)   bands (ev):

   -45.5176 -23.9048 -23.5530 -23.3106 -20.6863 -12.7498  -2.9434  -2.8060
    -2.5485  -1.0864  -0.5989   0.7625   3.6570   5.5034   6.0752   6.4081
     7.0371   7.2561   9.0119  10.1146  12.0299  12.9322  13.4298  15.4087
    16.2160  16.4992

          k = 0.2500 0.0000 0.0000 (  5832 PWs)   bands (ev):

   -45.5191 -23.9092 -23.5306 -23.3134 -20.6888 -12.7718  -2.9227  -2.8211
    -2.5538  -1.0690  -0.4761   0.7098   3.7004   5.4286   6.1093   6.3960
     6.9329   7.2336   8.9483  10.0850  12.4142  12.7105  13.2404  15.2183
    16.1545  16.4841

          k = 0.3125 0.1831 0.0000 (  5881 PWs)   bands (ev):

   -45.5030 -23.8845 -23.6926 -23.3351 -20.6650 -12.5270  -3.0740  -2.6935
    -2.5573  -1.7160  -0.8294   0.6287   3.4566   5.7709   6.4042   6.8329
     7.3718   7.8947   9.5490  10.5123  11.6440  12.4599  14.4886  15.0046
    16.1332  16.2092

          k = 0.3125 0.2564 0.0000 (  5875 PWs)   bands (ev):

   -45.4972 -23.8972 -23.7109 -23.3577 -20.6589 -12.4360  -3.1082  -2.6602
    -2.5896  -1.9562  -0.8058   0.4451   3.4600   5.8891   6.4316   7.0412
     7.4796   8.3029   9.7244  10.7530  11.7465  12.4055  14.0477  14.7769
    15.4314  16.2189

          k = 0.3125 0.3296 0.0000 (  5867 PWs)   bands (ev):

   -45.4910 -23.9116 -23.7087 -23.4056 -20.6510 -12.3342  -3.1090  -2.6882
    -2.6198  -2.0791  -0.7841   0.0454   3.5930   6.0220   6.4390   7.0580
     7.5953   9.0115  10.0012  11.2150  11.9687  12.4576  13.5014  14.2507
    14.9399  16.0610

          k = 0.3125 0.4029 0.0000 (  5877 PWs)   bands (ev):

   -45.4853 -23.9156 -23.6968 -23.4707 -20.6427 -12.2372  -3.0907  -2.7873
    -2.5905  -2.0872  -0.7888  -0.4410   3.8124   6.0885   6.5220   7.0143
     7.5988   9.8744  10.3147  11.7323  12.1492  12.6485  13.1318  13.9269
    14.6356  15.5149

          k = 0.3125 0.4761 0.0000 (  5866 PWs)   bands (ev):

   -45.4808 -23.9055 -23.6847 -23.5373 -20.6358 -12.1607  -3.0974  -2.8168
    -2.5613  -2.0114  -1.0306  -0.6938   4.0482   6.1524   6.5080   7.0861
     7.4906  10.3213  10.9330  11.7042  12.5502  13.0217  13.1524  13.8402
    14.4039  14.9622

          k = 0.3125 0.5494 0.0000 (  5865 PWs)   bands (ev):

   -45.4785 -23.8915 -23.6780 -23.5824 -20.6319 -12.1185  -3.1248  -2.7919
    -2.5397  -1.8675  -1.4052  -0.7117   4.2078   6.2382   6.4436   7.0876
     7.4492  10.3015  11.6100  11.8468  12.6045  12.8618  13.5025  13.7822
    14.5550  15.1749

          k = 0.3125-0.1099 0.0000 (  5868 PWs)   bands (ev):

   -45.5073 -23.8807 -23.6557 -23.3362 -20.6686 -12.5948  -3.0113  -2.7344
    -2.5643  -1.4278  -0.8388   0.5769   3.5592   5.6693   6.2279   6.7550
     7.2514   7.7061   9.4423  10.4884  11.7958  12.6007  14.1942  15.2316
    15.8853  16.3300

          k = 0.3125-0.0366 0.0000 (  5854 PWs)   bands (ev):

   -45.5097 -23.8813 -23.6233 -23.3471 -20.6702 -12.6308  -2.9437  -2.7815
    -2.5792  -1.2197  -0.8223   0.4384   3.6655   5.5184   6.2205   6.7079
     7.1547   7.6379   9.3843  10.5213  12.2709  12.7401  13.3899  15.1331
    15.9345  16.4054

          k = 0.3750 0.2198 0.0000 (  5885 PWs)   bands (ev):

   -45.4942 -23.9231 -23.7160 -23.3532 -20.6577 -12.3836  -3.1659  -2.6443
    -2.5700  -2.1806  -0.7826   0.5101   3.3713   5.9752   6.6279   7.1209
     7.6118   8.4833   9.7014  10.7155  11.7465  12.3775  13.5142  14.9360
    15.3944  15.6743

          k = 0.3750 0.2930 0.0000 (  5877 PWs)   bands (ev):

   -45.4900 -23.9452 -23.7107 -23.3749 -20.6542 -12.3135  -3.1868  -2.6591
    -2.5995  -2.2949  -0.7605   0.3292   3.4146   6.1249   6.5939   7.1906
     7.6949   9.0018   9.8453  10.9228  11.8463  12.4070  13.0887  14.5031
    14.8772  15.6029

          k = 0.3750 0.3663 0.0000 (  5876 PWs)   bands (ev):

   -45.4858 -23.9491 -23.7000 -23.4241 -20.6475 -12.2423  -3.1585  -2.7691
    -2.5923  -2.2669  -0.7492  -0.0826   3.6004   6.2972   6.5163   7.1472
     7.6414   9.7617  10.1759  11.3392  11.8990  12.3894  12.9429  14.0209
    14.6158  15.4110

          k = 0.3750 0.4395 0.0000 (  5862 PWs)   bands (ev):

   -45.4823 -23.9324 -23.6892 -23.4905 -20.6397 -12.1810  -3.1126  -2.8407
    -2.5721  -2.1657  -0.7778  -0.5688   3.8609   6.3321   6.4952   7.1462
     7.4880  10.1825  10.9070  11.7196  11.9200  12.3976  13.1085  13.9792
    14.5006  15.1321

          k = 0.3750 0.5128 0.0000 (  5876 PWs)   bands (ev):

   -45.4799 -23.9041 -23.6816 -23.5536 -20.6335 -12.1397  -3.1118  -2.8161
    -2.5502  -1.9996  -1.1368  -0.7107   4.1062   6.2844   6.4448   7.1492
     7.4125  10.2732  11.6012  11.8343  11.8975  13.0096  13.4122  13.8516
    14.4453  15.0445

          k = 0.3750 0.5860 0.0000 (  5856 PWs)   bands (ev):

   -45.4790 -23.8883 -23.6791 -23.5817 -20.6311 -12.1251  -3.1227  -2.7875
    -2.5386  -1.8438  -1.4158  -0.7180   4.2138   6.2407   6.4305   7.0891
     7.4509  10.2763  11.6238  11.7342  12.6777  12.8571  13.6296  13.7177
    14.5321  15.1592

          k = 0.3750-0.1465 0.0000 (  5880 PWs)   bands (ev):

   -45.4978 -23.8945 -23.7095 -23.3591 -20.6581 -12.4420  -3.1044  -2.6623
    -2.5861  -1.9338  -0.8081   0.4213   3.4746   5.8931   6.4438   7.0287
     7.4740   8.2863   9.7103  10.7507  11.7534  12.4060  14.0647  14.8218
    15.3945  16.2581

          k = 0.3750-0.0733 0.0000 (  5874 PWs)   bands (ev):

   -45.5002 -23.8741 -23.6909 -23.3804 -20.6568 -12.4805  -3.0290  -2.6935
    -2.6124  -1.6637  -0.8322   0.1955   3.6315   5.7337   6.3388   6.9200
     7.4081   8.2242   9.7468  10.9181  12.0314  12.5063  14.1656  14.5003
    15.2338  16.2487

          k = 0.3750 0.0000 0.0000 (  5852 PWs)   bands (ev):

   -45.5010 -23.8675 -23.6791 -23.3929 -20.6561 -12.4940  -2.9894  -2.7172
    -2.6214  -1.5300  -0.8459   0.0701   3.7094   5.6124   6.3896   6.8174
     7.4054   8.2095   9.7604  10.9829  12.3576  12.6207  13.6487  14.3963
    15.5604  15.9881

          k = 0.4375 0.2564 0.0000 (  5876 PWs)   bands (ev):

   -45.4884 -23.9703 -23.7079 -23.3653 -20.6552 -12.2829  -3.2386  -2.6553
    -2.5800  -2.4371  -0.7433   0.4347   3.3295   6.1895   6.6887   7.2609
     7.8701   9.1215   9.7779  10.8762  11.7471  12.2944  12.9465  14.4082
    14.7145  15.2500

          k = 0.4375 0.3296 0.0000 (  5885 PWs)   bands (ev):

   -45.4862 -23.9780 -23.7019 -23.3846 -20.6526 -12.2454  -3.2359  -2.7230
    -2.5912  -2.4179  -0.7336   0.2647   3.4017   6.3121   6.6389   7.2391
     7.8405   9.5851   9.9560  11.0648  11.5542  12.2545  13.0401  14.0226
    14.5648  15.1058

          k = 0.4375 0.4029 0.0000 (  5875 PWs)   bands (ev):

   -45.4842 -23.9620 -23.6953 -23.4314 -20.6462 -12.2113  -3.1751  -2.8104
    -2.5843  -2.3096  -0.7365  -0.1353   3.6112   6.3917   6.5902   7.1559
     7.6424   9.9563  10.5049  11.4163  11.5010  12.2584  13.0867  13.8834
    14.6051  14.9321

          k = 0.4375 0.4761 0.0000 (  5871 PWs)   bands (ev):

   -45.4826 -23.9290 -23.6897 -23.4917 -20.6390 -12.1854  -3.1108  -2.8356
    -2.5713  -2.1521  -0.7771  -0.5853   3.8690   6.3434   6.4861   7.1589
     7.4691  10.1664  10.8194  11.7476  11.9626  12.4016  13.1015  13.9860
    14.5224  15.1553

          k = 0.4375 0.5494 0.0000 (  5874 PWs)   bands (ev):

   -45.4818 -23.8985 -23.6860 -23.5386 -20.6343 -12.1716  -3.0944  -2.8063
    -2.5596  -1.9745  -1.0471  -0.7101   4.0633   6.1618   6.4841   7.1133
     7.4640  10.2888  10.8158  11.7264  12.5429  13.0617  13.2375  13.8031
    14.4235  14.9989

          k = 0.4375-0.1831 0.0000 (  5888 PWs)   bands (ev):

   -45.4904 -23.9421 -23.7109 -23.3762 -20.6535 -12.3178  -3.1832  -2.6606
    -2.5972  -2.2798  -0.7622   0.3119   3.4256   6.1235   6.6194   7.1736
     7.6925   8.9712   9.8297  10.9236  11.8523  12.3999  13.1008  14.5324
    14.8762  15.6068

          k = 0.4375-0.1099 0.0000 (  5870 PWs)   bands (ev):

   -45.4920 -23.9052 -23.7083 -23.4081 -20.6494 -12.3446  -3.1025  -2.6872
    -2.6155  -2.0429  -0.7879   0.0092   3.6148   6.0284   6.4470   7.0646
     7.5698   8.9690   9.9667  11.2097  11.9823  12.4503  13.5350  14.2707
    14.9918  16.1000

          k = 0.4375-0.0366 0.0000 (  5867 PWs)   bands (ev):

   -45.4928 -23.8790 -23.7015 -23.4381 -20.6463 -12.3592  -3.0416  -2.7116
    -2.6238  -1.8337  -0.8190  -0.2533   3.7724   5.8144   6.5023   6.8955
     7.5666   8.9769  10.0626  11.4293  12.2447  12.5909  13.7153  14.2866
    14.6614  15.6709

          k =-0.5000-0.2930 0.0000 (  5886 PWs)   bands (ev):

   -45.4863 -23.9890 -23.7025 -23.3695 -20.6547 -12.2465  -3.2690  -2.6892
    -2.5840  -2.4923  -0.7288   0.4089   3.3183   6.3106   6.6531   7.2993
     7.9834   9.4752   9.8247  11.0482  11.3587  12.2225  13.1141  13.9503
    14.5435  15.0832

          k =-0.5000-0.2198 0.0000 (  5873 PWs)   bands (ev):

   -45.4863 -23.9768 -23.7021 -23.3851 -20.6523 -12.2470  -3.2343  -2.7228
    -2.5907  -2.4133  -0.7342   0.2584   3.4058   6.3059   6.6575   7.2302
     7.8418   9.5610   9.9491  11.0613  11.5757  12.2495  13.0293  14.0401
    14.5892  15.0874

          k =-0.5000-0.1465 0.0000 (  5870 PWs)   bands (ev):

   -45.4863 -23.9446 -23.7005 -23.4259 -20.6465 -12.2482  -3.1541  -2.7653
    -2.5909  -2.2493  -0.7508  -0.1043   3.6134   6.2917   6.5417   7.1445
     7.6254   9.7187  10.1331  11.3380  11.9384  12.3812  12.9411  14.0480
    14.6515  15.4137

          k =-0.5000-0.0733 0.0000 (  5863 PWs)   bands (ev):

   -45.4863 -23.9073 -23.6975 -23.4732 -20.6409 -12.2493  -3.0852  -2.7777
    -2.5885  -2.0473  -0.7909  -0.4800   3.8336   6.0991   6.5050   7.0478
     7.5606   9.8229  10.2436  11.7229  12.1485  12.6766  13.1824  13.9341
    14.7043  15.5218

          k =-0.5000-0.0000 0.0000 (  5884 PWs)   bands (ev):

   -45.4864 -23.8897 -23.6953 -23.4959 -20.6385 -12.2498  -3.0625  -2.7747
    -2.5874  -1.9295  -0.8559  -0.6187   3.9356   5.9577   6.5540   6.9651
     7.5722   9.8516  10.2934  11.7723  12.2670  12.9402  13.4915  14.0186
    14.4397  15.0222

     highest occupied, lowest unoccupied level (ev):     4.2138    5.4286

!    total energy              =    -571.23422012 Ry
     total all-electron energy =    -12610.611631 Ry
     estimated scf accuracy    <          9.6E-11 Ry

     The total energy is the sum of the following terms:
     one-electron contribution =    -276.77847800 Ry
     hartree contribution      =     146.79887380 Ry
     xc contribution           =     -36.33362881 Ry
     ewald contribution        =      -8.06683684 Ry
     one-center paw contrib.   =    -396.85415027 Ry

     convergence has been achieved in   6 iterations

     negative rho (up, down):  3.497E-05 0.000E+00

     Forces acting on atoms (cartesian axes, Ry/au):

     atom    1 type  1   force =     0.00000000   -0.00040075   -0.00005404
     atom    2 type  2   force =     0.00000000   -0.00015208   -0.00138656
     atom    3 type  3   force =     0.00000000    0.00055283    0.00144060
     The non-local contrib.  to forces
     atom    1 type  1   force =     0.00000000   -0.00319491   -0.02496282
     atom    2 type  2   force =     0.00000000   -0.02191643   -0.98289234
     atom    3 type  3   force =     0.00000000   -0.00097357    0.21154338
     The ionic contribution  to forces
     atom    1 type  1   force =    -0.00000001   -0.16594388   -0.49521075
     atom    2 type  2   force =     0.00000001    0.11978773   24.22202845
     atom    3 type  3   force =     0.00000000    0.04615615  -23.72681770
     The local contribution  to forces
     atom    1 type  1   force =    -0.00000000    0.16861723    0.51598282
     atom    2 type  2   force =     0.00000027   -0.09808919  -23.24372840
     atom    3 type  3   force =    -0.00000000   -0.04449466   23.51956408
     The core correction contribution to forces
     atom    1 type  1   force =    -0.00000000    0.00012366    0.00415875
     atom    2 type  2   force =     0.00000000    0.00006639    0.00320146
     atom    3 type  3   force =    -0.00000000   -0.00013395   -0.00286068
     The Hubbard contrib.    to forces
     atom    1 type  1   force =     0.00000000    0.00000000    0.00000000
     atom    2 type  2   force =     0.00000000    0.00000000    0.00000000
     atom    3 type  3   force =     0.00000000    0.00000000    0.00000000
     The SCF correction term to forces
     atom    1 type  1   force =     0.00000000   -0.00000252   -0.00002372
     atom    2 type  2   force =     0.00000000   -0.00000026    0.00000259
     atom    3 type  3   force =    -0.00000000   -0.00000081    0.00000983

     Total force =     0.002119     Total SCF correction =     0.000026
     Energy error            =      1.0E-05 Ry
     Gradient error          =      1.4E-03 Ry/Bohr

     number of scf cycles    =   3
     number of bfgs steps    =   2

     energy             old  =    -571.2342100662 Ry
     energy             new  =    -571.2342201170 Ry

     CASE: energy            _new < energy            _old

     new trust radius        =       0.0046791339 bohr
     new conv_thr            =       0.0000000001 Ry


ATOMIC_POSITIONS (angstrom)
Zr            0.0000000000       -0.0014756384       10.1027750955
F            -0.0000000020        1.9305464264       11.4021085738
Br           -0.0000000020        1.9327369752        8.2132950437



     Writing config-only to output data dir ./tmp/ZrFBr.save/
     NEW-OLD atomic charge density approx. for the potential

     Check: negative core charge=   -0.000002

     negative rho (up, down):  3.533E-05 0.000E+00

     total cpu time spent up to now is       36.4 secs

     Self-consistent Calculation

     iteration #  1     ecut=    65.00 Ry     beta= 0.70
     Davidson diagonalization with overlap
     ethr =  1.00E-06,  avg # of iterations =  3.0

     Threshold (ethr) on eigenvalues was too large:
     Diagonalizing with lowered threshold

     Davidson diagonalization with overlap
     ethr =  1.24E-08,  avg # of iterations =  2.0

     negative rho (up, down):  3.545E-05 0.000E+00

     total cpu time spent up to now is       39.6 secs

     total energy              =    -571.23422827 Ry
     estimated scf accuracy    <       0.00000333 Ry

     iteration #  2     ecut=    65.00 Ry     beta= 0.70
     Davidson diagonalization with overlap
     ethr =  1.28E-08,  avg # of iterations =  2.0

     negative rho (up, down):  3.525E-05 0.000E+00

     total cpu time spent up to now is       41.0 secs

     total energy              =    -571.23422792 Ry
     estimated scf accuracy    <       0.00000963 Ry

     iteration #  3     ecut=    65.00 Ry     beta= 0.70
     Davidson diagonalization with overlap
     ethr =  1.28E-08,  avg # of iterations =  2.0

     negative rho (up, down):  3.517E-05 0.000E+00

     total cpu time spent up to now is       42.3 secs

     total energy              =    -571.23422980 Ry
     estimated scf accuracy    <       0.00000028 Ry

     iteration #  4     ecut=    65.00 Ry     beta= 0.70
     Davidson diagonalization with overlap
     ethr =  1.06E-09,  avg # of iterations =  2.0

     negative rho (up, down):  3.515E-05 0.000E+00

     total cpu time spent up to now is       43.7 secs

     total energy              =    -571.23422985 Ry
     estimated scf accuracy    <       0.00000004 Ry

     iteration #  5     ecut=    65.00 Ry     beta= 0.70
     Davidson diagonalization with overlap
     ethr =  1.65E-10,  avg # of iterations =  2.0

     negative rho (up, down):  3.514E-05 0.000E+00

     total cpu time spent up to now is       45.0 secs

     total energy              =    -571.23422986 Ry
     estimated scf accuracy    <          5.7E-09 Ry

     iteration #  6     ecut=    65.00 Ry     beta= 0.70
     Davidson diagonalization with overlap
     ethr =  2.20E-11,  avg # of iterations =  2.0

     negative rho (up, down):  3.513E-05 0.000E+00

     total cpu time spent up to now is       46.4 secs

     total energy              =    -571.23422986 Ry
     estimated scf accuracy    <          3.0E-10 Ry

     iteration #  7     ecut=    65.00 Ry     beta= 0.70
     Davidson diagonalization with overlap
     ethr =  1.14E-12,  avg # of iterations =  2.0

     negative rho (up, down):  3.513E-05 0.000E+00

     total cpu time spent up to now is       47.8 secs

     End of self-consistent calculation

          k = 0.0000 0.0000 0.0000 (  5891 PWs)   bands (ev):

   -45.5328 -23.9829 -23.2662 -23.2450 -20.7555 -13.0624  -3.2195  -2.5632
    -2.5355  -1.2007   1.1522   1.2528   3.7216   5.6179   5.7464   5.7914
     6.5904   6.6653   7.8206   8.6164  11.0182  13.8544  14.3920  14.6582
    15.1862  17.0820

          k = 0.0000 0.0733 0.0000 (  5862 PWs)   bands (ev):

   -45.5306 -23.9746 -23.2747 -23.2710 -20.7475 -13.0346  -3.1858  -2.5716
    -2.5629  -1.1784   1.0319   1.1104   3.7372   5.6625   5.7233   5.8467
     6.6098   6.6422   7.9461   8.8451  11.1509  13.9056  14.2445  14.5262
    15.0799  17.3253

          k = 0.0000 0.1465 0.0000 (  5850 PWs)   bands (ev):

   -45.5244 -23.9512 -23.3566 -23.2847 -20.7270 -12.9537  -3.0953  -2.6635
    -2.5632  -1.1247   0.4765   0.9956   3.7559   5.6115   5.8039   5.9609
     6.6729   6.7778   8.2837   9.3351  11.5356  13.5098  13.9300  14.9252
    14.9306  17.3161

          k = 0.0000 0.2198 0.0000 (  5848 PWs)   bands (ev):

   -45.5152 -23.9176 -23.4719 -23.3051 -20.7024 -12.8279  -2.9862  -2.7677
    -2.5670  -1.0721  -0.2155   0.8349   3.7215   5.5587   6.0254   6.0528
     6.9550   6.9885   8.7510   9.8331  11.9132  13.1252  13.5673  15.2795
    15.5746  16.9785

          k = 0.0000 0.2930 0.0000 (  5884 PWs)   bands (ev):

   -45.5043 -23.8840 -23.5937 -23.3291 -20.6812 -12.6715  -2.9792  -2.7717
    -2.5762  -1.1756  -0.7612   0.6601   3.6200   5.6198   6.1849   6.3996
     7.1404   7.4203   9.2370  10.2363  11.7778  12.8215  13.9993  15.7692
    16.3297  16.3696

          k = 0.0000 0.3663 0.0000 (  5902 PWs)   bands (ev):

   -45.4933 -23.8754 -23.6829 -23.3529 -20.6675 -12.5051  -3.0722  -2.6937
    -2.5901  -1.6996  -0.8069   0.4991   3.5023   5.7677   6.4381   6.7906
     7.3342   7.9295   9.5966  10.5062  11.6656  12.5112  14.6480  15.0967
    16.0285  16.2793

          k = 0.0000 0.4395 0.0000 (  5892 PWs)   bands (ev):

   -45.4840 -23.9173 -23.7040 -23.3730 -20.6611 -12.3549  -3.1631  -2.6494
    -2.6054  -2.1741  -0.7561   0.3720   3.4177   5.9688   6.6480   7.0942
     7.5930   8.5305   9.7396  10.7102  11.7943  12.4439  13.6437  15.0303
    15.5028  15.5329

          k = 0.0000 0.5128 0.0000 (  5882 PWs)   bands (ev):

   -45.4778 -23.9670 -23.6939 -23.3864 -20.6592 -12.2493  -3.2335  -2.6683
    -2.6174  -2.4352  -0.7137   0.2913   3.3766   6.1870   6.6910   7.2318
     7.8843   9.1805   9.8045  10.8894  11.8358  12.3912  13.0114  14.4895
    14.8366  15.0646

          k = 0.0000-0.5860 0.0000 (  5882 PWs)   bands (ev):

   -45.4756 -23.9865 -23.6879 -23.3911 -20.6590 -12.2111  -3.2627  -2.7062
    -2.6219  -2.4915  -0.6981   0.2637   3.3658   6.3157   6.6422   7.2682
     8.0128   9.5497   9.8285  11.0742  11.4781  12.3070  13.1672  14.0265
    14.6633  14.8893

          k = 0.0625 0.0366 0.0000 (  5871 PWs)   bands (ev):

   -45.5307 -23.9750 -23.2916 -23.2527 -20.7476 -13.0357  -3.1866  -2.5933
    -2.5395  -1.1797   0.9551   1.1953   3.7339   5.5803   5.8112   5.8462
     6.5586   6.7040   7.9399   8.8363  11.1461  13.9042  14.0916  14.7315
    15.0608  17.2604

          k = 0.0625 0.1099 0.0000 (  5871 PWs)   bands (ev):

   -45.5266 -23.9591 -23.3364 -23.2730 -20.7334 -12.9814  -3.1242  -2.6427
    -2.5544  -1.1417   0.6225   1.0633   3.7506   5.5808   5.8205   5.9508
     6.5768   6.7822   8.1724   9.1912  11.4116  13.6543  13.9527  14.7719
    15.0180  17.3366

          k = 0.0625 0.1831 0.0000 (  5862 PWs)   bands (ev):

   -45.5189 -23.9305 -23.4291 -23.2959 -20.7110 -12.8780  -3.0193  -2.7375
    -2.5640  -1.0871   0.0407   0.8840   3.7462   5.5207   5.9843   6.0450
     6.7438   6.9744   8.5765   9.6734  11.8846  13.1239  13.6584  14.9570
    15.5150  16.9168

          k = 0.0625 0.2564 0.0000 (  5877 PWs)   bands (ev):

   -45.5088 -23.8960 -23.5441 -23.3223 -20.6883 -12.7365  -2.9421  -2.8044
    -2.5760  -1.0731  -0.5850   0.6814   3.6867   5.5375   6.0829   6.3486
     6.9936   7.2836   9.0575  10.1264  12.0285  12.9635  13.4623  15.4218
    16.1968  16.4906

          k = 0.0625 0.3296 0.0000 (  5875 PWs)   bands (ev):

   -45.4978 -23.8717 -23.6489 -23.3498 -20.6713 -12.5744  -3.0120  -2.7340
    -2.5939  -1.4232  -0.8207   0.4839   3.5905   5.6743   6.2399   6.7252
     7.2184   7.7377   9.4954  10.4883  11.7903  12.6353  14.2500  15.3224
    15.9153  16.3492

          k = 0.0625 0.4029 0.0000 (  5899 PWs)   bands (ev):

   -45.4877 -23.8890 -23.7000 -23.3750 -20.6615 -12.4150  -3.1055  -2.6662
    -2.6163  -1.9380  -0.7844   0.3157   3.5067   5.8855   6.4546   7.0145
     7.4570   8.3320   9.7618  10.7349  11.7763  12.4549  14.1934  14.8478
    15.4446  16.2662

          k = 0.0625 0.4761 0.0000 (  5891 PWs)   bands (ev):

   -45.4799 -23.9398 -23.6980 -23.3942 -20.6576 -12.2858  -3.1824  -2.6827
    -2.6138  -2.2902  -0.7348   0.1942   3.4607   6.1182   6.6183   7.1593
     7.6980   9.0379   9.8726  10.9096  11.9060  12.4810  13.1910  14.5256
    14.9723  15.5686

          k = 0.0625 0.5494 0.0000 (  5883 PWs)   bands (ev):

   -45.4757 -23.9749 -23.6879 -23.4045 -20.6567 -12.2129  -3.2304  -2.7471
    -2.6076  -2.4256  -0.7051   0.1308   3.4454   6.3101   6.6450   7.2102
     7.8665   9.6471   9.9581  11.0738  11.6682  12.3322  13.0812  14.0887
    14.6624  14.9949

          k = 0.1250 0.0733 0.0000 (  5860 PWs)   bands (ev):

   -45.5250 -23.9526 -23.3696 -23.2666 -20.7273 -12.9582  -3.0982  -2.6797
    -2.5410  -1.1293   0.4159   1.0844   3.7419   5.5172   5.9173   5.9591
     6.6450   6.8326   8.2648   9.3175  11.5175  13.4528  13.8879  14.9022
    15.1086  17.3440

          k = 0.1250 0.1465 0.0000 (  5864 PWs)   bands (ev):

   -45.5193 -23.9315 -23.4351 -23.2861 -20.7111 -12.8813  -3.0215  -2.7443
    -2.5528  -1.0905   0.0086   0.9382   3.7334   5.5003   6.0038   6.0585
     6.7405   6.9922   8.5647   9.6653  11.8723  13.0999  13.6364  14.9543
    15.5799  16.9486

          k = 0.1250 0.2198 0.0000 (  5850 PWs)   bands (ev):

   -45.5107 -23.9016 -23.5265 -23.3162 -20.6910 -12.7620  -2.9235  -2.8235
    -2.5729  -1.0602  -0.4935   0.6895   3.7110   5.4714   6.1012   6.3565
     6.8947   7.2633   8.9860  10.0947  12.4197  12.6856  13.2438  15.2185
    16.1954  16.4767

          k = 0.1250 0.2930 0.0000 (  5874 PWs)   bands (ev):

   -45.5006 -23.8733 -23.6213 -23.3521 -20.6730 -12.6141  -2.9485  -2.7824
    -2.6010  -1.2325  -0.8201   0.4081   3.6748   5.5408   6.2093   6.6904
     7.1359   7.6651   9.4340  10.5276  12.2308  12.7328  13.3990  15.1678
    16.0200  16.4477

          k = 0.1250 0.3663 0.0000 (  5895 PWs)   bands (ev):

   -45.4905 -23.8693 -23.6861 -23.3881 -20.6604 -12.4574  -3.0349  -2.6985
    -2.6342  -1.6883  -0.8158   0.1492   3.6415   5.7392   6.3369   6.9045
     7.4143   8.2627   9.8047  10.9110  12.0055  12.5113  14.1816  14.5734
    15.2753  16.2947

          k = 0.1250 0.4395 0.0000 (  5882 PWs)   bands (ev):

   -45.4819 -23.9049 -23.6979 -23.4186 -20.6537 -12.3166  -3.1075  -2.7124
    -2.6215  -2.0675  -0.7671  -0.0557   3.6291   6.0241   6.4546   7.0427
     7.5931   9.0312  10.0317  11.1732  11.9914  12.4879  13.6113  14.2742
    15.0541  16.1102

          k = 0.1250 0.5128 0.0000 (  5880 PWs)   bands (ev):

   -45.4761 -23.9448 -23.6877 -23.4392 -20.6510 -12.2180  -3.1562  -2.7913
    -2.5979  -2.2707  -0.7279  -0.1874   3.6348   6.2920   6.5429   7.1249
     7.6547   9.8058  10.1907  11.2891  11.9683  12.4605  12.9928  14.0410
    14.7145  15.4294

          k = 0.1250 0.5860 0.0000 (  5872 PWs)   bands (ev):

   -45.4741 -23.9604 -23.6821 -23.4464 -20.6504 -12.1824  -3.1740  -2.8339
    -2.5921  -2.3247  -0.7130  -0.2330   3.6403   6.3932   6.5994   7.1351
     7.6690  10.0352  10.5080  11.4185  11.5615  12.3035  13.1239  13.9437
    14.6632  14.9185

          k = 0.1250 0.0000 0.0000 (  5835 PWs)   bands (ev):

   -45.5269 -23.9601 -23.3455 -23.2600 -20.7336 -12.9847  -3.1262  -2.6555
    -2.5371  -1.1452   0.5863   1.1169   3.7434   5.5031   5.9003   5.9593
     6.5851   6.7988   8.1567   9.1768  11.4001  13.5966  13.9329  14.8298
    15.0987  17.3664

          k = 0.1875 0.1099 0.0000 (  5863 PWs)   bands (ev):

   -45.5163 -23.9204 -23.4811 -23.2855 -20.7026 -12.8377  -2.9916  -2.7788
    -2.5439  -1.0820  -0.2615   0.9353   3.6929   5.5182   5.9925   6.1611
     6.9613   7.0122   8.7195   9.8171  11.8930  13.0823  13.5179  15.2384
    15.7346  17.0274

          k = 0.1875 0.1831 0.0000 (  5861 PWs)   bands (ev):

   -45.5097 -23.8986 -23.5508 -23.3064 -20.6885 -12.7453  -2.9479  -2.8098
    -2.5590  -1.0855  -0.6191   0.7701   3.6577   5.5328   6.0782   6.3846
     7.0154   7.2834   9.0336  10.1195  12.0251  12.9256  13.4029  15.3867
    16.2824  16.5207

          k = 0.1875 0.2564 0.0000 (  5865 PWs)   bands (ev):

   -45.5012 -23.8750 -23.6243 -23.3436 -20.6729 -12.6196  -2.9524  -2.7827
    -2.5932  -1.2478  -0.8286   0.4560   3.6581   5.5448   6.2088   6.6982
     7.1523   7.6598   9.4218  10.5288  12.2421  12.7284  13.3328  15.1640
    15.9698  16.4327

          k = 0.1875 0.3296 0.0000 (  5878 PWs)   bands (ev):

   -45.4919 -23.8642 -23.6787 -23.3908 -20.6596 -12.4765  -2.9999  -2.7200
    -2.6375  -1.5793  -0.8370   0.0848   3.6982   5.6305   6.3790   6.8090
     7.4264   8.2423   9.8119  10.9916  12.3408  12.5531  13.6241  14.4296
    15.5672  16.0509

          k = 0.1875 0.4029 0.0000 (  5892 PWs)   bands (ev):

   -45.4833 -23.8811 -23.6951 -23.4385 -20.6504 -12.3371  -3.0515  -2.7306
    -2.6297  -1.8817  -0.8075  -0.2530   3.7640   5.8242   6.5150   6.8652
     7.6042   9.0326  10.1326  11.4282  12.2517  12.5129  13.7308  14.3154
    14.6738  15.6345

          k = 0.1875 0.4761 0.0000 (  5881 PWs)   bands (ev):

   -45.4767 -23.9107 -23.6871 -23.4771 -20.6452 -12.2251  -3.0931  -2.8009
    -2.5937  -2.0831  -0.7857  -0.4960   3.8335   6.1030   6.5285   7.0101
     7.6041   9.8955  10.3410  11.6862  12.1286  12.6582  13.2406  13.9235
    14.7480  15.4399

          k = 0.1875 0.5494 0.0000 (  5861 PWs)   bands (ev):

   -45.4731 -23.9300 -23.6780 -23.4988 -20.6431 -12.1624  -3.1169  -2.8553
    -2.5770  -2.1735  -0.7866  -0.6100   3.8792   6.3445   6.5122   7.1302
     7.5036  10.2458  10.9158  11.7188  11.9263  12.3913  13.1555  14.0094
    14.5453  15.1803

          k = 0.1875-0.0366 0.0000 (  5838 PWs)   bands (ev):

   -45.5198 -23.9328 -23.4364 -23.2796 -20.7111 -12.8864  -3.0238  -2.7482
    -2.5430  -1.0953   0.0124   0.9505   3.7295   5.4581   6.0036   6.1160
     6.7840   6.9675   8.5452   9.6564  11.8638  13.1007  13.6309  14.9716
    15.6201  16.9324

          k = 0.2500 0.1465 0.0000 (  5866 PWs)   bands (ev):

   -45.5060 -23.8885 -23.5994 -23.3072 -20.6811 -12.6880  -2.9865  -2.7780
    -2.5509  -1.1990  -0.7854   0.7735   3.5819   5.6162   6.1503   6.4788
     7.1868   7.3991   9.1966  10.2289  11.7718  12.7792  13.9119  15.6825
    16.2182  16.5102

          k = 0.2500 0.2198 0.0000 (  5878 PWs)   bands (ev):

   -45.4995 -23.8760 -23.6542 -23.3295 -20.6710 -12.5900  -3.0191  -2.7370
    -2.5729  -1.4528  -0.8375   0.5953   3.5515   5.6810   6.2304   6.7579
     7.2572   7.7197   9.4634  10.4924  11.7840  12.5977  14.1354  15.2247
    15.8982  16.3614

          k = 0.2500 0.2930 0.0000 (  5868 PWs)   bands (ev):

   -45.4917 -23.8726 -23.6898 -23.3731 -20.6600 -12.4698  -3.0401  -2.6939
    -2.6256  -1.7107  -0.8263   0.2295   3.6135   5.7458   6.3340   6.9203
     7.4334   8.2520   9.7842  10.9265  12.0058  12.4992  14.0950  14.4918
    15.2126  16.2880

          k = 0.2500 0.3663 0.0000 (  5873 PWs)   bands (ev):

   -45.4839 -23.8827 -23.6969 -23.4310 -20.6500 -12.3440  -3.0535  -2.7230
    -2.6315  -1.8916  -0.8113  -0.2157   3.7515   5.8247   6.5157   6.8714
     7.6093   9.0277  10.1220  11.4434  12.2503  12.5364  13.7171  14.2043
    14.6169  15.7064

          k = 0.2500 0.4395 0.0000 (  5876 PWs)   bands (ev):

   -45.4773 -23.8955 -23.6875 -23.4907 -20.6425 -12.2327  -3.0723  -2.7939
    -2.5931  -1.9840  -0.8526  -0.5866   3.9190   5.9655   6.5940   6.9169
     7.6215   9.9128  10.3910  11.7632  12.3123  12.8314  13.4710  13.9985
    14.4299  14.9896

          k = 0.2500 0.5128 0.0000 (  5865 PWs)   bands (ev):

   -45.4729 -23.9022 -23.6766 -23.5366 -20.6379 -12.1557  -3.1034  -2.8234
    -2.5653  -2.0120  -1.0555  -0.6904   4.0564   6.1679   6.5159   7.0876
     7.4996  10.3517  10.9379  11.6906  12.5748  12.9862  13.1991  13.7783
    14.4444  14.9865

          k = 0.2500 0.5860 0.0000 (  5860 PWs)   bands (ev):

   -45.4714 -23.9037 -23.6722 -23.5540 -20.6364 -12.1282  -3.1202  -2.8262
    -2.5551  -2.0132  -1.1645  -0.6987   4.1096   6.2966   6.4658   7.1457
     7.4235  10.3285  11.5957  11.8981  11.9454  12.8879  13.3892  13.8551
    14.4800  15.0727

          k = 0.2500-0.0733 0.0000 (  5866 PWs)   bands (ev):

   -45.5104 -23.9000 -23.5476 -23.3042 -20.6881 -12.7516  -2.9482  -2.8104
    -2.5534  -1.0869  -0.6006   0.7579   3.6626   5.5137   6.0802   6.4149
     7.0420   7.2603   9.0153  10.1147  12.0323  12.9372  13.4302  15.4071
    16.2190  16.5023

          k = 0.2500 0.0000 0.0000 (  5832 PWs)   bands (ev):

   -45.5119 -23.9044 -23.5252 -23.3070 -20.6906 -12.7736  -2.9272  -2.8259
    -2.5587  -1.0687  -0.4789   0.7056   3.7059   5.4392   6.1147   6.4022
     6.9372   7.2381   8.9515  10.0848  12.4154  12.7146  13.2441  15.2158
    16.1586  16.4870

          k = 0.3125 0.1831 0.0000 (  5881 PWs)   bands (ev):

   -45.4958 -23.8802 -23.6870 -23.3288 -20.6666 -12.5290  -3.0787  -2.6972
    -2.5622  -1.7192  -0.8275   0.6240   3.4613   5.7790   6.4110   6.8394
     7.3796   7.8992   9.5556  10.5130  11.6449  12.4642  14.4899  15.0016
    16.1383  16.2130

          k = 0.3125 0.2564 0.0000 (  5875 PWs)   bands (ev):

   -45.4900 -23.8932 -23.7050 -23.3515 -20.6605 -12.4381  -3.1128  -2.6639
    -2.5944  -1.9589  -0.8042   0.4406   3.4646   5.8974   6.4380   7.0485
     7.4873   8.3075   9.7316  10.7532  11.7480  12.4086  14.0487  14.7763
    15.4347  16.2247

          k = 0.3125 0.3296 0.0000 (  5867 PWs)   bands (ev):

   -45.4838 -23.9079 -23.7025 -23.3994 -20.6525 -12.3365  -3.1133  -2.6930
    -2.6236  -2.0813  -0.7829   0.0416   3.5973   6.0307   6.4458   7.0653
     7.6038   9.0152  10.0090  11.2146  11.9715  12.4593  13.5024  14.2536
    14.9407  16.0673

          k = 0.3125 0.4029 0.0000 (  5877 PWs)   bands (ev):

   -45.4780 -23.9119 -23.6905 -23.4646 -20.6441 -12.2395  -3.0948  -2.7921
    -2.5943  -2.0892  -0.7886  -0.4435   3.8164   6.0964   6.5306   7.0210
     7.6088   9.8761  10.3229  11.7313  12.1531  12.6499  13.1328  13.9305
    14.6362  15.5145

          k = 0.3125 0.4761 0.0000 (  5866 PWs)   bands (ev):

   -45.4736 -23.9020 -23.6784 -23.5313 -20.6372 -12.1632  -3.1018  -2.8211
    -2.5651  -2.0135  -1.0332  -0.6929   4.0520   6.1587   6.5174   7.0929
     7.5027  10.3261  10.9354  11.7068  12.5506  13.0233  13.1546  13.8421
    14.4075  14.9597

          k = 0.3125 0.5494 0.0000 (  5865 PWs)   bands (ev):

   -45.4712 -23.8882 -23.6716 -23.5763 -20.6333 -12.1211  -3.1294  -2.7959
    -2.5433  -1.8701  -1.4071  -0.7108   4.2116   6.2422   6.4535   7.0965
     7.4619  10.3067  11.6138  11.8466  12.6047  12.8603  13.5064  13.7855
    14.5586  15.1737

          k = 0.3125-0.1099 0.0000 (  5868 PWs)   bands (ev):

   -45.5001 -23.8761 -23.6503 -23.3298 -20.6702 -12.5967  -3.0161  -2.7383
    -2.5691  -1.4315  -0.8368   0.5725   3.5638   5.6787   6.2343   6.7607
     7.2585   7.7104   9.4481  10.4890  11.7971  12.6054  14.1935  15.2334
    15.8864  16.3310

          k = 0.3125-0.0366 0.0000 (  5854 PWs)   bands (ev):

   -45.5025 -23.8766 -23.6180 -23.3407 -20.6718 -12.6327  -2.9486  -2.7857
    -2.5838  -1.2233  -0.8208   0.4345   3.6697   5.5290   6.2270   6.7125
     7.1612   7.6423   9.3898  10.5211  12.2732  12.7442  13.3904  15.1359
    15.9347  16.4061

          k = 0.3750 0.2198 0.0000 (  5885 PWs)   bands (ev):

   -45.4870 -23.9194 -23.7099 -23.3469 -20.6593 -12.3858  -3.1704  -2.6477
    -2.5747  -2.1832  -0.7812   0.5056   3.3759   5.9834   6.6346   7.1280
     7.6190   8.4902   9.7069  10.7171  11.7486  12.3798  13.5146  14.9350
    15.3998  15.6782

          k = 0.3750 0.2930 0.0000 (  5877 PWs)   bands (ev):

   -45.4828 -23.9416 -23.7045 -23.3687 -20.6557 -12.3159  -3.1912  -2.6631
    -2.6036  -2.2971  -0.7593   0.3249   3.4191   6.1336   6.5998   7.1988
     7.7025   9.0084   9.8502  10.9248  11.8497  12.4079  13.0890  14.5048
    14.8793  15.6077

          k = 0.3750 0.3663 0.0000 (  5876 PWs)   bands (ev):

   -45.4786 -23.9456 -23.6938 -23.4179 -20.6490 -12.2447  -3.1627  -2.7736
    -2.5958  -2.2690  -0.7483  -0.0861   3.6047   6.3064   6.5220   7.1552
     7.6508   9.7665  10.1811  11.3404  11.9034  12.3900  12.9428  14.0240
    14.6168  15.4151

          k = 0.3750 0.4395 0.0000 (  5862 PWs)   bands (ev):

   -45.4750 -23.9289 -23.6828 -23.4844 -20.6411 -12.1835  -3.1167  -2.8452
    -2.5756  -2.1676  -0.7783  -0.5705   3.8650   6.3388   6.5033   7.1536
     7.4997  10.1871  10.9109  11.7202  11.9223  12.4007  13.1089  13.9819
    14.5025  15.1334

          k = 0.3750 0.5128 0.0000 (  5876 PWs)   bands (ev):

   -45.4726 -23.9008 -23.6752 -23.5475 -20.6348 -12.1422  -3.1162  -2.8202
    -2.5538  -2.0017  -1.1391  -0.7099   4.1100   6.2888   6.4546   7.1571
     7.4257  10.2777  11.6057  11.8344  11.8977  13.0119  13.4138  13.8546
    14.4459  15.0476

          k = 0.3750 0.5860 0.0000 (  5856 PWs)   bands (ev):

   -45.4718 -23.8850 -23.6727 -23.5756 -20.6324 -12.1276  -3.1272  -2.7915
    -2.5422  -1.8465  -1.4174  -0.7173   4.2174   6.2445   6.4405   7.0981
     7.4638  10.2807  11.6284  11.7339  12.6777  12.8555  13.6337  13.7228
    14.5346  15.1578

          k = 0.3750-0.1465 0.0000 (  5880 PWs)   bands (ev):

   -45.4906 -23.8905 -23.7037 -23.3528 -20.6596 -12.4442  -3.1090  -2.6660
    -2.5907  -1.9367  -0.8066   0.4171   3.4789   5.9016   6.4510   7.0345
     7.4817   8.2919   9.7169  10.7516  11.7545  12.4094  14.0661  14.8214
    15.3972  16.2634

          k = 0.3750-0.0733 0.0000 (  5874 PWs)   bands (ev):

   -45.4930 -23.8698 -23.6853 -23.3742 -20.6583 -12.4827  -3.0336  -2.6976
    -2.6167  -1.6670  -0.8306   0.1919   3.6354   5.7436   6.3460   6.9252
     7.4154   8.2287   9.7539  10.9180  12.0324  12.5098  14.1665  14.5043
    15.2341  16.2502

          k = 0.3750 0.0000 0.0000 (  5852 PWs)   bands (ev):

   -45.4938 -23.8632 -23.6736 -23.3867 -20.6576 -12.4961  -2.9939  -2.7214
    -2.6255  -1.5336  -0.8443   0.0670   3.7129   5.6229   6.3973   6.8219
     7.4125   8.2137   9.7676  10.9822  12.3602  12.6220  13.6504  14.4019
    15.5609  15.9873

          k = 0.4375 0.2564 0.0000 (  5876 PWs)   bands (ev):

   -45.4812 -23.9668 -23.7016 -23.3590 -20.6567 -12.2853  -3.2429  -2.6580
    -2.5846  -2.4396  -0.7423   0.4304   3.3340   6.1986   6.6946   7.2692
     7.8762   9.1315   9.7798  10.8797  11.7500  12.2951  12.9472  14.4094
    14.7172  15.2541

          k = 0.4375 0.3296 0.0000 (  5885 PWs)   bands (ev):

   -45.4790 -23.9745 -23.6956 -23.3783 -20.6541 -12.2479  -3.2401  -2.7264
    -2.5950  -2.4205  -0.7327   0.2606   3.4062   6.3224   6.6433   7.2478
     7.8479   9.5940   9.9584  11.0683  11.5552  12.2573  13.0398  14.0253
    14.5659  15.1099

          k = 0.4375 0.4029 0.0000 (  5875 PWs)   bands (ev):

   -45.4770 -23.9586 -23.6890 -23.4253 -20.6477 -12.2137  -3.1792  -2.8145
    -2.5877  -2.3118  -0.7358  -0.1386   3.6156   6.4020   6.5942   7.1645
     7.6520   9.9615  10.5101  11.4172  11.5023  12.2630  13.0860  13.8857
    14.6075  14.9345

          k = 0.4375 0.4761 0.0000 (  5871 PWs)   bands (ev):

   -45.4754 -23.9256 -23.6833 -23.4856 -20.6404 -12.1879  -3.1149  -2.8400
    -2.5748  -2.1542  -0.7777  -0.5869   3.8731   6.3504   6.4938   7.1666
     7.4806  10.1706  10.8230  11.7486  11.9654  12.4051  13.1022  13.9881
    14.5238  15.1570

          k = 0.4375 0.5494 0.0000 (  5874 PWs)   bands (ev):

   -45.4746 -23.8952 -23.6796 -23.5325 -20.6356 -12.1741  -3.0987  -2.8105
    -2.5633  -1.9766  -1.0495  -0.7094   4.0669   6.1682   6.4933   7.1205
     7.4763  10.2924  10.8181  11.7304  12.5436  13.0621  13.2421  13.8050
    14.4255  14.9965

          k = 0.4375-0.1831 0.0000 (  5888 PWs)   bands (ev):

   -45.4832 -23.9385 -23.7047 -23.3700 -20.6550 -12.3201  -3.1876  -2.6643
    -2.6012  -2.2823  -0.7611   0.3078   3.4300   6.1321   6.6264   7.1807
     7.7000   8.9788   9.8334  10.9260  11.8555  12.4012  13.1014  14.5343
    14.8783  15.6105

          k = 0.4375-0.1099 0.0000 (  5870 PWs)   bands (ev):

   -45.4847 -23.9015 -23.7022 -23.4019 -20.6509 -12.3470  -3.1068  -2.6916
    -2.6192  -2.0455  -0.7869   0.0058   3.6188   6.0372   6.4546   7.0712
     7.5778   8.9737   9.9730  11.2103  11.9846  12.4529  13.5367  14.2731
    14.9922  16.1051

          k = 0.4375-0.0366 0.0000 (  5867 PWs)   bands (ev):

   -45.4856 -23.8753 -23.6955 -23.4319 -20.6477 -12.3615  -3.0459  -2.7160
    -2.6276  -1.8366  -0.8182  -0.2559   3.7759   5.8240   6.5108   6.9013
     7.5745   8.9803  10.0702  11.4285  12.2470  12.5928  13.7209  14.2886
    14.6608  15.6703

          k =-0.5000-0.2930 0.0000 (  5886 PWs)   bands (ev):

   -45.4791 -23.9855 -23.6962 -23.3632 -20.6562 -12.2489  -3.2732  -2.6914
    -2.5886  -2.4951  -0.7279   0.4047   3.3229   6.3212   6.6578   7.3080
     7.9891   9.4864   9.8263  11.0527  11.3579  12.2259  13.1135  13.9538
    14.5440  15.0875

          k =-0.5000-0.2198 0.0000 (  5873 PWs)   bands (ev):

   -45.4791 -23.9733 -23.6958 -23.3789 -20.6538 -12.2494  -3.2385  -2.7260
    -2.5944  -2.4160  -0.7334   0.2544   3.4103   6.3158   6.6628   7.2384
     7.8491   9.5704   9.9510  11.0646  11.5769  12.2524  13.0294  14.0424
    14.5908  15.0908

          k =-0.5000-0.1465 0.0000 (  5870 PWs)   bands (ev):

   -45.4791 -23.9411 -23.6942 -23.4197 -20.6480 -12.2506  -3.1582  -2.7695
    -2.5944  -2.2516  -0.7501  -0.1076   3.6176   6.3004   6.5483   7.1521
     7.6345   9.7245  10.1368  11.3396  11.9431  12.3823  12.9418  14.0502
    14.6527  15.4169

          k =-0.5000-0.0733 0.0000 (  5863 PWs)   bands (ev):

   -45.4791 -23.9038 -23.6913 -23.4671 -20.6422 -12.2518  -3.0893  -2.7820
    -2.5922  -2.0496  -0.7908  -0.4820   3.8374   6.1071   6.5136   7.0548
     7.5702   9.8253  10.2497  11.7232  12.1528  12.6792  13.1837  13.9365
    14.7044  15.5220

          k =-0.5000-0.0000 0.0000 (  5884 PWs)   bands (ev):

   -45.4791 -23.8862 -23.6891 -23.4898 -20.6399 -12.2523  -3.0667  -2.7790
    -2.5912  -1.9320  -0.8570  -0.6193   3.9390   5.9661   6.5633   6.9716
     7.5819   9.8529  10.3006  11.7732  12.2690  12.9435  13.4960  14.0185
    14.4412  15.0195

     highest occupied, lowest unoccupied level (ev):     4.2174    5.4392

!    total energy              =    -571.23422986 Ry
     total all-electron energy =    -12610.611641 Ry
     estimated scf accuracy    <          8.0E-12 Ry

     The total energy is the sum of the following terms:
     one-electron contribution =    -277.17680816 Ry
     hartree contribution      =     146.99992087 Ry
     xc contribution           =     -36.33566791 Ry
     ewald contribution        =      -7.86742678 Ry
     one-center paw contrib.   =    -396.85424789 Ry

     convergence has been achieved in   7 iterations

     negative rho (up, down):  3.513E-05 0.000E+00

     Forces acting on atoms (cartesian axes, Ry/au):

     atom    1 type  1   force =     0.00000000   -0.00012846    0.00020532
     atom    2 type  2   force =     0.00000000   -0.00017345   -0.00078030
     atom    3 type  3   force =     0.00000000    0.00030191    0.00057497
     The non-local contrib.  to forces
     atom    1 type  1   force =     0.00000000   -0.00303234   -0.02505160
     atom    2 type  2   force =     0.00000000   -0.02163660   -0.98087702
     atom    3 type  3   force =     0.00000000   -0.00108187    0.21116953
     The ionic contribution  to forces
     atom    1 type  1   force =    -0.00000001   -0.16248513   -0.48288618
     atom    2 type  2   force =     0.00000001    0.11813805   24.23420175
     atom    3 type  3   force =     0.00000000    0.04434708  -23.75131557
     The local contribution  to forces
     atom    1 type  1   force =    -0.00000000    0.16526456    0.50396546
     atom    2 type  2   force =     0.00000027   -0.09674082  -23.25730012
     atom    3 type  3   force =    -0.00000000   -0.04284436   23.54352126
     The core correction contribution to forces
     atom    1 type  1   force =    -0.00000000    0.00012312    0.00417434
     atom    2 type  2   force =     0.00000000    0.00006573    0.00319267
     atom    3 type  3   force =    -0.00000000   -0.00011943   -0.00280217
     The Hubbard contrib.    to forces
     atom    1 type  1   force =     0.00000000    0.00000000    0.00000000
     atom    2 type  2   force =     0.00000000    0.00000000    0.00000000
     atom    3 type  3   force =     0.00000000    0.00000000    0.00000000
     The SCF correction term to forces
     atom    1 type  1   force =     0.00000000    0.00000083    0.00000044
     atom    2 type  2   force =    -0.00000000   -0.00000032   -0.00000041
     atom    3 type  3   force =    -0.00000000   -0.00000000   -0.00000093

     Total force =     0.001058     Total SCF correction =     0.000001
     Energy error            =      9.7E-06 Ry
     Gradient error          =      7.8E-04 Ry/Bohr

     number of scf cycles    =   4
     number of bfgs steps    =   3

     energy             old  =    -571.2342201170 Ry
     energy             new  =    -571.2342298647 Ry

     CASE: energy            _new < energy            _old

     new trust radius        =       0.0040901593 bohr
     new conv_thr            =            1.0E-10 Ry


ATOMIC_POSITIONS (angstrom)
Zr            0.0000000000       -0.0020018337       10.1027690384
F            -0.0000000020        1.9302626471       11.4001074809
Br           -0.0000000020        1.9335469498        8.2153021937



     Writing config-only to output data dir ./tmp/ZrFBr.save/
     NEW-OLD atomic charge density approx. for the potential

     Check: negative core charge=   -0.000002

     negative rho (up, down):  3.532E-05 0.000E+00

     total cpu time spent up to now is       48.2 secs

     Self-consistent Calculation

     iteration #  1     ecut=    65.00 Ry     beta= 0.70
     Davidson diagonalization with overlap
     ethr =  1.00E-06,  avg # of iterations =  3.0

     Threshold (ethr) on eigenvalues was too large:
     Diagonalizing with lowered threshold

     Davidson diagonalization with overlap
     ethr =  9.66E-09,  avg # of iterations =  2.1

     negative rho (up, down):  3.551E-05 0.000E+00

     total cpu time spent up to now is       51.4 secs

     total energy              =    -571.23423165 Ry
     estimated scf accuracy    <       0.00000262 Ry

     iteration #  2     ecut=    65.00 Ry     beta= 0.70
     Davidson diagonalization with overlap
     ethr =  1.01E-08,  avg # of iterations =  2.0

     negative rho (up, down):  3.534E-05 0.000E+00

     total cpu time spent up to now is       52.8 secs

     total energy              =    -571.23423142 Ry
     estimated scf accuracy    <       0.00000673 Ry

     iteration #  3     ecut=    65.00 Ry     beta= 0.70
     Davidson diagonalization with overlap
     ethr =  1.01E-08,  avg # of iterations =  2.0

     negative rho (up, down):  3.527E-05 0.000E+00

     total cpu time spent up to now is       54.1 secs

     total energy              =    -571.23423279 Ry
     estimated scf accuracy    <       0.00000028 Ry

     iteration #  4     ecut=    65.00 Ry     beta= 0.70
     Davidson diagonalization with overlap
     ethr =  1.09E-09,  avg # of iterations =  2.0

     negative rho (up, down):  3.525E-05 0.000E+00

     total cpu time spent up to now is       55.4 secs

     total energy              =    -571.23423284 Ry
     estimated scf accuracy    <       0.00000004 Ry

     iteration #  5     ecut=    65.00 Ry     beta= 0.70
     Davidson diagonalization with overlap
     ethr =  1.47E-10,  avg # of iterations =  2.0

     negative rho (up, down):  3.525E-05 0.000E+00

     total cpu time spent up to now is       56.8 secs

     total energy              =    -571.23423285 Ry
     estimated scf accuracy    <          4.7E-09 Ry

     iteration #  6     ecut=    65.00 Ry     beta= 0.70
     Davidson diagonalization with overlap
     ethr =  1.81E-11,  avg # of iterations =  2.0

     negative rho (up, down):  3.524E-05 0.000E+00

     total cpu time spent up to now is       58.2 secs

     total energy              =    -571.23423285 Ry
     estimated scf accuracy    <          2.7E-10 Ry

     iteration #  7     ecut=    65.00 Ry     beta= 0.70
     Davidson diagonalization with overlap
     ethr =  1.05E-12,  avg # of iterations =  2.0

     negative rho (up, down):  3.524E-05 0.000E+00

     total cpu time spent up to now is       59.6 secs

     End of self-consistent calculation

          k = 0.0000 0.0000 0.0000 (  5891 PWs)   bands (ev):

   -45.5261 -23.9788 -23.2602 -23.2389 -20.7587 -13.0625  -3.2238  -2.5702
    -2.5421  -1.1983   1.1476   1.2501   3.7319   5.6257   5.7478   5.8005
     6.5964   6.6680   7.8192   8.6159  11.0181  13.8492  14.3956  14.6617
    15.2019  17.0885

          k = 0.0000 0.0733 0.0000 (  5862 PWs)   bands (ev):

   -45.5239 -23.9704 -23.2687 -23.2650 -20.7506 -13.0347  -3.1902  -2.5781
    -2.5698  -1.1760   1.0294   1.1058   3.7473   5.6702   5.7320   5.8483
     6.6128   6.6485   7.9450   8.8443  11.1511  13.9016  14.2482  14.5297
    15.0937  17.3303

          k = 0.0000 0.1465 0.0000 (  5850 PWs)   bands (ev):

   -45.5178 -23.9470 -23.3510 -23.2787 -20.7299 -12.9538  -3.0999  -2.6696
    -2.5701  -1.1223   0.4743   0.9911   3.7651   5.6207   5.8114   5.9624
     6.6758   6.7845   8.2835   9.3339  11.5366  13.5137  13.9309  14.9283
    14.9373  17.3208

          k = 0.0000 0.2198 0.0000 (  5848 PWs)   bands (ev):

   -45.5085 -23.9133 -23.4665 -23.2992 -20.7050 -12.8282  -2.9912  -2.7732
    -2.5736  -1.0700  -0.2169   0.8307   3.7293   5.5673   6.0290   6.0598
     6.9623   6.9907   8.7522   9.8318  11.9159  13.1293  13.5707  15.2803
    15.5771  16.9834

          k = 0.0000 0.2930 0.0000 (  5884 PWs)   bands (ev):

   -45.4976 -23.8798 -23.5885 -23.3232 -20.6837 -12.6719  -2.9849  -2.7761
    -2.5826  -1.1758  -0.7598   0.6562   3.6268   5.6268   6.1908   6.4061
     7.1485   7.4224   9.2401  10.2352  11.7806  12.8286  13.9986  15.7702
    16.3298  16.3707

          k = 0.0000 0.3663 0.0000 (  5902 PWs)   bands (ev):

   -45.4866 -23.8717 -23.6774 -23.3471 -20.6699 -12.5056  -3.0776  -2.6980
    -2.5963  -1.7008  -0.8041   0.4954   3.5087   5.7733   6.4450   6.7967
     7.3428   7.9325   9.6019  10.5052  11.6673  12.5176  14.6467  15.0973
    16.0333  16.2837

          k = 0.0000 0.4395 0.0000 (  5892 PWs)   bands (ev):

   -45.4773 -23.9140 -23.6982 -23.3672 -20.6634 -12.3556  -3.1680  -2.6533
    -2.6115  -2.1754  -0.7534   0.3685   3.4240   5.9740   6.6542   7.1012
     7.6007   8.5359   9.7444  10.7105  11.7972  12.4479  13.6429  15.0304
    15.5084  15.5383

          k = 0.0000 0.5128 0.0000 (  5882 PWs)   bands (ev):

   -45.4710 -23.9638 -23.6881 -23.3805 -20.6615 -12.2501  -3.2380  -2.6711
    -2.6234  -2.4376  -0.7111   0.2879   3.3830   6.1925   6.6961   7.2400
     7.8907   9.1886   9.8067  10.8923  11.8391  12.3927  13.0115  14.4910
    14.8397  15.0706

          k = 0.0000-0.5860 0.0000 (  5882 PWs)   bands (ev):

   -45.4688 -23.9833 -23.6821 -23.3852 -20.6613 -12.2119  -3.2669  -2.7083
    -2.6279  -2.4947  -0.6955   0.2604   3.3723   6.3218   6.6466   7.2767
     8.0188   9.5585   9.8310  11.0794  11.4763  12.3112  13.1661  14.0301
    14.6643  14.8955

          k = 0.0625 0.0366 0.0000 (  5871 PWs)   bands (ev):

   -45.5241 -23.9708 -23.2857 -23.2467 -20.7507 -13.0358  -3.1910  -2.6001
    -2.5461  -1.1774   0.9511   1.1923   3.7438   5.5881   5.8205   5.8475
     6.5638   6.7074   7.9389   8.8358  11.1462  13.9002  14.0955  14.7349
    15.0739  17.2658

          k = 0.0625 0.1099 0.0000 (  5871 PWs)   bands (ev):

   -45.5199 -23.9549 -23.3307 -23.2670 -20.7363 -12.9815  -3.1286  -2.6491
    -2.5611  -1.1394   0.6197   1.0594   3.7599   5.5895   5.8282   5.9527
     6.5805   6.7876   8.1720   9.1903  11.4122  13.6585  13.9516  14.7772
    15.0246  17.3419

          k = 0.0625 0.1831 0.0000 (  5862 PWs)   bands (ev):

   -45.5122 -23.9262 -23.4237 -23.2900 -20.7137 -12.8782  -3.0241  -2.7435
    -2.5706  -1.0848   0.0388   0.8799   3.7543   5.5299   5.9893   6.0498
     6.7480   6.9795   8.5771   9.6720  11.8863  13.1279  13.6627  14.9583
    15.5179  16.9214

          k = 0.0625 0.2564 0.0000 (  5877 PWs)   bands (ev):

   -45.5021 -23.8918 -23.5389 -23.3164 -20.6908 -12.7369  -2.9476  -2.8093
    -2.5824  -1.0718  -0.5854   0.6775   3.6936   5.5461   6.0871   6.3554
     7.0003   7.2865   9.0598  10.1250  12.0316  12.9698  13.4636  15.4215
    16.1985  16.4951

          k = 0.0625 0.3296 0.0000 (  5875 PWs)   bands (ev):

   -45.4911 -23.8677 -23.6437 -23.3440 -20.6736 -12.5749  -3.0176  -2.7385
    -2.6001  -1.4244  -0.8182   0.4803   3.5967   5.6815   6.2457   6.7314
     7.2268   7.7401   9.4999  10.4871  11.7924  12.6421  14.2497  15.3246
    15.9174  16.3497

          k = 0.0625 0.4029 0.0000 (  5899 PWs)   bands (ev):

   -45.4810 -23.8855 -23.6943 -23.3692 -20.6638 -12.4156  -3.1107  -2.6706
    -2.6222  -1.9392  -0.7817   0.3124   3.5127   5.8912   6.4611   7.0211
     7.4650   8.3357   9.7677  10.7340  11.7784  12.4601  14.1931  14.8495
    15.4476  16.2728

          k = 0.0625 0.4761 0.0000 (  5891 PWs)   bands (ev):

   -45.4732 -23.9365 -23.6922 -23.3884 -20.6599 -12.2865  -3.1871  -2.6874
    -2.6186  -2.2920  -0.7322   0.1912   3.4668   6.1235   6.6241   7.1669
     7.7055   9.0436   9.8768  10.9110  11.9099  12.4834  13.1905  14.5289
    14.9737  15.5745

          k = 0.0625 0.5494 0.0000 (  5883 PWs)   bands (ev):

   -45.4690 -23.9717 -23.6821 -23.3987 -20.6589 -12.2137  -3.2348  -2.7509
    -2.6121  -2.4285  -0.7027   0.1278   3.4516   6.3161   6.6495   7.2184
     7.8738   9.6543   9.9612  11.0773  11.6689  12.3357  13.0809  14.0913
    14.6644  15.0000

          k = 0.1250 0.0733 0.0000 (  5860 PWs)   bands (ev):

   -45.5183 -23.9483 -23.3640 -23.2606 -20.7302 -12.9583  -3.1027  -2.6861
    -2.5475  -1.1271   0.4128   1.0814   3.7506   5.5260   5.9233   5.9636
     6.6486   6.8371   8.2647   9.3170  11.5182  13.4569  13.8889  14.9073
    15.1118  17.3498

          k = 0.1250 0.1465 0.0000 (  5864 PWs)   bands (ev):

   -45.5126 -23.9272 -23.4297 -23.2802 -20.7138 -12.8815  -3.0261  -2.7504
    -2.5593  -1.0884   0.0065   0.9347   3.7412   5.5095   6.0067   6.0660
     6.7442   6.9972   8.5655   9.6644  11.8738  13.1040  13.6405  14.9553
    15.5826  16.9538

          k = 0.1250 0.2198 0.0000 (  5850 PWs)   bands (ev):

   -45.5040 -23.8973 -23.5213 -23.3103 -20.6935 -12.7624  -2.9286  -2.8291
    -2.5791  -1.0587  -0.4944   0.6860   3.7177   5.4808   6.1048   6.3633
     6.9006   7.2668   8.9882  10.0933  12.4222  12.6895  13.2485  15.2178
    16.1981  16.4804

          k = 0.1250 0.2930 0.0000 (  5874 PWs)   bands (ev):

   -45.4939 -23.8692 -23.6162 -23.3462 -20.6753 -12.6146  -2.9541  -2.7872
    -2.6069  -1.2336  -0.8179   0.4050   3.6806   5.5500   6.2135   6.6965
     7.1440   7.6675   9.4381  10.5261  12.2333  12.7392  13.4003  15.1707
    16.0202  16.4493

          k = 0.1250 0.3663 0.0000 (  5895 PWs)   bands (ev):

   -45.4838 -23.8656 -23.6806 -23.3823 -20.6627 -12.4580  -3.0402  -2.7036
    -2.6397  -1.6896  -0.8133   0.1465   3.6469   5.7473   6.3421   6.9112
     7.4221   8.2654   9.8108  10.9095  12.0072  12.5166  14.1829  14.5772
    15.2764  16.2965

          k = 0.1250 0.4395 0.0000 (  5882 PWs)   bands (ev):

   -45.4751 -23.9016 -23.6921 -23.4129 -20.6559 -12.3173  -3.1123  -2.7179
    -2.6259  -2.0688  -0.7649  -0.0581   3.6345   6.0306   6.4606   7.0501
     7.6007   9.0344  10.0382  11.1727  11.9944  12.4913  13.6124  14.2767
    15.0555  16.1170

          k = 0.1250 0.5128 0.0000 (  5880 PWs)   bands (ev):

   -45.4694 -23.9416 -23.6818 -23.4334 -20.6532 -12.2188  -3.1608  -2.7960
    -2.6021  -2.2726  -0.7258  -0.1895   3.6406   6.2977   6.5485   7.1326
     7.6632   9.8097  10.1958  11.2905  11.9730  12.4620  12.9930  14.0437
    14.7154  15.4342

          k = 0.1250 0.5860 0.0000 (  5872 PWs)   bands (ev):

   -45.4673 -23.9572 -23.6763 -23.4407 -20.6526 -12.1832  -3.1784  -2.8383
    -2.5962  -2.3271  -0.7110  -0.2351   3.6461   6.3997   6.6031   7.1432
     7.6780  10.0394  10.5140  11.4223  11.5597  12.3085  13.1238  13.9447
    14.6663  14.9218

          k = 0.1250 0.0000 0.0000 (  5835 PWs)   bands (ev):

   -45.5203 -23.9558 -23.3399 -23.2540 -20.7365 -12.9848  -3.1306  -2.6621
    -2.5435  -1.1430   0.5827   1.1142   3.7523   5.5116   5.9074   5.9627
     6.5897   6.8022   8.1564   9.1764  11.4005  13.6010  13.9318  14.8359
    15.1034  17.3712

          k = 0.1875 0.1099 0.0000 (  5863 PWs)   bands (ev):

   -45.5096 -23.9161 -23.4759 -23.2795 -20.7052 -12.8380  -2.9964  -2.7846
    -2.5502  -1.0803  -0.2633   0.9323   3.6998   5.5275   5.9961   6.1687
     6.9646   7.0172   8.7210   9.8167  11.8952  13.0859  13.5210  15.2384
    15.7371  17.0325

          k = 0.1875 0.1831 0.0000 (  5861 PWs)   bands (ev):

   -45.5030 -23.8944 -23.5456 -23.3004 -20.6910 -12.7456  -2.9532  -2.8148
    -2.5652  -1.0848  -0.6193   0.7670   3.6639   5.5419   6.0826   6.3915
     7.0214   7.2865   9.0362  10.1189  12.0282  12.9300  13.4046  15.3866
    16.2843  16.5245

          k = 0.1875 0.2564 0.0000 (  5865 PWs)   bands (ev):

   -45.4945 -23.8708 -23.6192 -23.3377 -20.6753 -12.6200  -2.9580  -2.7874
    -2.5991  -1.2492  -0.8262   0.4532   3.6635   5.5543   6.2133   6.7042
     7.1603   7.6621   9.4262  10.5275  12.2452  12.7329  13.3344  15.1672
    15.9701  16.4337

          k = 0.1875 0.3296 0.0000 (  5878 PWs)   bands (ev):

   -45.4852 -23.8605 -23.6733 -23.3850 -20.6619 -12.4771  -3.0052  -2.7251
    -2.6428  -1.5806  -0.8346   0.0825   3.7030   5.6398   6.3839   6.8156
     7.4342   8.2446   9.8183  10.9898  12.3433  12.5562  13.6264  14.4348
    15.5681  16.0506

          k = 0.1875 0.4029 0.0000 (  5892 PWs)   bands (ev):

   -45.4766 -23.8778 -23.6893 -23.4328 -20.6526 -12.3378  -3.0565  -2.7362
    -2.6342  -1.8829  -0.8057  -0.2546   3.7686   5.8327   6.5207   6.8724
     7.6118   9.0347  10.1402  11.4266  12.2537  12.5157  13.7358  14.3176
    14.6744  15.6340

          k = 0.1875 0.4761 0.0000 (  5881 PWs)   bands (ev):

   -45.4699 -23.9075 -23.6812 -23.4715 -20.6473 -12.2259  -3.0980  -2.8060
    -2.5980  -2.0844  -0.7848  -0.4965   3.8383   6.1097   6.5352   7.0173
     7.6127   9.8968  10.3485  11.6862  12.1324  12.6605  13.2417  13.9254
    14.7493  15.4394

          k = 0.1875 0.5494 0.0000 (  5861 PWs)   bands (ev):

   -45.4664 -23.9268 -23.6721 -23.4931 -20.6452 -12.1633  -3.1217  -2.8599
    -2.5811  -2.1751  -0.7871  -0.6092   3.8843   6.3497   6.5186   7.1374
     7.5139  10.2503  10.9198  11.7200  11.9292  12.3938  13.1564  14.0104
    14.5470  15.1817

          k = 0.1875-0.0366 0.0000 (  5838 PWs)   bands (ev):

   -45.5131 -23.9285 -23.4311 -23.2736 -20.7138 -12.8867  -3.0284  -2.7544
    -2.5493  -1.0933   0.0098   0.9479   3.7367   5.4677   6.0070   6.1235
     6.7874   6.9718   8.5463   9.6559  11.8649  13.1049  13.6343  14.9716
    15.6233  16.9367

          k = 0.2500 0.1465 0.0000 (  5866 PWs)   bands (ev):

   -45.4993 -23.8843 -23.5944 -23.3012 -20.6834 -12.6884  -2.9921  -2.7826
    -2.5570  -1.2002  -0.7836   0.7706   3.5875   5.6244   6.1561   6.4855
     7.1938   7.4014   9.2003  10.2292  11.7742  12.7839  13.9118  15.6831
    16.2178  16.5116

          k = 0.2500 0.2198 0.0000 (  5878 PWs)   bands (ev):

   -45.4928 -23.8720 -23.6491 -23.3236 -20.6733 -12.5905  -3.0246  -2.7415
    -2.5789  -1.4544  -0.8349   0.5925   3.5568   5.6891   6.2363   6.7642
     7.2650   7.7222   9.4685  10.4922  11.7860  12.6020  14.1356  15.2264
    15.8998  16.3624

          k = 0.2500 0.2930 0.0000 (  5868 PWs)   bands (ev):

   -45.4850 -23.8690 -23.6844 -23.3673 -20.6622 -12.4704  -3.0453  -2.6987
    -2.6311  -1.7121  -0.8239   0.2272   3.6183   5.7546   6.3397   6.9266
     7.4412   8.2547   9.7910  10.9254  12.0078  12.5023  14.0957  14.4959
    15.2137  16.2902

          k = 0.2500 0.3663 0.0000 (  5873 PWs)   bands (ev):

   -45.4772 -23.8793 -23.6912 -23.4253 -20.6522 -12.3447  -3.0585  -2.7285
    -2.6360  -1.8927  -0.8094  -0.2172   3.7557   5.8334   6.5221   6.8781
     7.6170   9.0298  10.1300  11.4417  12.2528  12.5378  13.7217  14.2073
    14.6171  15.7064

          k = 0.2500 0.4395 0.0000 (  5876 PWs)   bands (ev):

   -45.4706 -23.8923 -23.6816 -23.4850 -20.6445 -12.2335  -3.0773  -2.7989
    -2.5975  -1.9851  -0.8525  -0.5862   3.9230   5.9732   6.6018   6.9231
     7.6302   9.9132  10.3994  11.7637  12.3132  12.8343  13.4747  13.9982
    14.4329  14.9881

          k = 0.2500 0.5128 0.0000 (  5865 PWs)   bands (ev):

   -45.4662 -23.8992 -23.6707 -23.5309 -20.6399 -12.1566  -3.1085  -2.8279
    -2.5695  -2.0131  -1.0568  -0.6883   4.0605   6.1736   6.5239   7.0945
     7.5099  10.3565  10.9401  11.6939  12.5758  12.9877  13.2006  13.7792
    14.4476  14.9847

          k = 0.2500 0.5860 0.0000 (  5860 PWs)   bands (ev):

   -45.4647 -23.9007 -23.6663 -23.5484 -20.6384 -12.1291  -3.1253  -2.8307
    -2.5593  -2.0145  -1.1658  -0.6966   4.1138   6.3003   6.4743   7.1536
     7.4345  10.3339  11.6003  11.8990  11.9443  12.8905  13.3900  13.8568
    14.4810  15.0750

          k = 0.2500-0.0733 0.0000 (  5866 PWs)   bands (ev):

   -45.5037 -23.8957 -23.5426 -23.2983 -20.6905 -12.7520  -2.9535  -2.8155
    -2.5595  -1.0864  -0.6010   0.7554   3.6683   5.5233   6.0850   6.4214
     7.0471   7.2639   9.0182  10.1145  12.0350  12.9416  13.4315  15.4057
    16.2223  16.5055

          k = 0.2500 0.0000 0.0000 (  5832 PWs)   bands (ev):

   -45.5052 -23.9000 -23.5202 -23.3010 -20.6931 -12.7739  -2.9321  -2.8315
    -2.5646  -1.0677  -0.4801   0.7033   3.7116   5.4492   6.1197   6.4081
     6.9418   7.2421   8.9542  10.0843  12.4170  12.7186  13.2476  15.2138
    16.1628  16.4902

          k = 0.3125 0.1831 0.0000 (  5881 PWs)   bands (ev):

   -45.4890 -23.8764 -23.6817 -23.3228 -20.6689 -12.5296  -3.0841  -2.7014
    -2.5681  -1.7207  -0.8250   0.6214   3.4664   5.7861   6.4179   6.8454
     7.3874   7.9026   9.5615  10.5136  11.6460  12.4679  14.4912  14.9990
    16.1432  16.2168

          k = 0.3125 0.2564 0.0000 (  5875 PWs)   bands (ev):

   -45.4833 -23.8898 -23.6994 -23.3456 -20.6627 -12.4388  -3.1180  -2.6682
    -2.6002  -1.9601  -0.8018   0.4381   3.4695   5.9046   6.4445   7.0552
     7.4950   8.3113   9.7383  10.7534  11.7495  12.4115  14.0492  14.7761
    15.4380  16.2303

          k = 0.3125 0.3296 0.0000 (  5867 PWs)   bands (ev):

   -45.4771 -23.9046 -23.6968 -23.3936 -20.6546 -12.3373  -3.1183  -2.6983
    -2.6280  -2.0824  -0.7808   0.0396   3.6019   6.0384   6.4524   7.0722
     7.6116   9.0183  10.0162  11.2143  11.9742  12.4607  13.5030  14.2563
    14.9418  16.0733

          k = 0.3125 0.4029 0.0000 (  5877 PWs)   bands (ev):

   -45.4713 -23.9088 -23.6847 -23.4589 -20.6462 -12.2404  -3.0997  -2.7971
    -2.5986  -2.0903  -0.7873  -0.4444   3.8206   6.1036   6.5384   7.0275
     7.6178   9.8775  10.3305  11.7309  12.1567  12.6514  13.1334  13.9335
    14.6370  15.5138

          k = 0.3125 0.4761 0.0000 (  5866 PWs)   bands (ev):

   -45.4669 -23.8990 -23.6725 -23.5256 -20.6392 -12.1641  -3.1069  -2.8257
    -2.5693  -2.0145  -1.0342  -0.6912   4.0559   6.1645   6.5259   7.0996
     7.5132  10.3308  10.9375  11.7100  12.5507  13.0249  13.1566  13.8435
    14.4107  14.9574

          k = 0.3125 0.5494 0.0000 (  5865 PWs)   bands (ev):

   -45.4645 -23.8853 -23.6657 -23.5706 -20.6353 -12.1220  -3.1346  -2.8003
    -2.5475  -1.8714  -1.4076  -0.7090   4.2153   6.2457   6.4626   7.1056
     7.4727  10.3118  11.6180  11.8460  12.6045  12.8586  13.5105  13.7886
    14.5616  15.1724

          k = 0.3125-0.1099 0.0000 (  5868 PWs)   bands (ev):

   -45.4934 -23.8720 -23.6452 -23.3239 -20.6725 -12.5973  -3.0217  -2.7427
    -2.5748  -1.4333  -0.8343   0.5701   3.5687   5.6872   6.2408   6.7660
     7.2657   7.7137   9.4532  10.4893  11.7986  12.6096  14.1937  15.2347
    15.8873  16.3321

          k = 0.3125-0.0366 0.0000 (  5854 PWs)   bands (ev):

   -45.4958 -23.8724 -23.6131 -23.3348 -20.6741 -12.6332  -2.9542  -2.7903
    -2.5894  -1.2251  -0.8187   0.4326   3.6743   5.5390   6.2330   6.7169
     7.1682   7.6457   9.3945  10.5207  12.2756  12.7480  13.3916  15.1386
    15.9352  16.4065

          k = 0.3750 0.2198 0.0000 (  5885 PWs)   bands (ev):

   -45.4803 -23.9161 -23.7042 -23.3410 -20.6615 -12.3866  -3.1755  -2.6517
    -2.5804  -2.1843  -0.7791   0.5032   3.3808   5.9904   6.6412   7.1345
     7.6264   8.4962   9.7121  10.7186  11.7506  12.3818  13.5145  14.9342
    15.4048  15.6824

          k = 0.3750 0.2930 0.0000 (  5877 PWs)   bands (ev):

   -45.4761 -23.9384 -23.6987 -23.3628 -20.6579 -12.3167  -3.1960  -2.6673
    -2.6085  -2.2985  -0.7573   0.3227   3.4239   6.1411   6.6055   7.2063
     7.7098   9.0143   9.8549  10.9267  11.8527  12.4086  13.0887  14.5064
    14.8815  15.6125

          k = 0.3750 0.3663 0.0000 (  5876 PWs)   bands (ev):

   -45.4719 -23.9425 -23.6879 -23.4122 -20.6511 -12.2456  -3.1674  -2.7782
    -2.5999  -2.2705  -0.7466  -0.0879   3.6094   6.3142   6.5276   7.1626
     7.6595   9.7711  10.1860  11.3416  11.9074  12.3906  12.9425  14.0267
    14.6177  15.4190

          k = 0.3750 0.4395 0.0000 (  5862 PWs)   bands (ev):

   -45.4683 -23.9259 -23.6769 -23.4787 -20.6431 -12.1844  -3.1215  -2.8498
    -2.5797  -2.1689  -0.7776  -0.5708   3.8693   6.3446   6.5108   7.1607
     7.5102  10.1917  10.9143  11.7208  11.9249  12.4038  13.1090  13.9839
    14.5041  15.1344

          k = 0.3750 0.5128 0.0000 (  5876 PWs)   bands (ev):

   -45.4659 -23.8979 -23.6693 -23.5418 -20.6368 -12.1432  -3.1213  -2.8247
    -2.5580  -2.0028  -1.1400  -0.7082   4.1139   6.2926   6.4636   7.1651
     7.4372  10.2822  11.6102  11.8342  11.8977  13.0143  13.4153  13.8571
    14.4463  15.0505

          k = 0.3750 0.5860 0.0000 (  5856 PWs)   bands (ev):

   -45.4651 -23.8823 -23.6668 -23.5698 -20.6344 -12.1286  -3.1323  -2.7960
    -2.5464  -1.8478  -1.4177  -0.7157   4.2210   6.2480   6.4497   7.1075
     7.4748  10.2851  11.6333  11.7332  12.6772  12.8536  13.6376  13.7277
    14.5369  15.1566

          k = 0.3750-0.1465 0.0000 (  5880 PWs)   bands (ev):

   -45.4839 -23.8871 -23.6981 -23.3469 -20.6618 -12.4449  -3.1142  -2.6702
    -2.5962  -1.9381  -0.8043   0.4149   3.4836   5.9089   6.4584   7.0397
     7.4895   8.2965   9.7229  10.7523  11.7557  12.4124  14.0670  14.8215
    15.4001  16.2683

          k = 0.3750-0.0733 0.0000 (  5874 PWs)   bands (ev):

   -45.4863 -23.8662 -23.6800 -23.3683 -20.6605 -12.4833  -3.0389  -2.7022
    -2.6219  -1.6686  -0.8284   0.1902   3.6396   5.7527   6.3528   6.9302
     7.4227   8.2323   9.7602  10.9179  12.0336  12.5131  14.1679  14.5081
    15.2341  16.2519

          k = 0.3750 0.0000 0.0000 (  5852 PWs)   bands (ev):

   -45.4871 -23.8594 -23.6684 -23.3808 -20.6597 -12.4967  -2.9993  -2.7262
    -2.6305  -1.5355  -0.8421   0.0655   3.7169   5.6327   6.4043   6.8265
     7.4196   8.2170   9.7740  10.9815  12.3625  12.6237  13.6525  14.4072
    15.5608  15.9868

          k = 0.4375 0.2564 0.0000 (  5876 PWs)   bands (ev):

   -45.4744 -23.9638 -23.6958 -23.3531 -20.6589 -12.2861  -3.2477  -2.6610
    -2.5902  -2.4414  -0.7404   0.4281   3.3390   6.2066   6.7001   7.2767
     7.8824   9.1407   9.7819  10.8829  11.7525  12.2956  12.9475  14.4101
    14.7198  15.2588

          k = 0.4375 0.3296 0.0000 (  5885 PWs)   bands (ev):

   -45.4723 -23.9715 -23.6897 -23.3725 -20.6563 -12.2488  -3.2448  -2.7298
    -2.5995  -2.4228  -0.7310   0.2585   3.4111   6.3314   6.6473   7.2557
     7.8551   9.6026   9.9609  11.0714  11.5557  12.2598  13.0393  14.0275
    14.5671  15.1143

          k = 0.4375 0.4029 0.0000 (  5875 PWs)   bands (ev):

   -45.4702 -23.9556 -23.6831 -23.4195 -20.6498 -12.2147  -3.1838  -2.8186
    -2.5918  -2.3137  -0.7342  -0.1402   3.6203   6.4110   6.5980   7.1722
     7.6611   9.9668  10.5150  11.4177  11.5035  12.2673  13.0852  13.8874
    14.6099  14.9368

          k = 0.4375 0.4761 0.0000 (  5871 PWs)   bands (ev):

   -45.4687 -23.9227 -23.6774 -23.4799 -20.6424 -12.1889  -3.1197  -2.8445
    -2.5789  -2.1554  -0.7771  -0.5871   3.8773   6.3565   6.5010   7.1738
     7.4913  10.1747  10.8261  11.7497  11.9683  12.4085  13.1027  13.9897
    14.5251  15.1582

          k = 0.4375 0.5494 0.0000 (  5874 PWs)   bands (ev):

   -45.4678 -23.8923 -23.6737 -23.5268 -20.6376 -12.1750  -3.1037  -2.8151
    -2.5675  -1.9777  -1.0503  -0.7077   4.0706   6.1740   6.5017   7.1278
     7.4870  10.2960  10.8199  11.7348  12.5439  13.0621  13.2466  13.8065
    14.4273  14.9943

          k = 0.4375-0.1831 0.0000 (  5888 PWs)   bands (ev):

   -45.4765 -23.9354 -23.6989 -23.3641 -20.6572 -12.3210  -3.1925  -2.6684
    -2.6060  -2.2838  -0.7592   0.3057   3.4348   6.1394   6.6331   7.1870
     7.7075   8.9854   9.8371  10.9282  11.8585  12.4022  13.1015  14.5361
    14.8806  15.6143

          k = 0.4375-0.1099 0.0000 (  5870 PWs)   bands (ev):

   -45.4780 -23.8983 -23.6964 -23.3960 -20.6530 -12.3478  -3.1118  -2.6966
    -2.6235  -2.0468  -0.7850   0.0042   3.6232   6.0449   6.4620   7.0774
     7.5855   8.9777   9.9788  11.2109  11.9869  12.4551  13.5380  14.2753
    14.9930  16.1099

          k = 0.4375-0.0366 0.0000 (  5867 PWs)   bands (ev):

   -45.4789 -23.8720 -23.6899 -23.4261 -20.6498 -12.3623  -3.0510  -2.7212
    -2.6320  -1.8379  -0.8165  -0.2569   3.7797   5.8329   6.5185   6.9072
     7.5818   8.9830  10.0770  11.4278  12.2491  12.5948  13.7263  14.2907
    14.6600  15.6695

          k =-0.5000-0.2930 0.0000 (  5886 PWs)   bands (ev):

   -45.4724 -23.9825 -23.6903 -23.3574 -20.6584 -12.2498  -3.2778  -2.6935
    -2.5942  -2.4976  -0.7261   0.4024   3.3278   6.3304   6.6620   7.3160
     7.9948   9.4971   9.8282  11.0568  11.3566  12.2288  13.1128  13.9564
    14.5445  15.0924

          k =-0.5000-0.2198 0.0000 (  5873 PWs)   bands (ev):

   -45.4724 -23.9703 -23.6899 -23.3730 -20.6560 -12.2503  -3.2431  -2.7293
    -2.5989  -2.4184  -0.7316   0.2523   3.4152   6.3244   6.6676   7.2459
     7.8563   9.5793   9.9530  11.0676  11.5777  12.2549  13.0293  14.0442
    14.5924  15.0945

          k =-0.5000-0.1465 0.0000 (  5870 PWs)   bands (ev):

   -45.4724 -23.9381 -23.6884 -23.4139 -20.6501 -12.2515  -3.1630  -2.7739
    -2.5985  -2.2532  -0.7484  -0.1091   3.6222   6.3079   6.5547   7.1590
     7.6432   9.7298  10.1402  11.3412  11.9475  12.3832  12.9420  14.0522
    14.6540  15.4197

          k =-0.5000-0.0733 0.0000 (  5863 PWs)   bands (ev):

   -45.4724 -23.9008 -23.6854 -23.4613 -20.6443 -12.2527  -3.0943  -2.7868
    -2.5964  -2.0508  -0.7897  -0.4826   3.8414   6.1144   6.5215   7.0616
     7.5789   9.8273  10.2555  11.7239  12.1567  12.6818  13.1846  13.9385
    14.7047  15.5218

          k =-0.5000-0.0000 0.0000 (  5884 PWs)   bands (ev):

   -45.4724 -23.8832 -23.6833 -23.4840 -20.6419 -12.2531  -3.0717  -2.7838
    -2.5955  -1.9331  -0.8568  -0.6187   3.9427   5.9740   6.5716   6.9781
     7.5905   9.8537  10.3072  11.7747  12.2706  12.9467  13.5004  14.0180
    14.4430  15.0169

     highest occupied, lowest unoccupied level (ev):     4.2210    5.4492

!    total energy              =    -571.23423285 Ry
     total all-electron energy =    -12610.611644 Ry
     estimated scf accuracy    <          6.6E-12 Ry

     The total energy is the sum of the following terms:
     one-electron contribution =    -277.53983794 Ry
     hartree contribution      =     147.18322763 Ry
     xc contribution           =     -36.33748520 Ry
     ewald contribution        =      -7.68580634 Ry
     one-center paw contrib.   =    -396.85433100 Ry

     convergence has been achieved in   7 iterations

     negative rho (up, down):  3.524E-05 0.000E+00

     Forces acting on atoms (cartesian axes, Ry/au):

     atom    1 type  1   force =     0.00000000    0.00010232    0.00023804
     atom    2 type  2   force =     0.00000000   -0.00017501   -0.00012599
     atom    3 type  3   force =     0.00000000    0.00007269   -0.00011205
     The non-local contrib.  to forces
     atom    1 type  1   force =     0.00000000   -0.00290321   -0.02506881
     atom    2 type  2   force =     0.00000000   -0.02147461   -0.97864850
     atom    3 type  3   force =     0.00000000   -0.00118069    0.21085259
     The ionic contribution  to forces
     atom    1 type  1   force =    -0.00000001   -0.16004978   -0.47194778
     atom    2 type  2   force =     0.00000001    0.11732633   24.24451589
     atom    3 type  3   force =     0.00000000    0.04272346  -23.77256811
     The local contribution  to forces
     atom    1 type  1   force =    -0.00000000    0.16293146    0.49306799
     atom    2 type  2   force =     0.00000027   -0.09609213  -23.26917864
     atom    3 type  3   force =    -0.00000000   -0.04136428   23.56435645
     The core correction contribution to forces
     atom    1 type  1   force =    -0.00000000    0.00012271    0.00418393
     atom    2 type  2   force =     0.00000000    0.00006525    0.00318275
     atom    3 type  3   force =    -0.00000000   -0.00010624   -0.00275523
     The Hubbard contrib.    to forces
     atom    1 type  1   force =     0.00000000    0.00000000    0.00000000
     atom    2 type  2   force =     0.00000000    0.00000000    0.00000000
     atom    3 type  3   force =     0.00000000    0.00000000    0.00000000
     The SCF correction term to forces
     atom    1 type  1   force =     0.00000000    0.00000066   -0.00000037
     atom    2 type  2   force =    -0.00000000   -0.00000034   -0.00000057
     atom    3 type  3   force =    -0.00000000   -0.00000004   -0.00000082

     Total force =     0.000363     Total SCF correction =     0.000001
     Energy error            =      3.0E-06 Ry
     Gradient error          =      2.4E-04 Ry/Bohr

     number of scf cycles    =   5
     number of bfgs steps    =   4

     energy             old  =    -571.2342298647 Ry
     energy             new  =    -571.2342328514 Ry

     CASE: energy            _new < energy            _old

     new trust radius        =       0.0002917865 bohr
     new conv_thr            =            1.0E-10 Ry


ATOMIC_POSITIONS (angstrom)
Zr            0.0000000000       -0.0019632220       10.1028834167
F            -0.0000000020        1.9301626420       11.3999898355
Br           -0.0000000020        1.9336083432        8.2153054608



     Writing config-only to output data dir ./tmp/ZrFBr.save/
     NEW-OLD atomic charge density approx. for the potential

     Check: negative core charge=   -0.000002

     negative rho (up, down):  3.518E-05 0.000E+00

     total cpu time spent up to now is       60.0 secs

     Self-consistent Calculation

     iteration #  1     ecut=    65.00 Ry     beta= 0.70
     Davidson diagonalization with overlap
     ethr =  1.00E-06,  avg # of iterations =  2.0

     Threshold (ethr) on eigenvalues was too large:
     Diagonalizing with lowered threshold

     Davidson diagonalization with overlap
     ethr =  4.62E-11,  avg # of iterations =  4.0

     negative rho (up, down):  3.523E-05 0.000E+00

     total cpu time spent up to now is       63.1 secs

     total energy              =    -571.23423295 Ry
     estimated scf accuracy    <       0.00000001 Ry

     iteration #  2     ecut=    65.00 Ry     beta= 0.70
     Davidson diagonalization with overlap
     ethr =  4.47E-11,  avg # of iterations =  2.0

     negative rho (up, down):  3.523E-05 0.000E+00

     total cpu time spent up to now is       64.5 secs

     total energy              =    -571.23423295 Ry
     estimated scf accuracy    <          5.8E-09 Ry

     iteration #  3     ecut=    65.00 Ry     beta= 0.70
     Davidson diagonalization with overlap
     ethr =  2.22E-11,  avg # of iterations =  2.0

     negative rho (up, down):  3.523E-05 0.000E+00

     total cpu time spent up to now is       65.9 secs

     total energy              =    -571.23423295 Ry
     estimated scf accuracy    <          4.0E-09 Ry

     iteration #  4     ecut=    65.00 Ry     beta= 0.70
     Davidson diagonalization with overlap
     ethr =  1.55E-11,  avg # of iterations =  1.0

     negative rho (up, down):  3.524E-05 0.000E+00

     total cpu time spent up to now is       67.1 secs

     total energy              =    -571.23423296 Ry
     estimated scf accuracy    <          2.5E-10 Ry

     iteration #  5     ecut=    65.00 Ry     beta= 0.70
     Davidson diagonalization with overlap
     ethr =  9.44E-13,  avg # of iterations =  2.0

     negative rho (up, down):  3.524E-05 0.000E+00

     total cpu time spent up to now is       68.4 secs

     End of self-consistent calculation

          k = 0.0000 0.0000 0.0000 (  5891 PWs)   bands (ev):

   -45.5258 -23.9786 -23.2599 -23.2386 -20.7594 -13.0618  -3.2243  -2.5712
    -2.5433  -1.1980   1.1484   1.2509   3.7325   5.6263   5.7477   5.8009
     6.5967   6.6686   7.8192   8.6159  11.0184  13.8492  14.3960  14.6623
    15.2015  17.0895

          k = 0.0000 0.0733 0.0000 (  5862 PWs)   bands (ev):

   -45.5236 -23.9703 -23.2684 -23.2647 -20.7512 -13.0340  -3.1906  -2.5792
    -2.5708  -1.1757   1.0302   1.1066   3.7478   5.6708   5.7325   5.8482
     6.6134   6.6487   7.9450   8.8443  11.1514  13.9016  14.2486  14.5301
    15.0934  17.3310

          k = 0.0000 0.1465 0.0000 (  5850 PWs)   bands (ev):

   -45.5175 -23.9469 -23.3507 -23.2784 -20.7305 -12.9532  -3.1004  -2.6707
    -2.5710  -1.1220   0.4751   0.9920   3.7656   5.6212   5.8120   5.9625
     6.6762   6.7847   8.2835   9.3338  11.5370  13.5140  13.9310  14.9288
    14.9370  17.3209

          k = 0.0000 0.2198 0.0000 (  5848 PWs)   bands (ev):

   -45.5082 -23.9132 -23.4663 -23.2989 -20.7056 -12.8275  -2.9917  -2.7742
    -2.5745  -1.0695  -0.2162   0.8315   3.7297   5.5677   6.0295   6.0604
     6.9626   6.9908   8.7522   9.8316  11.9163  13.1295  13.5710  15.2801
    15.5776  16.9835

          k = 0.0000 0.2930 0.0000 (  5884 PWs)   bands (ev):

   -45.4973 -23.8797 -23.5883 -23.3229 -20.6842 -12.6712  -2.9857  -2.7768
    -2.5835  -1.1751  -0.7593   0.6569   3.6271   5.6269   6.1917   6.4065
     7.1489   7.4222   9.2401  10.2351  11.7809  12.8286  13.9992  15.7701
    16.3296  16.3712

          k = 0.0000 0.3663 0.0000 (  5902 PWs)   bands (ev):

   -45.4863 -23.8717 -23.6772 -23.3467 -20.6704 -12.5050  -3.0785  -2.6986
    -2.5972  -1.7001  -0.8037   0.4962   3.5090   5.7733   6.4460   6.7970
     7.3433   7.9322   9.6020  10.5052  11.6675  12.5177  14.6469  15.0972
    16.0336  16.2839

          k = 0.0000 0.4395 0.0000 (  5892 PWs)   bands (ev):

   -45.4770 -23.9140 -23.6979 -23.3668 -20.6639 -12.3549  -3.1688  -2.6539
    -2.6124  -2.1748  -0.7529   0.3692   3.4243   5.9739   6.6549   7.1014
     7.6012   8.5359   9.7446  10.7106  11.7973  12.4479  13.6426  15.0305
    15.5089  15.5384

          k = 0.0000 0.5128 0.0000 (  5882 PWs)   bands (ev):

   -45.4707 -23.9638 -23.6878 -23.3802 -20.6621 -12.2494  -3.2386  -2.6714
    -2.6242  -2.4374  -0.7106   0.2887   3.3834   6.1925   6.6964   7.2402
     7.8911   9.1891   9.8069  10.8925  11.8391  12.3925  13.0114  14.4907
    14.8399  15.0713

          k = 0.0000-0.5860 0.0000 (  5882 PWs)   bands (ev):

   -45.4685 -23.9833 -23.6818 -23.3849 -20.6618 -12.2112  -3.2675  -2.7083
    -2.6287  -2.4948  -0.6949   0.2612   3.3727   6.3220   6.6466   7.2769
     8.0191   9.5592   9.8312  11.0794  11.4761  12.3112  13.1661  14.0298
    14.6643  14.8962

          k = 0.0625 0.0366 0.0000 (  5871 PWs)   bands (ev):

   -45.5238 -23.9707 -23.2854 -23.2464 -20.7513 -13.0352  -3.1914  -2.6011
    -2.5472  -1.1771   0.9519   1.1932   3.7444   5.5887   5.8209   5.8475
     6.5642   6.7080   7.9389   8.8357  11.1465  13.9001  14.0959  14.7354
    15.0736  17.2665

          k = 0.0625 0.1099 0.0000 (  5871 PWs)   bands (ev):

   -45.5196 -23.9548 -23.3304 -23.2667 -20.7369 -12.9808  -3.1291  -2.6502
    -2.5621  -1.1391   0.6205   1.0602   3.7605   5.5901   5.8288   5.9526
     6.5810   6.7880   8.1720   9.1902  11.4125  13.6589  13.9517  14.7774
    15.0246  17.3421

          k = 0.0625 0.1831 0.0000 (  5862 PWs)   bands (ev):

   -45.5119 -23.9261 -23.4234 -23.2897 -20.7143 -12.8775  -3.0246  -2.7445
    -2.5715  -1.0844   0.0396   0.8807   3.7548   5.5303   5.9896   6.0503
     6.7483   6.9797   8.5771   9.6719  11.8867  13.1283  13.6629  14.9583
    15.5182  16.9215

          k = 0.0625 0.2564 0.0000 (  5877 PWs)   bands (ev):

   -45.5018 -23.8917 -23.5387 -23.3160 -20.6914 -12.7362  -2.9483  -2.8101
    -2.5833  -1.0712  -0.5848   0.6783   3.6940   5.5465   6.0876   6.3560
     7.0007   7.2865   9.0598  10.1249  12.0320  12.9699  13.4640  15.4215
    16.1989  16.4952

          k = 0.0625 0.3296 0.0000 (  5875 PWs)   bands (ev):

   -45.4908 -23.8676 -23.6434 -23.3436 -20.6742 -12.5742  -3.0184  -2.7391
    -2.6009  -1.4237  -0.8177   0.4811   3.5970   5.6816   6.2464   6.7318
     7.2273   7.7399   9.4999  10.4870  11.7927  12.6421  14.2502  15.3245
    15.9173  16.3499

          k = 0.0625 0.4029 0.0000 (  5899 PWs)   bands (ev):

   -45.4807 -23.8855 -23.6941 -23.3689 -20.6643 -12.4149  -3.1115  -2.6712
    -2.6230  -1.9386  -0.7812   0.3132   3.5131   5.8912   6.4619   7.0213
     7.4655   8.3356   9.7679  10.7340  11.7785  12.4602  14.1929  14.8498
    15.4479  16.2731

          k = 0.0625 0.4761 0.0000 (  5891 PWs)   bands (ev):

   -45.4729 -23.9365 -23.6919 -23.3880 -20.6604 -12.2858  -3.1878  -2.6879
    -2.6192  -2.2916  -0.7317   0.1919   3.4672   6.1235   6.6247   7.1671
     7.7059   9.0438   9.8770  10.9111  11.9100  12.4833  13.1903  14.5290
    14.9739  15.5748

          k = 0.0625 0.5494 0.0000 (  5883 PWs)   bands (ev):

   -45.4687 -23.9717 -23.6818 -23.3984 -20.6595 -12.2130  -3.2354  -2.7511
    -2.6128  -2.4285  -0.7021   0.1286   3.4520   6.3161   6.6496   7.2187
     7.8742   9.6548   9.9614  11.0774  11.6688  12.3358  13.0809  14.0910
    14.6646  15.0003

          k = 0.1250 0.0733 0.0000 (  5860 PWs)   bands (ev):

   -45.5180 -23.9482 -23.3637 -23.2603 -20.7308 -12.9577  -3.1032  -2.6871
    -2.5486  -1.1268   0.4136   1.0822   3.7512   5.5266   5.9235   5.9638
     6.6489   6.8377   8.2648   9.3169  11.5185  13.4572  13.8890  14.9071
    15.1123  17.3500

          k = 0.1250 0.1465 0.0000 (  5864 PWs)   bands (ev):

   -45.5123 -23.9271 -23.4295 -23.2799 -20.7144 -12.8809  -3.0266  -2.7513
    -2.5603  -1.0880   0.0072   0.9355   3.7418   5.5100   6.0068   6.0666
     6.7446   6.9975   8.5655   9.6642  11.8741  13.1043  13.6406  14.9554
    15.5829  16.9539

          k = 0.1250 0.2198 0.0000 (  5850 PWs)   bands (ev):

   -45.5037 -23.8972 -23.5211 -23.3100 -20.6941 -12.7617  -2.9292  -2.8299
    -2.5801  -1.0582  -0.4937   0.6868   3.7181   5.4813   6.1050   6.3638
     6.9011   7.2668   8.9882  10.0932  12.4226  12.6899  13.2487  15.2178
    16.1984  16.4805

          k = 0.1250 0.2930 0.0000 (  5874 PWs)   bands (ev):

   -45.4936 -23.8691 -23.6159 -23.3459 -20.6759 -12.6139  -2.9550  -2.7878
    -2.6078  -1.2329  -0.8175   0.4058   3.6810   5.5504   6.2139   6.6969
     7.1447   7.6672   9.4382  10.5259  12.2336  12.7393  13.4008  15.1708
    16.0204  16.4491

          k = 0.1250 0.3663 0.0000 (  5895 PWs)   bands (ev):

   -45.4834 -23.8656 -23.6804 -23.3819 -20.6632 -12.4573  -3.0410  -2.7042
    -2.6404  -1.6889  -0.8128   0.1472   3.6472   5.7476   6.3426   6.9115
     7.4226   8.2653   9.8110  10.9095  12.0075  12.5167  14.1832  14.5775
    15.2762  16.2967

          k = 0.1250 0.4395 0.0000 (  5882 PWs)   bands (ev):

   -45.4748 -23.9016 -23.6918 -23.4125 -20.6564 -12.3167  -3.1131  -2.7185
    -2.6265  -2.0683  -0.7643  -0.0574   3.6349   6.0307   6.4612   7.0503
     7.6010   9.0345  10.0385  11.1728  11.9946  12.4913  13.6123  14.2768
    15.0557  16.1173

          k = 0.1250 0.5128 0.0000 (  5880 PWs)   bands (ev):

   -45.4690 -23.9416 -23.6816 -23.4331 -20.6537 -12.2181  -3.1615  -2.7964
    -2.6027  -2.2724  -0.7252  -0.1888   3.6409   6.2977   6.5490   7.1328
     7.6635   9.8100  10.1961  11.2907  11.9731  12.4619  12.9930  14.0436
    14.7155  15.4343

          k = 0.1250 0.5860 0.0000 (  5872 PWs)   bands (ev):

   -45.4670 -23.9573 -23.6760 -23.4404 -20.6531 -12.1826  -3.1791  -2.8385
    -2.5968  -2.3270  -0.7104  -0.2344   3.6465   6.3997   6.6034   7.1434
     7.6785  10.0399  10.5143  11.4225  11.5595  12.3087  13.1239  13.9444
    14.6666  14.9217

          k = 0.1250 0.0000 0.0000 (  5835 PWs)   bands (ev):

   -45.5200 -23.9557 -23.3396 -23.2537 -20.7371 -12.9841  -3.1311  -2.6631
    -2.5447  -1.1427   0.5835   1.1151   3.7529   5.5122   5.9075   5.9629
     6.5899   6.8028   8.1564   9.1764  11.4008  13.6013  13.9318  14.8359
    15.1038  17.3715

          k = 0.1875 0.1099 0.0000 (  5863 PWs)   bands (ev):

   -45.5093 -23.9160 -23.4756 -23.2792 -20.7058 -12.8373  -2.9970  -2.7855
    -2.5513  -1.0799  -0.2626   0.9332   3.7004   5.5280   5.9963   6.1692
     6.9647   7.0176   8.7210   9.8166  11.8955  13.0861  13.5213  15.2383
    15.7376  17.0324

          k = 0.1875 0.1831 0.0000 (  5861 PWs)   bands (ev):

   -45.5027 -23.8943 -23.5454 -23.3001 -20.6915 -12.7450  -2.9539  -2.8156
    -2.5662  -1.0843  -0.6186   0.7678   3.6645   5.5423   6.0829   6.3920
     7.0219   7.2865   9.0362  10.1187  12.0285  12.9301  13.4051  15.3866
    16.2847  16.5245

          k = 0.1875 0.2564 0.0000 (  5865 PWs)   bands (ev):

   -45.4942 -23.8707 -23.6189 -23.3374 -20.6758 -12.6194  -2.9589  -2.7880
    -2.6000  -1.2485  -0.8258   0.4539   3.6640   5.5547   6.2136   6.7046
     7.1610   7.6619   9.4262  10.5274  12.2454  12.7331  13.3349  15.1673
    15.9703  16.4336

          k = 0.1875 0.3296 0.0000 (  5878 PWs)   bands (ev):

   -45.4849 -23.8604 -23.6730 -23.3847 -20.6624 -12.4764  -3.0061  -2.7258
    -2.6436  -1.5799  -0.8341   0.0832   3.7034   5.6403   6.3841   6.8159
     7.4347   8.2445   9.8184  10.9897  12.3434  12.5565  13.6268  14.4351
    15.5678  16.0507

          k = 0.1875 0.4029 0.0000 (  5892 PWs)   bands (ev):

   -45.4762 -23.8778 -23.6891 -23.4325 -20.6531 -12.3371  -3.0573  -2.7369
    -2.6348  -1.8823  -0.8051  -0.2539   3.7690   5.8330   6.5210   6.8727
     7.6120   9.0347  10.1405  11.4266  12.2538  12.5159  13.7361  14.3180
    14.6742  15.6338

          k = 0.1875 0.4761 0.0000 (  5881 PWs)   bands (ev):

   -45.4696 -23.9075 -23.6809 -23.4711 -20.6479 -12.2252  -3.0988  -2.8065
    -2.5986  -2.0841  -0.7842  -0.4959   3.8386   6.1099   6.5356   7.0176
     7.6128   9.8968  10.3489  11.6865  12.1326  12.6607  13.2416  13.9253
    14.7494  15.4393

          k = 0.1875 0.5494 0.0000 (  5861 PWs)   bands (ev):

   -45.4660 -23.9268 -23.6718 -23.4928 -20.6457 -12.1626  -3.1225  -2.8603
    -2.5817  -2.1749  -0.7864  -0.6085   3.8846   6.3497   6.5191   7.1377
     7.5142  10.2507  10.9199  11.7203  11.9293  12.3938  13.1565  14.0102
    14.5469  15.1816

          k = 0.1875-0.0366 0.0000 (  5838 PWs)   bands (ev):

   -45.5128 -23.9284 -23.4308 -23.2733 -20.7144 -12.8860  -3.0289  -2.7553
    -2.5504  -1.0930   0.0106   0.9487   3.7373   5.4683   6.0070   6.1239
     6.7876   6.9723   8.5463   9.6558  11.8653  13.1052  13.6344  14.9715
    15.6239  16.9369

          k = 0.2500 0.1465 0.0000 (  5866 PWs)   bands (ev):

   -45.4990 -23.8842 -23.5941 -23.3009 -20.6840 -12.6878  -2.9929  -2.7832
    -2.5581  -1.1995  -0.7832   0.7715   3.5881   5.6247   6.1566   6.4858
     7.1944   7.4012   9.2003  10.2291  11.7744  12.7839  13.9123  15.6830
    16.2176  16.5121

          k = 0.2500 0.2198 0.0000 (  5878 PWs)   bands (ev):

   -45.4925 -23.8719 -23.6488 -23.3233 -20.6739 -12.5899  -3.0254  -2.7421
    -2.5799  -1.4537  -0.8345   0.5933   3.5574   5.6893   6.2368   6.7645
     7.2658   7.7219   9.4686  10.4921  11.7862  12.6020  14.1361  15.2262
    15.9000  16.3625

          k = 0.2500 0.2930 0.0000 (  5868 PWs)   bands (ev):

   -45.4847 -23.8689 -23.6841 -23.3670 -20.6627 -12.4697  -3.0461  -2.6994
    -2.6319  -1.7114  -0.8234   0.2279   3.6188   5.7549   6.3400   6.9269
     7.4417   8.2546   9.7911  10.9254  12.0080  12.5024  14.0961  14.4961
    15.2137  16.2904

          k = 0.2500 0.3663 0.0000 (  5873 PWs)   bands (ev):

   -45.4769 -23.8793 -23.6909 -23.4250 -20.6527 -12.3441  -3.0594  -2.7293
    -2.6366  -1.8921  -0.8089  -0.2165   3.7562   5.8338   6.5223   6.8785
     7.6173   9.0298  10.1303  11.4417  12.2529  12.5380  13.7219  14.2076
    14.6170  15.7063

          k = 0.2500 0.4395 0.0000 (  5876 PWs)   bands (ev):

   -45.4703 -23.8923 -23.6814 -23.4847 -20.6451 -12.2329  -3.0782  -2.7995
    -2.5982  -1.9846  -0.8519  -0.5856   3.9234   5.9735   6.6020   6.9236
     7.6303   9.9132  10.3998  11.7641  12.3130  12.8347  13.4748  13.9979
    14.4332  14.9879

          k = 0.2500 0.5128 0.0000 (  5865 PWs)   bands (ev):

   -45.4659 -23.8992 -23.6704 -23.5306 -20.6405 -12.1559  -3.1093  -2.8285
    -2.5701  -2.0127  -1.0562  -0.6877   4.0608   6.1738   6.5243   7.0950
     7.5100  10.3569  10.9401  11.6944  12.5758  12.9877  13.2007  13.7790
    14.4475  14.9847

          k = 0.2500 0.5860 0.0000 (  5860 PWs)   bands (ev):

   -45.4643 -23.9007 -23.6660 -23.5481 -20.6389 -12.1284  -3.1261  -2.8312
    -2.5599  -2.0141  -1.1651  -0.6960   4.1141   6.3003   6.4747   7.1543
     7.4346  10.3344  11.6007  11.8989  11.9441  12.8908  13.3900  13.8567
    14.4808  15.0750

          k = 0.2500-0.0733 0.0000 (  5866 PWs)   bands (ev):

   -45.5034 -23.8956 -23.5423 -23.2980 -20.6911 -12.7513  -2.9542  -2.8162
    -2.5605  -1.0859  -0.6004   0.7563   3.6689   5.5238   6.0853   6.4217
     7.0477   7.2639   9.0182  10.1144  12.0352  12.9417  13.4319  15.4057
    16.2227  16.5059

          k = 0.2500 0.0000 0.0000 (  5832 PWs)   bands (ev):

   -45.5049 -23.8999 -23.5199 -23.3007 -20.6936 -12.7733  -2.9328  -2.8323
    -2.5657  -1.0672  -0.4795   0.7041   3.7122   5.4498   6.1199   6.4084
     6.9423   7.2421   8.9542  10.0842  12.4173  12.7189  13.2478  15.2138
    16.1631  16.4906

          k = 0.3125 0.1831 0.0000 (  5881 PWs)   bands (ev):

   -45.4887 -23.8764 -23.6814 -23.3225 -20.6694 -12.5290  -3.0849  -2.7020
    -2.5691  -1.7200  -0.8245   0.6222   3.4670   5.7862   6.4186   6.8456
     7.3881   7.9024   9.5616  10.5135  11.6461  12.4680  14.4913  14.9990
    16.1434  16.2172

          k = 0.3125 0.2564 0.0000 (  5875 PWs)   bands (ev):

   -45.4830 -23.8897 -23.6991 -23.3453 -20.6633 -12.4382  -3.1187  -2.6688
    -2.6012  -1.9595  -0.8013   0.4389   3.4701   5.9047   6.4450   7.0554
     7.4956   8.3113   9.7385  10.7534  11.7497  12.4115  14.0490  14.7763
    15.4383  16.2306

          k = 0.3125 0.3296 0.0000 (  5867 PWs)   bands (ev):

   -45.4767 -23.9046 -23.6965 -23.3933 -20.6552 -12.3366  -3.1191  -2.6990
    -2.6286  -2.0819  -0.7803   0.0403   3.6025   6.0386   6.4527   7.0726
     7.6119   9.0184  10.0165  11.2143  11.9744  12.4608  13.5029  14.2564
    14.9419  16.0737

          k = 0.3125 0.4029 0.0000 (  5877 PWs)   bands (ev):

   -45.4710 -23.9088 -23.6844 -23.4586 -20.6467 -12.2397  -3.1005  -2.7976
    -2.5992  -2.0899  -0.7866  -0.4437   3.8210   6.1038   6.5386   7.0279
     7.6179   9.8775  10.3309  11.7312  12.1569  12.6516  13.1332  13.9334
    14.6371  15.5137

          k = 0.3125 0.4761 0.0000 (  5866 PWs)   bands (ev):

   -45.4666 -23.8990 -23.6722 -23.5253 -20.6397 -12.1634  -3.1077  -2.8262
    -2.5700  -2.0141  -1.0335  -0.6906   4.0562   6.1647   6.5262   7.1002
     7.5133  10.3311  10.9375  11.7106  12.5506  13.0250  13.1566  13.8433
    14.4107  14.9573

          k = 0.3125 0.5494 0.0000 (  5865 PWs)   bands (ev):

   -45.4642 -23.8853 -23.6654 -23.5703 -20.6358 -12.1213  -3.1353  -2.8010
    -2.5482  -1.8708  -1.4070  -0.7084   4.2156   6.2457   6.4629   7.1065
     7.4726  10.3123  11.6185  11.8458  12.6043  12.8582  13.5108  13.7887
    14.5616  15.1721

          k = 0.3125-0.1099 0.0000 (  5868 PWs)   bands (ev):

   -45.4931 -23.8720 -23.6449 -23.3236 -20.6731 -12.5966  -3.0225  -2.7434
    -2.5759  -1.4326  -0.8339   0.5709   3.5693   5.6874   6.2413   6.7662
     7.2665   7.7134   9.4533  10.4892  11.7989  12.6096  14.1942  15.2346
    15.8873  16.3323

          k = 0.3125-0.0366 0.0000 (  5854 PWs)   bands (ev):

   -45.4955 -23.8723 -23.6128 -23.3345 -20.6746 -12.6326  -2.9551  -2.7909
    -2.5904  -1.2244  -0.8182   0.4333   3.6749   5.5395   6.2333   6.7172
     7.1690   7.6454   9.3945  10.5206  12.2758  12.7482  13.3920  15.1387
    15.9353  16.4063

          k = 0.3750 0.2198 0.0000 (  5885 PWs)   bands (ev):

   -45.4800 -23.9161 -23.7039 -23.3407 -20.6620 -12.3859  -3.1762  -2.6523
    -2.5815  -2.1837  -0.7786   0.5040   3.3814   5.9904   6.6417   7.1346
     7.6271   8.4962   9.7123  10.7186  11.7506  12.3818  13.5142  14.9342
    15.4049  15.6829

          k = 0.3750 0.2930 0.0000 (  5877 PWs)   bands (ev):

   -45.4758 -23.9384 -23.6984 -23.3625 -20.6584 -12.3160  -3.1967  -2.6679
    -2.6093  -2.2981  -0.7567   0.3234   3.4245   6.1412   6.6059   7.2066
     7.7103   9.0145   9.8551  10.9267  11.8528  12.4086  13.0884  14.5065
    14.8816  15.6129

          k = 0.3750 0.3663 0.0000 (  5876 PWs)   bands (ev):

   -45.4716 -23.9425 -23.6876 -23.4118 -20.6516 -12.2449  -3.1681  -2.7786
    -2.6006  -2.2704  -0.7460  -0.0872   3.6100   6.3143   6.5279   7.1629
     7.6598   9.7714  10.1862  11.3417  11.9076  12.3906  12.9423  14.0267
    14.6178  15.4192

          k = 0.3750 0.4395 0.0000 (  5862 PWs)   bands (ev):

   -45.4680 -23.9259 -23.6767 -23.4784 -20.6437 -12.1838  -3.1223  -2.8502
    -2.5804  -2.1687  -0.7769  -0.5702   3.8697   6.3447   6.5111   7.1610
     7.5106  10.1921  10.9143  11.7208  11.9252  12.4040  13.1088  13.9838
    14.5040  15.1344

          k = 0.3750 0.5128 0.0000 (  5876 PWs)   bands (ev):

   -45.4656 -23.8978 -23.6690 -23.5415 -20.6373 -12.1425  -3.1221  -2.8253
    -2.5586  -2.0024  -1.1393  -0.7077   4.1142   6.2927   6.4639   7.1659
     7.4371  10.2826  11.6105  11.8341  11.8976  13.0145  13.4153  13.8571
    14.4462  15.0507

          k = 0.3750 0.5860 0.0000 (  5856 PWs)   bands (ev):

   -45.4648 -23.8822 -23.6665 -23.5695 -20.6349 -12.1279  -3.1331  -2.7967
    -2.5471  -1.8472  -1.4171  -0.7151   4.2213   6.2481   6.4500   7.1085
     7.4747  10.2855  11.6338  11.7330  12.6769  12.8533  13.6377  13.7279
    14.5369  15.1565

          k = 0.3750-0.1465 0.0000 (  5880 PWs)   bands (ev):

   -45.4836 -23.8870 -23.6978 -23.3466 -20.6624 -12.4442  -3.1150  -2.6709
    -2.5972  -1.9374  -0.8038   0.4157   3.4842   5.9090   6.4590   7.0399
     7.4902   8.2963   9.7231  10.7523  11.7558  12.4124  14.0668  14.8217
    15.4004  16.2686

          k = 0.3750-0.0733 0.0000 (  5874 PWs)   bands (ev):

   -45.4859 -23.8661 -23.6797 -23.3680 -20.6611 -12.4827  -3.0397  -2.7029
    -2.6228  -1.6680  -0.8279   0.1909   3.6402   5.7530   6.3531   6.9305
     7.4234   8.2321   9.7602  10.9178  12.0338  12.5132  14.1683  14.5083
    15.2340  16.2521

          k = 0.3750 0.0000 0.0000 (  5852 PWs)   bands (ev):

   -45.4868 -23.8593 -23.6681 -23.3805 -20.6603 -12.4961  -3.0001  -2.7269
    -2.6314  -1.5347  -0.8416   0.0662   3.7175   5.6332   6.4045   6.8270
     7.4202   8.2167   9.7740  10.9814  12.3625  12.6241  13.6529  14.4075
    15.5605  15.9869

          k = 0.4375 0.2564 0.0000 (  5876 PWs)   bands (ev):

   -45.4741 -23.9637 -23.6955 -23.3528 -20.6595 -12.2855  -3.2483  -2.6613
    -2.5912  -2.4412  -0.7399   0.4289   3.3396   6.2066   6.7003   7.2770
     7.8830   9.1411   9.7821  10.8830  11.7524  12.2954  12.9473  14.4100
    14.7199  15.2594

          k = 0.4375 0.3296 0.0000 (  5885 PWs)   bands (ev):

   -45.4719 -23.9715 -23.6895 -23.3722 -20.6568 -12.2481  -3.2454  -2.7301
    -2.6003  -2.4228  -0.7304   0.2592   3.4118   6.3314   6.6475   7.2560
     7.8556   9.6031   9.9611  11.0715  11.5555  12.2597  13.0393  14.0273
    14.5671  15.1148

          k = 0.4375 0.4029 0.0000 (  5875 PWs)   bands (ev):

   -45.4699 -23.9555 -23.6828 -23.4192 -20.6503 -12.2140  -3.1845  -2.8190
    -2.5924  -2.3137  -0.7336  -0.1395   3.6209   6.4111   6.5982   7.1724
     7.6617   9.9673  10.5153  11.4176  11.5035  12.2675  13.0851  13.8872
    14.6100  14.9369

          k = 0.4375 0.4761 0.0000 (  5871 PWs)   bands (ev):

   -45.4684 -23.9226 -23.6771 -23.4796 -20.6430 -12.1882  -3.1205  -2.8450
    -2.5795  -2.1552  -0.7764  -0.5864   3.8778   6.3566   6.5014   7.1742
     7.4917  10.1751  10.8261  11.7497  11.9686  12.4086  13.1025  13.9897
    14.5251  15.1581

          k = 0.4375 0.5494 0.0000 (  5874 PWs)   bands (ev):

   -45.4675 -23.8922 -23.6734 -23.5265 -20.6382 -12.1744  -3.1045  -2.8157
    -2.5681  -1.9773  -1.0496  -0.7072   4.0710   6.1743   6.5020   7.1285
     7.4871  10.2963  10.8198  11.7353  12.5438  13.0620  13.2468  13.8064
    14.4274  14.9943

          k = 0.4375-0.1831 0.0000 (  5888 PWs)   bands (ev):

   -45.4762 -23.9353 -23.6986 -23.3638 -20.6577 -12.3203  -3.1932  -2.6690
    -2.6068  -2.2835  -0.7587   0.3065   3.4354   6.1394   6.6336   7.1872
     7.7082   8.9855   9.8373  10.9283  11.8585  12.4021  13.1012  14.5362
    14.8808  15.6145

          k = 0.4375-0.1099 0.0000 (  5870 PWs)   bands (ev):

   -45.4777 -23.8983 -23.6961 -23.3957 -20.6536 -12.3471  -3.1126  -2.6974
    -2.6242  -2.0463  -0.7845   0.0049   3.6238   6.0451   6.4625   7.0777
     7.5860   8.9776   9.9789  11.2109  11.9871  12.4552  13.5378  14.2755
    14.9932  16.1101

          k = 0.4375-0.0366 0.0000 (  5867 PWs)   bands (ev):

   -45.4785 -23.8719 -23.6896 -23.4258 -20.6503 -12.3616  -3.0519  -2.7220
    -2.6326  -1.8373  -0.8160  -0.2562   3.7803   5.8333   6.5187   6.9077
     7.5822   8.9829  10.0771  11.4278  12.2491  12.5951  13.7266  14.2910
    14.6598  15.6694

          k =-0.5000-0.2930 0.0000 (  5886 PWs)   bands (ev):

   -45.4721 -23.9825 -23.6901 -23.3570 -20.6590 -12.2492  -3.2784  -2.6936
    -2.5952  -2.4977  -0.7255   0.4032   3.3285   6.3305   6.6621   7.3162
     7.9954   9.4977   9.8285  11.0569  11.3563  12.2287  13.1128  13.9562
    14.5445  15.0931

          k =-0.5000-0.2198 0.0000 (  5873 PWs)   bands (ev):

   -45.4721 -23.9702 -23.6896 -23.3727 -20.6565 -12.2496  -3.2437  -2.7297
    -2.5997  -2.4184  -0.7310   0.2531   3.4158   6.3244   6.6678   7.2461
     7.8570   9.5797   9.9532  11.0676  11.5775  12.2549  13.0292  14.0441
    14.5926  15.0949

          k =-0.5000-0.1465 0.0000 (  5870 PWs)   bands (ev):

   -45.4721 -23.9380 -23.6881 -23.4136 -20.6507 -12.2508  -3.1637  -2.7744
    -2.5991  -2.2530  -0.7479  -0.1084   3.6228   6.3079   6.5551   7.1592
     7.6438   9.7299  10.1404  11.3413  11.9476  12.3832  12.9418  14.0523
    14.6541  15.4197

          k =-0.5000-0.0733 0.0000 (  5863 PWs)   bands (ev):

   -45.4721 -23.9007 -23.6851 -23.4611 -20.6448 -12.2520  -3.0951  -2.7875
    -2.5970  -2.0504  -0.7891  -0.4820   3.8419   6.1147   6.5217   7.0621
     7.5792   9.8273  10.2557  11.7240  12.1569  12.6819  13.1844  13.9385
    14.7049  15.5216

          k =-0.5000-0.0000 0.0000 (  5884 PWs)   bands (ev):

   -45.4721 -23.8832 -23.6830 -23.4837 -20.6425 -12.2525  -3.0726  -2.7845
    -2.5961  -1.9326  -0.8561  -0.6181   3.9431   5.9744   6.5717   6.9788
     7.5907   9.8536  10.3074  11.7750  12.2705  12.9470  13.5007  14.0177
    14.4433  15.0168

     highest occupied, lowest unoccupied level (ev):     4.2213    5.4498

!    total energy              =    -571.23423296 Ry
     total all-electron energy =    -12610.611644 Ry
     estimated scf accuracy    <          4.9E-11 Ry

     The total energy is the sum of the following terms:
     one-electron contribution =    -277.55129687 Ry
     hartree contribution      =     147.18905864 Ry
     xc contribution           =     -36.33752581 Ry
     ewald contribution        =      -7.68013863 Ry
     one-center paw contrib.   =    -396.85433028 Ry

     convergence has been achieved in   5 iterations

     negative rho (up, down):  3.524E-05 0.000E+00

     Forces acting on atoms (cartesian axes, Ry/au):

     atom    1 type  1   force =     0.00000000    0.00009079    0.00012338
     atom    2 type  2   force =     0.00000000   -0.00015797   -0.00004806
     atom    3 type  3   force =     0.00000000    0.00006717   -0.00007532
     The non-local contrib.  to forces
     atom    1 type  1   force =     0.00000000   -0.00291848   -0.02503604
     atom    2 type  2   force =     0.00000000   -0.02155369   -0.97836328
     atom    3 type  3   force =     0.00000000   -0.00118280    0.21085584
     The ionic contribution  to forces
     atom    1 type  1   force =    -0.00000001   -0.16062896   -0.47177461
     atom    2 type  2   force =     0.00000001    0.11792625   24.24444584
     atom    3 type  3   force =     0.00000000    0.04270271  -23.77267123
     The local contribution  to forces
     atom    1 type  1   force =    -0.00000000    0.16351474    0.49275201
     atom    2 type  2   force =     0.00000027   -0.09659655  -23.26930935
     atom    3 type  3   force =    -0.00000000   -0.04134749   23.56448123
     The core correction contribution to forces
     atom    1 type  1   force =    -0.00000000    0.00012273    0.00418160
     atom    2 type  2   force =     0.00000000    0.00006548    0.00318148
     atom    3 type  3   force =    -0.00000000   -0.00010602   -0.00275736
     The Hubbard contrib.    to forces
     atom    1 type  1   force =     0.00000000    0.00000000    0.00000000
     atom    2 type  2   force =     0.00000000    0.00000000    0.00000000
     atom    3 type  3   force =     0.00000000    0.00000000    0.00000000
     The SCF correction term to forces
     atom    1 type  1   force =     0.00000000   -0.00000011   -0.00000386
     atom    2 type  2   force =    -0.00000000   -0.00000031   -0.00000705
     atom    3 type  3   force =    -0.00000000   -0.00000009    0.00001191

     Total force =     0.000247     Total SCF correction =     0.000014
     Energy error            =      1.0E-07 Ry
     Gradient error          =      1.6E-04 Ry/Bohr

     number of scf cycles    =   6
     number of bfgs steps    =   5

     energy             old  =    -571.2342328514 Ry
     energy             new  =    -571.2342329556 Ry

     CASE: energy            _new < energy            _old

     new trust radius        =       0.0003209651 bohr
     new conv_thr            =            1.0E-10 Ry


ATOMIC_POSITIONS (angstrom)
Zr            0.0000000000       -0.0018833494       10.1030009907
F            -0.0000000020        1.9300090280       11.3999173726
Br           -0.0000000020        1.9336820847        8.2152603498



     Writing config-only to output data dir ./tmp/ZrFBr.save/
     NEW-OLD atomic charge density approx. for the potential

     Check: negative core charge=   -0.000002

     negative rho (up, down):  3.517E-05 0.000E+00

     total cpu time spent up to now is       68.9 secs

     Self-consistent Calculation

     iteration #  1     ecut=    65.00 Ry     beta= 0.70
     Davidson diagonalization with overlap
     ethr =  1.00E-06,  avg # of iterations =  2.0

     Threshold (ethr) on eigenvalues was too large:
     Diagonalizing with lowered threshold

     Davidson diagonalization with overlap
     ethr =  5.47E-11,  avg # of iterations =  4.0

     negative rho (up, down):  3.522E-05 0.000E+00

     total cpu time spent up to now is       72.0 secs

     total energy              =    -571.23423303 Ry
     estimated scf accuracy    <       0.00000001 Ry

     iteration #  2     ecut=    65.00 Ry     beta= 0.70
     Davidson diagonalization with overlap
     ethr =  4.99E-11,  avg # of iterations =  2.0

     negative rho (up, down):  3.522E-05 0.000E+00

     total cpu time spent up to now is       73.4 secs

     total energy              =    -571.23423303 Ry
     estimated scf accuracy    <       0.00000001 Ry

     iteration #  3     ecut=    65.00 Ry     beta= 0.70
     Davidson diagonalization with overlap
     ethr =  4.57E-11,  avg # of iterations =  1.7

     negative rho (up, down):  3.522E-05 0.000E+00

     total cpu time spent up to now is       74.7 secs

     total energy              =    -571.23423304 Ry
     estimated scf accuracy    <          4.4E-09 Ry

     iteration #  4     ecut=    65.00 Ry     beta= 0.70
     Davidson diagonalization with overlap
     ethr =  1.69E-11,  avg # of iterations =  1.0

     negative rho (up, down):  3.522E-05 0.000E+00

     total cpu time spent up to now is       75.9 secs

     total energy              =    -571.23423304 Ry
     estimated scf accuracy    <          2.8E-10 Ry

     iteration #  5     ecut=    65.00 Ry     beta= 0.70
     Davidson diagonalization with overlap
     ethr =  1.07E-12,  avg # of iterations =  2.0

     negative rho (up, down):  3.522E-05 0.000E+00

     total cpu time spent up to now is       77.2 secs

     End of self-consistent calculation

          k = 0.0000 0.0000 0.0000 (  5891 PWs)   bands (ev):

   -45.5257 -23.9786 -23.2597 -23.2385 -20.7599 -13.0612  -3.2246  -2.5720
    -2.5444  -1.1978   1.1494   1.2519   3.7328   5.6268   5.7476   5.8012
     6.5967   6.6692   7.8192   8.6159  11.0186  13.8493  14.3962  14.6628
    15.2006  17.0903

          k = 0.0000 0.0733 0.0000 (  5862 PWs)   bands (ev):

   -45.5235 -23.9703 -23.2683 -23.2645 -20.7518 -13.0334  -3.1910  -2.5803
    -2.5716  -1.1755   1.0311   1.1076   3.7482   5.6713   5.7327   5.8481
     6.6140   6.6488   7.9451   8.8443  11.1517  13.9017  14.2490  14.5304
    15.0927  17.3316

          k = 0.0000 0.1465 0.0000 (  5850 PWs)   bands (ev):

   -45.5173 -23.9469 -23.3506 -23.2782 -20.7311 -12.9525  -3.1007  -2.6718
    -2.5718  -1.1217   0.4759   0.9929   3.7658   5.6214   5.8125   5.9626
     6.6766   6.7848   8.2835   9.3338  11.5374  13.5143  13.9312  14.9291
    14.9366  17.3210

          k = 0.0000 0.2198 0.0000 (  5848 PWs)   bands (ev):

   -45.5080 -23.9132 -23.4662 -23.2987 -20.7061 -12.8269  -2.9921  -2.7751
    -2.5753  -1.0691  -0.2155   0.8324   3.7299   5.5678   6.0301   6.0608
     6.9627   6.9908   8.7521   9.8315  11.9167  13.1296  13.5712  15.2799
    15.5781  16.9835

          k = 0.0000 0.2930 0.0000 (  5884 PWs)   bands (ev):

   -45.4971 -23.8798 -23.5882 -23.3227 -20.6847 -12.6706  -2.9864  -2.7774
    -2.5842  -1.1743  -0.7589   0.6578   3.6273   5.6269   6.1926   6.4068
     7.1489   7.4220   9.2400  10.2350  11.7812  12.8286  13.9997  15.7699
    16.3293  16.3717

          k = 0.0000 0.3663 0.0000 (  5902 PWs)   bands (ev):

   -45.4861 -23.8717 -23.6770 -23.3465 -20.6709 -12.5043  -3.0792  -2.6991
    -2.5979  -1.6994  -0.8033   0.4971   3.5091   5.7731   6.4470   6.7972
     7.3435   7.9319   9.6020  10.5052  11.6678  12.5176  14.6470  15.0972
    16.0338  16.2839

          k = 0.0000 0.4395 0.0000 (  5892 PWs)   bands (ev):

   -45.4768 -23.9141 -23.6978 -23.3666 -20.6644 -12.3542  -3.1694  -2.6543
    -2.6130  -2.1742  -0.7524   0.3701   3.4245   5.9738   6.6555   7.1013
     7.6015   8.5357   9.7447  10.7107  11.7974  12.4478  13.6424  15.0306
    15.5092  15.5384

          k = 0.0000 0.5128 0.0000 (  5882 PWs)   bands (ev):

   -45.4706 -23.9639 -23.6876 -23.3800 -20.6625 -12.2487  -3.2391  -2.6716
    -2.6248  -2.4371  -0.7101   0.2895   3.3835   6.1924   6.6966   7.2401
     7.8913   9.1893   9.8070  10.8927  11.8391  12.3923  13.0114  14.4904
    14.8400  15.0718

          k = 0.0000-0.5860 0.0000 (  5882 PWs)   bands (ev):

   -45.4684 -23.9834 -23.6816 -23.3847 -20.6623 -12.2105  -3.2680  -2.7083
    -2.6293  -2.4947  -0.6944   0.2620   3.3728   6.3220   6.6466   7.2769
     8.0193   9.5598   9.8314  11.0793  11.4760  12.3113  13.1661  14.0294
    14.6643  14.8968

          k = 0.0625 0.0366 0.0000 (  5871 PWs)   bands (ev):

   -45.5236 -23.9706 -23.2852 -23.2462 -20.7519 -13.0345  -3.1918  -2.6019
    -2.5483  -1.1768   0.9529   1.1941   3.7447   5.5891   5.8210   5.8475
     6.5643   6.7085   7.9389   8.8357  11.1468  13.9002  14.0962  14.7359
    15.0729  17.2671

          k = 0.0625 0.1099 0.0000 (  5871 PWs)   bands (ev):

   -45.5195 -23.9548 -23.3303 -23.2665 -20.7375 -12.9802  -3.1295  -2.6511
    -2.5630  -1.1388   0.6214   1.0612   3.7608   5.5904   5.8292   5.9525
     6.5813   6.7882   8.1720   9.1902  11.4129  13.6591  13.9518  14.7775
    15.0244  17.3422

          k = 0.0625 0.1831 0.0000 (  5862 PWs)   bands (ev):

   -45.5117 -23.9261 -23.4233 -23.2895 -20.7148 -12.8769  -3.0250  -2.7455
    -2.5723  -1.0841   0.0404   0.8816   3.7551   5.5306   5.9898   6.0508
     6.7485   6.9797   8.5771   9.6718  11.8871  13.1285  13.6629  14.9583
    15.5184  16.9215

          k = 0.0625 0.2564 0.0000 (  5877 PWs)   bands (ev):

   -45.5016 -23.8917 -23.5386 -23.3158 -20.6919 -12.7356  -2.9489  -2.8108
    -2.5841  -1.0707  -0.5842   0.6792   3.6941   5.5466   6.0880   6.3565
     7.0009   7.2863   9.0597  10.1248  12.0324  12.9699  13.4644  15.4216
    16.1993  16.4951

          k = 0.0625 0.3296 0.0000 (  5875 PWs)   bands (ev):

   -45.4907 -23.8676 -23.6433 -23.3435 -20.6746 -12.5735  -3.0192  -2.7396
    -2.6016  -1.4229  -0.8173   0.4820   3.5972   5.6816   6.2471   6.7321
     7.2275   7.7396   9.4999  10.4870  11.7930  12.6421  14.2507  15.3244
    15.9172  16.3500

          k = 0.0625 0.4029 0.0000 (  5899 PWs)   bands (ev):

   -45.4805 -23.8856 -23.6939 -23.3687 -20.6648 -12.4142  -3.1122  -2.6717
    -2.6236  -1.9379  -0.7808   0.3140   3.5132   5.8911   6.4627   7.0213
     7.4658   8.3354   9.7679  10.7341  11.7787  12.4601  14.1927  14.8500
    15.4481  16.2731

          k = 0.0625 0.4761 0.0000 (  5891 PWs)   bands (ev):

   -45.4727 -23.9366 -23.6917 -23.3879 -20.6609 -12.2851  -3.1884  -2.6883
    -2.6198  -2.2912  -0.7312   0.1927   3.4673   6.1234   6.6251   7.1671
     7.7060   9.0439   9.8771  10.9113  11.9101  12.4831  13.1902  14.5289
    14.9742  15.5749

          k = 0.0625 0.5494 0.0000 (  5883 PWs)   bands (ev):

   -45.4685 -23.9719 -23.6816 -23.3982 -20.6599 -12.2123  -3.2359  -2.7512
    -2.6133  -2.4284  -0.7016   0.1294   3.4521   6.3161   6.6497   7.2186
     7.8743   9.6553   9.9615  11.0775  11.6686  12.3357  13.0810  14.0907
    14.6648  15.0005

          k = 0.1250 0.0733 0.0000 (  5860 PWs)   bands (ev):

   -45.5178 -23.9482 -23.3635 -23.2601 -20.7314 -12.9570  -3.1036  -2.6879
    -2.5497  -1.1265   0.4145   1.0831   3.7516   5.5270   5.9235   5.9640
     6.6490   6.8382   8.2648   9.3168  11.5189  13.4574  13.8891  14.9067
    15.1128  17.3501

          k = 0.1250 0.1465 0.0000 (  5864 PWs)   bands (ev):

   -45.5121 -23.9271 -23.4293 -23.2797 -20.7150 -12.8802  -3.0270  -2.7522
    -2.5612  -1.0877   0.0080   0.9365   3.7422   5.5103   6.0068   6.0670
     6.7449   6.9976   8.5655   9.6642  11.8745  13.1046  13.6406  14.9554
    15.5831  16.9539

          k = 0.1250 0.2198 0.0000 (  5850 PWs)   bands (ev):

   -45.5035 -23.8972 -23.5210 -23.3098 -20.6946 -12.7610  -2.9297  -2.8307
    -2.5809  -1.0577  -0.4931   0.6877   3.7184   5.4816   6.1050   6.3643
     6.9014   7.2666   8.9882  10.0931  12.4229  12.6902  13.2487  15.2179
    16.1988  16.4804

          k = 0.1250 0.2930 0.0000 (  5874 PWs)   bands (ev):

   -45.4934 -23.8691 -23.6158 -23.3457 -20.6764 -12.6133  -2.9558  -2.7883
    -2.6085  -1.2321  -0.8171   0.4066   3.6812   5.5507   6.2142   6.6972
     7.1452   7.6670   9.4381  10.5258  12.2339  12.7393  13.4012  15.1708
    16.0206  16.4488

          k = 0.1250 0.3663 0.0000 (  5895 PWs)   bands (ev):

   -45.4833 -23.8657 -23.6802 -23.3818 -20.6637 -12.4566  -3.0418  -2.7047
    -2.6410  -1.6882  -0.8124   0.1480   3.6474   5.7477   6.3431   6.9115
     7.4229   8.2651   9.8110  10.9095  12.0077  12.5167  14.1836  14.5776
    15.2760  16.2970

          k = 0.1250 0.4395 0.0000 (  5882 PWs)   bands (ev):

   -45.4747 -23.9017 -23.6917 -23.4124 -20.6569 -12.3160  -3.1138  -2.7189
    -2.6270  -2.0678  -0.7638  -0.0566   3.6350   6.0306   6.4618   7.0504
     7.6011   9.0344  10.0386  11.1729  11.9948  12.4913  13.6122  14.2768
    15.0559  16.1174

          k = 0.1250 0.5128 0.0000 (  5880 PWs)   bands (ev):

   -45.4689 -23.9417 -23.6814 -23.4329 -20.6542 -12.2174  -3.1622  -2.7966
    -2.6032  -2.2722  -0.7247  -0.1880   3.6410   6.2974   6.5494   7.1328
     7.6636   9.8102  10.1963  11.2909  11.9732  12.4617  12.9931  14.0434
    14.7156  15.4342

          k = 0.1250 0.5860 0.0000 (  5872 PWs)   bands (ev):

   -45.4669 -23.9574 -23.6758 -23.4402 -20.6536 -12.1818  -3.1798  -2.8386
    -2.5973  -2.3269  -0.7099  -0.2336   3.6466   6.3997   6.6035   7.1433
     7.6786  10.0404  10.5145  11.4225  11.5594  12.3089  13.1241  13.9440
    14.6667  14.9216

          k = 0.1250 0.0000 0.0000 (  5835 PWs)   bands (ev):

   -45.5198 -23.9557 -23.3394 -23.2536 -20.7377 -12.9835  -3.1315  -2.6638
    -2.5458  -1.1424   0.5844   1.1160   3.7533   5.5127   5.9074   5.9631
     6.5899   6.8035   8.1565   9.1763  11.4011  13.6015  13.9319  14.8357
    15.1042  17.3716

          k = 0.1875 0.1099 0.0000 (  5863 PWs)   bands (ev):

   -45.5091 -23.9160 -23.4755 -23.2790 -20.7064 -12.8367  -2.9975  -2.7862
    -2.5523  -1.0795  -0.2618   0.9341   3.7009   5.5283   5.9964   6.1694
     6.9647   7.0180   8.7210   9.8165  11.8958  13.0862  13.5216  15.2382
    15.7382  17.0322

          k = 0.1875 0.1831 0.0000 (  5861 PWs)   bands (ev):

   -45.5026 -23.8943 -23.5453 -23.3000 -20.6921 -12.7443  -2.9545  -2.8162
    -2.5671  -1.0837  -0.6180   0.7687   3.6649   5.5425   6.0830   6.3924
     7.0224   7.2863   9.0362  10.1186  12.0287  12.9301  13.4056  15.3866
    16.2851  16.5244

          k = 0.1875 0.2564 0.0000 (  5865 PWs)   bands (ev):

   -45.4940 -23.8708 -23.6188 -23.3373 -20.6763 -12.6187  -2.9596  -2.7886
    -2.6008  -1.2477  -0.8254   0.4548   3.6643   5.5549   6.2137   6.7048
     7.1616   7.6617   9.4262  10.5273  12.2456  12.7331  13.3354  15.1673
    15.9705  16.4334

          k = 0.1875 0.3296 0.0000 (  5878 PWs)   bands (ev):

   -45.4847 -23.8605 -23.6729 -23.3845 -20.6629 -12.4757  -3.0068  -2.7264
    -2.6442  -1.5792  -0.8336   0.0840   3.7037   5.6405   6.3843   6.8161
     7.4350   8.2444   9.8184  10.9897  12.3434  12.5567  13.6273  14.4352
    15.5676  16.0507

          k = 0.1875 0.4029 0.0000 (  5892 PWs)   bands (ev):

   -45.4761 -23.8779 -23.6889 -23.4323 -20.6536 -12.3364  -3.0581  -2.7374
    -2.6353  -1.8817  -0.8046  -0.2532   3.7691   5.8332   6.5213   6.8729
     7.6121   9.0346  10.1407  11.4267  12.2539  12.5162  13.7362  14.3183
    14.6740  15.6337

          k = 0.1875 0.4761 0.0000 (  5881 PWs)   bands (ev):

   -45.4695 -23.9076 -23.6808 -23.4710 -20.6483 -12.2245  -3.0995  -2.8068
    -2.5991  -2.0836  -0.7836  -0.4952   3.8388   6.1099   6.5359   7.0177
     7.6128   9.8968  10.3492  11.6868  12.1327  12.6608  13.2414  13.9252
    14.7495  15.4392

          k = 0.1875 0.5494 0.0000 (  5861 PWs)   bands (ev):

   -45.4659 -23.9270 -23.6717 -23.4926 -20.6462 -12.1619  -3.1233  -2.8604
    -2.5822  -2.1746  -0.7857  -0.6079   3.8847   6.3495   6.5194   7.1378
     7.5143  10.2511  10.9198  11.7206  11.9294  12.3938  13.1567  14.0099
    14.5469  15.1814

          k = 0.1875-0.0366 0.0000 (  5838 PWs)   bands (ev):

   -45.5127 -23.9284 -23.4307 -23.2732 -20.7150 -12.8853  -3.0294  -2.7560
    -2.5514  -1.0926   0.0114   0.9497   3.7378   5.4687   6.0070   6.1241
     6.7876   6.9728   8.5463   9.6557  11.8656  13.1054  13.6345  14.9714
    15.6244  16.9370

          k = 0.2500 0.1465 0.0000 (  5866 PWs)   bands (ev):

   -45.4989 -23.8842 -23.5940 -23.3008 -20.6845 -12.6871  -2.9936  -2.7838
    -2.5591  -1.1988  -0.7827   0.7724   3.5886   5.6248   6.1569   6.4860
     7.1949   7.4009   9.2003  10.2289  11.7746  12.7838  13.9129  15.6828
    16.2175  16.5126

          k = 0.2500 0.2198 0.0000 (  5878 PWs)   bands (ev):

   -45.4923 -23.8720 -23.6487 -23.3231 -20.6744 -12.5892  -3.0261  -2.7427
    -2.5808  -1.4529  -0.8340   0.5941   3.5579   5.6894   6.2370   6.7647
     7.2663   7.7217   9.4686  10.4920  11.7864  12.6019  14.1366  15.2260
    15.9001  16.3626

          k = 0.2500 0.2930 0.0000 (  5868 PWs)   bands (ev):

   -45.4845 -23.8690 -23.6839 -23.3668 -20.6632 -12.4690  -3.0468  -2.7000
    -2.6326  -1.7107  -0.8229   0.2287   3.6192   5.7550   6.3401   6.9271
     7.4421   8.2545   9.7912  10.9253  12.0082  12.5024  14.0965  14.4961
    15.2136  16.2906

          k = 0.2500 0.3663 0.0000 (  5873 PWs)   bands (ev):

   -45.4768 -23.8794 -23.6908 -23.4248 -20.6532 -12.3434  -3.0601  -2.7299
    -2.6371  -1.8915  -0.8083  -0.2158   3.7565   5.8340   6.5223   6.8788
     7.6173   9.0298  10.1304  11.4418  12.2529  12.5382  13.7221  14.2079
    14.6168  15.7061

          k = 0.2500 0.4395 0.0000 (  5876 PWs)   bands (ev):

   -45.4702 -23.8924 -23.6812 -23.4845 -20.6455 -12.2321  -3.0789  -2.7999
    -2.5987  -1.9841  -0.8512  -0.5849   3.9236   5.9737   6.6021   6.9239
     7.6302   9.9131  10.4001  11.7646  12.3128  12.8350  13.4747  13.9977
    14.4334  14.9877

          k = 0.2500 0.5128 0.0000 (  5865 PWs)   bands (ev):

   -45.4657 -23.8993 -23.6703 -23.5304 -20.6409 -12.1552  -3.1100  -2.8289
    -2.5706  -2.0123  -1.0555  -0.6872   4.0609   6.1738   6.5245   7.0953
     7.5099  10.3571  10.9400  11.6949  12.5757  12.9877  13.2009  13.7789
    14.4473  14.9847

          k = 0.2500 0.5860 0.0000 (  5860 PWs)   bands (ev):

   -45.4642 -23.9008 -23.6659 -23.5479 -20.6394 -12.1277  -3.1268  -2.8316
    -2.5604  -2.0137  -1.1644  -0.6954   4.1142   6.3001   6.4750   7.1548
     7.4343  10.3348  11.6010  11.8989  11.9439  12.8910  13.3901  13.8567
    14.4806  15.0748

          k = 0.2500-0.0733 0.0000 (  5866 PWs)   bands (ev):

   -45.5033 -23.8956 -23.5422 -23.2978 -20.6917 -12.7507  -2.9548  -2.8168
    -2.5616  -1.0854  -0.5998   0.7572   3.6695   5.5240   6.0855   6.4218
     7.0481   7.2638   9.0182  10.1142  12.0354  12.9417  13.4324  15.4057
    16.2229  16.5063

          k = 0.2500 0.0000 0.0000 (  5832 PWs)   bands (ev):

   -45.5048 -23.8999 -23.5197 -23.3006 -20.6942 -12.7726  -2.9333  -2.8330
    -2.5668  -1.0668  -0.4787   0.7050   3.7128   5.4502   6.1199   6.4085
     6.9428   7.2421   8.9542  10.0841  12.4176  12.7191  13.2480  15.2139
    16.1633  16.4912

          k = 0.3125 0.1831 0.0000 (  5881 PWs)   bands (ev):

   -45.4886 -23.8764 -23.6812 -23.3224 -20.6699 -12.5283  -3.0856  -2.7026
    -2.5701  -1.7193  -0.8241   0.6231   3.4675   5.7861   6.4191   6.8457
     7.3887   7.9021   9.5616  10.5134  11.6462  12.4679  14.4913  14.9990
    16.1435  16.2174

          k = 0.3125 0.2564 0.0000 (  5875 PWs)   bands (ev):

   -45.4828 -23.8898 -23.6989 -23.3451 -20.6638 -12.4375  -3.1194  -2.6693
    -2.6020  -1.9588  -0.8008   0.4397   3.4707   5.9046   6.4453   7.0555
     7.4960   8.3112   9.7385  10.7534  11.7497  12.4114  14.0487  14.7766
    15.4384  16.2308

          k = 0.3125 0.3296 0.0000 (  5867 PWs)   bands (ev):

   -45.4766 -23.9047 -23.6964 -23.3931 -20.6557 -12.3359  -3.1197  -2.6997
    -2.6292  -2.0814  -0.7798   0.0411   3.6029   6.0386   6.4528   7.0729
     7.6120   9.0185  10.0166  11.2144  11.9746  12.4608  13.5027  14.2564
    14.9420  16.0739

          k = 0.3125 0.4029 0.0000 (  5877 PWs)   bands (ev):

   -45.4708 -23.9088 -23.6843 -23.4584 -20.6472 -12.2390  -3.1012  -2.7981
    -2.5998  -2.0895  -0.7860  -0.4430   3.8214   6.1039   6.5386   7.0283
     7.6178   9.8776  10.3310  11.7315  12.1571  12.6517  13.1330  13.9331
    14.6371  15.5135

          k = 0.3125 0.4761 0.0000 (  5866 PWs)   bands (ev):

   -45.4664 -23.8991 -23.6721 -23.5251 -20.6402 -12.1627  -3.1083  -2.8267
    -2.5705  -2.0137  -1.0328  -0.6900   4.0565   6.1648   6.5264   7.1006
     7.5131  10.3313  10.9374  11.7111  12.5505  13.0252  13.1566  13.8431
    14.4107  14.9572

          k = 0.3125 0.5494 0.0000 (  5865 PWs)   bands (ev):

   -45.4640 -23.8854 -23.6653 -23.5701 -20.6363 -12.1206  -3.1360  -2.8015
    -2.5487  -1.8702  -1.4064  -0.7078   4.2158   6.2457   6.4631   7.1071
     7.4722  10.3126  11.6190  11.8455  12.6041  12.8579  13.5111  13.7888
    14.5616  15.1719

          k = 0.3125-0.1099 0.0000 (  5868 PWs)   bands (ev):

   -45.4930 -23.8720 -23.6448 -23.3235 -20.6736 -12.5959  -3.0232  -2.7439
    -2.5769  -1.4318  -0.8335   0.5718   3.5699   5.6875   6.2417   6.7663
     7.2671   7.7131   9.4532  10.4891  11.7990  12.6096  14.1947  15.2345
    15.8872  16.3325

          k = 0.3125-0.0366 0.0000 (  5854 PWs)   bands (ev):

   -45.4954 -23.8723 -23.6126 -23.3344 -20.6752 -12.6319  -2.9558  -2.7914
    -2.5914  -1.2236  -0.8178   0.4342   3.6755   5.5398   6.2334   6.7173
     7.1697   7.6451   9.3943  10.5205  12.2760  12.7482  13.3924  15.1388
    15.9354  16.4061

          k = 0.3750 0.2198 0.0000 (  5885 PWs)   bands (ev):

   -45.4798 -23.9161 -23.7038 -23.3406 -20.6626 -12.3852  -3.1768  -2.6528
    -2.5824  -2.1831  -0.7781   0.5049   3.3820   5.9902   6.6420   7.1346
     7.6277   8.4960   9.7124  10.7185  11.7506  12.3818  13.5139  14.9343
    15.4050  15.6833

          k = 0.3750 0.2930 0.0000 (  5877 PWs)   bands (ev):

   -45.4756 -23.9384 -23.6983 -23.3623 -20.6589 -12.3153  -3.1973  -2.6684
    -2.6101  -2.2978  -0.7562   0.3243   3.4251   6.1410   6.6060   7.2067
     7.7105   9.0147   9.8552  10.9268  11.8528  12.4085  13.0881  14.5065
    14.8816  15.6133

          k = 0.3750 0.3663 0.0000 (  5876 PWs)   bands (ev):

   -45.4714 -23.9425 -23.6875 -23.4117 -20.6521 -12.2442  -3.1687  -2.7790
    -2.6012  -2.2702  -0.7454  -0.0864   3.6104   6.3141   6.5280   7.1631
     7.6599   9.7716  10.1864  11.3418  11.9077  12.3906  12.9421  14.0265
    14.6177  15.4194

          k = 0.3750 0.4395 0.0000 (  5862 PWs)   bands (ev):

   -45.4678 -23.9259 -23.6765 -23.4782 -20.6442 -12.1831  -3.1230  -2.8506
    -2.5809  -2.1684  -0.7763  -0.5695   3.8702   6.3447   6.5112   7.1613
     7.5106  10.1924  10.9143  11.7209  11.9255  12.4042  13.1086  13.9836
    14.5039  15.1345

          k = 0.3750 0.5128 0.0000 (  5876 PWs)   bands (ev):

   -45.4654 -23.8979 -23.6689 -23.5414 -20.6378 -12.1418  -3.1227  -2.8258
    -2.5591  -2.0019  -1.1386  -0.7071   4.1145   6.2928   6.4640   7.1666
     7.4368  10.2828  11.6108  11.8340  11.8975  13.0147  13.4152  13.8570
    14.4461  15.0508

          k = 0.3750 0.5860 0.0000 (  5856 PWs)   bands (ev):

   -45.4646 -23.8823 -23.6664 -23.5694 -20.6354 -12.1272  -3.1338  -2.7973
    -2.5476  -1.8465  -1.4165  -0.7145   4.2216   6.2482   6.4501   7.1093
     7.4743  10.2858  11.6342  11.7328  12.6766  12.8531  13.6378  13.7281
    14.5370  15.1565

          k = 0.3750-0.1465 0.0000 (  5880 PWs)   bands (ev):

   -45.4834 -23.8871 -23.6976 -23.3465 -20.6629 -12.4435  -3.1156  -2.6714
    -2.5981  -1.9367  -0.8034   0.4166   3.4848   5.9089   6.4595   7.0399
     7.4909   8.2960   9.7230  10.7523  11.7558  12.4124  14.0665  14.8219
    15.4006  16.2687

          k = 0.3750-0.0733 0.0000 (  5874 PWs)   bands (ev):

   -45.4858 -23.8661 -23.6795 -23.3679 -20.6616 -12.4820  -3.0404  -2.7035
    -2.6237  -1.6672  -0.8275   0.1918   3.6408   5.7532   6.3534   6.9307
     7.4240   8.2317   9.7601  10.9177  12.0339  12.5132  14.1686  14.5083
    15.2340  16.2523

          k = 0.3750 0.0000 0.0000 (  5852 PWs)   bands (ev):

   -45.4866 -23.8593 -23.6679 -23.3804 -20.6608 -12.4954  -3.0009  -2.7276
    -2.6323  -1.5340  -0.8412   0.0670   3.7180   5.6335   6.4045   6.8274
     7.4207   8.2164   9.7738  10.9814  12.3625  12.6244  13.6532  14.4077
    15.5602  15.9870

          k = 0.4375 0.2564 0.0000 (  5876 PWs)   bands (ev):

   -45.4740 -23.9637 -23.6954 -23.3526 -20.6600 -12.2847  -3.2488  -2.6616
    -2.5922  -2.4409  -0.7393   0.4297   3.3402   6.2064   6.7004   7.2770
     7.8835   9.1412   9.7822  10.8830  11.7523  12.2953  12.9471  14.4098
    14.7200  15.2600

          k = 0.4375 0.3296 0.0000 (  5885 PWs)   bands (ev):

   -45.4718 -23.9715 -23.6893 -23.3720 -20.6573 -12.2474  -3.2458  -2.7303
    -2.6010  -2.4228  -0.7298   0.2601   3.4123   6.3313   6.6475   7.2561
     7.8559   9.6034   9.9613  11.0715  11.5553  12.2597  13.0392  14.0271
    14.5671  15.1152

          k = 0.4375 0.4029 0.0000 (  5875 PWs)   bands (ev):

   -45.4698 -23.9556 -23.6827 -23.4190 -20.6508 -12.2133  -3.1851  -2.8193
    -2.5931  -2.3136  -0.7330  -0.1387   3.6214   6.4110   6.5983   7.1724
     7.6621   9.9675  10.5154  11.4175  11.5035  12.2676  13.0850  13.8871
    14.6101  14.9370

          k = 0.4375 0.4761 0.0000 (  5871 PWs)   bands (ev):

   -45.4682 -23.9226 -23.6770 -23.4795 -20.6435 -12.1875  -3.1212  -2.8454
    -2.5801  -2.1549  -0.7758  -0.5858   3.8783   6.3566   6.5015   7.1744
     7.4919  10.1753  10.8260  11.7497  11.9688  12.4087  13.1023  13.9896
    14.5252  15.1579

          k = 0.4375 0.5494 0.0000 (  5874 PWs)   bands (ev):

   -45.4674 -23.8922 -23.6733 -23.5264 -20.6386 -12.1736  -3.1052  -2.8163
    -2.5687  -1.9767  -1.0489  -0.7067   4.0714   6.1745   6.5020   7.1291
     7.4869  10.2964  10.8196  11.7356  12.5437  13.0619  13.2468  13.8064
    14.4274  14.9943

          k = 0.4375-0.1831 0.0000 (  5888 PWs)   bands (ev):

   -45.4760 -23.9353 -23.6984 -23.3637 -20.6582 -12.3196  -3.1938  -2.6696
    -2.6076  -2.2831  -0.7582   0.3074   3.4360   6.1392   6.6338   7.1872
     7.7088   8.9854   9.8374  10.9283  11.8585  12.4021  13.1009  14.5363
    14.8810  15.6147

          k = 0.4375-0.1099 0.0000 (  5870 PWs)   bands (ev):

   -45.4776 -23.8983 -23.6960 -23.3956 -20.6541 -12.3464  -3.1133  -2.6981
    -2.6248  -2.0457  -0.7840   0.0057   3.6243   6.0450   6.4628   7.0778
     7.5865   8.9774   9.9789  11.2109  11.9871  12.4552  13.5376  14.2757
    14.9934  16.1102

          k = 0.4375-0.0366 0.0000 (  5867 PWs)   bands (ev):

   -45.4784 -23.8720 -23.6894 -23.4257 -20.6508 -12.3609  -3.0526  -2.7228
    -2.6332  -1.8366  -0.8155  -0.2555   3.7808   5.8336   6.5186   6.9082
     7.5825   8.9826  10.0770  11.4278  12.2491  12.5953  13.7268  14.2912
    14.6597  15.6694

          k =-0.5000-0.2930 0.0000 (  5886 PWs)   bands (ev):

   -45.4719 -23.9825 -23.6899 -23.3569 -20.6595 -12.2484  -3.2788  -2.6937
    -2.5961  -2.4977  -0.7250   0.4040   3.3290   6.3303   6.6621   7.3163
     7.9958   9.4980   9.8288  11.0569  11.3559  12.2286  13.1127  13.9560
    14.5445  15.0937

          k =-0.5000-0.2198 0.0000 (  5873 PWs)   bands (ev):

   -45.4719 -23.9702 -23.6895 -23.3726 -20.6570 -12.2489  -3.2442  -2.7299
    -2.6004  -2.4184  -0.7305   0.2539   3.4164   6.3243   6.6678   7.2462
     7.8575   9.5799   9.9534  11.0676  11.5773  12.2547  13.0291  14.0439
    14.5927  15.0952

          k =-0.5000-0.1465 0.0000 (  5870 PWs)   bands (ev):

   -45.4719 -23.9380 -23.6880 -23.4135 -20.6512 -12.2501  -3.1643  -2.7749
    -2.5997  -2.2528  -0.7473  -0.1076   3.6233   6.3078   6.5554   7.1592
     7.6443   9.7300  10.1405  11.3413  11.9476  12.3831  12.9416  14.0524
    14.6543  15.4197

          k =-0.5000-0.0733 0.0000 (  5863 PWs)   bands (ev):

   -45.4719 -23.9007 -23.6850 -23.4609 -20.6453 -12.2513  -3.0958  -2.7881
    -2.5976  -2.0499  -0.7885  -0.4813   3.8424   6.1148   6.5218   7.0624
     7.5794   9.8271  10.2557  11.7242  12.1569  12.6820  13.1843  13.9386
    14.7050  15.5214

          k =-0.5000-0.0000 0.0000 (  5884 PWs)   bands (ev):

   -45.4719 -23.8832 -23.6828 -23.4836 -20.6429 -12.2518  -3.0733  -2.7852
    -2.5966  -1.9320  -0.8555  -0.6176   3.9436   5.9746   6.5716   6.9793
     7.5908   9.8534  10.3074  11.7752  12.2703  12.9471  13.5009  14.0174
    14.4435  15.0168

     highest occupied, lowest unoccupied level (ev):     4.2216    5.4502

!    total energy              =    -571.23423304 Ry
     total all-electron energy =    -12610.611644 Ry
     estimated scf accuracy    <          3.8E-11 Ry

     The total energy is the sum of the following terms:
     one-electron contribution =    -277.55436440 Ry
     hartree contribution      =     147.19066591 Ry
     xc contribution           =     -36.33751957 Ry
     ewald contribution        =      -7.67868770 Ry
     one-center paw contrib.   =    -396.85432727 Ry

     convergence has been achieved in   5 iterations

     negative rho (up, down):  3.522E-05 0.000E+00

     Forces acting on atoms (cartesian axes, Ry/au):

     atom    1 type  1   force =     0.00000000    0.00006501    0.00000466
     atom    2 type  2   force =     0.00000000   -0.00013076    0.00001544
     atom    3 type  3   force =     0.00000000    0.00006574   -0.00002009
     The non-local contrib.  to forces
     atom    1 type  1   force =     0.00000000   -0.00294664   -0.02500199
     atom    2 type  2   force =     0.00000000   -0.02168421   -0.97812771
     atom    3 type  3   force =     0.00000000   -0.00118325    0.21086868
     The ionic contribution  to forces
     atom    1 type  1   force =    -0.00000001   -0.16163689   -0.47187584
     atom    2 type  2   force =     0.00000001    0.11890959   24.24413947
     atom    3 type  3   force =     0.00000000    0.04272729  -23.77226363
     The local contribution  to forces
     atom    1 type  1   force =    -0.00000000    0.16452474    0.49270627
     atom    2 type  2   force =     0.00000027   -0.09742259  -23.26917646
     atom    3 type  3   force =    -0.00000000   -0.04137316   23.56412362
     The core correction contribution to forces
     atom    1 type  1   force =    -0.00000000    0.00012273    0.00417902
     atom    2 type  2   force =     0.00000000    0.00006578    0.00318042
     atom    3 type  3   force =    -0.00000000   -0.00010611   -0.00276044
     The Hubbard contrib.    to forces
     atom    1 type  1   force =     0.00000000    0.00000000    0.00000000
     atom    2 type  2   force =     0.00000000    0.00000000    0.00000000
     atom    3 type  3   force =     0.00000000    0.00000000    0.00000000
     The SCF correction term to forces
     atom    1 type  1   force =    -0.00000000    0.00000006   -0.00000647
     atom    2 type  2   force =    -0.00000000   -0.00000034   -0.00000394
     atom    3 type  3   force =    -0.00000000   -0.00000006    0.00000801

     Total force =     0.000162     Total SCF correction =     0.000011
     Energy error            =      8.3E-08 Ry
     Gradient error          =      1.3E-04 Ry/Bohr

     number of scf cycles    =   7
     number of bfgs steps    =   6

     energy             old  =    -571.2342329556 Ry
     energy             new  =    -571.2342330382 Ry

     CASE: energy            _new < energy            _old

     new trust radius        =       0.0004814477 bohr
     new conv_thr            =            1.0E-10 Ry


ATOMIC_POSITIONS (angstrom)
Zr            0.0000000000       -0.0017624577       10.1031045951
F            -0.0000000020        1.9297617418       11.3998560709
Br           -0.0000000020        1.9338084791        8.2152180470



     Writing config-only to output data dir ./tmp/ZrFBr.save/
     NEW-OLD atomic charge density approx. for the potential

     Check: negative core charge=   -0.000002

     negative rho (up, down):  3.516E-05 0.000E+00

     total cpu time spent up to now is       77.7 secs

     Self-consistent Calculation

     iteration #  1     ecut=    65.00 Ry     beta= 0.70
     Davidson diagonalization with overlap
     ethr =  1.00E-06,  avg # of iterations =  2.0

     Threshold (ethr) on eigenvalues was too large:
     Diagonalizing with lowered threshold

     Davidson diagonalization with overlap
     ethr =  7.18E-11,  avg # of iterations =  4.0

     negative rho (up, down):  3.520E-05 0.000E+00

     total cpu time spent up to now is       80.8 secs

     total energy              =    -571.23423310 Ry
     estimated scf accuracy    <       0.00000002 Ry

     iteration #  2     ecut=    65.00 Ry     beta= 0.70
     Davidson diagonalization with overlap
     ethr =  6.80E-11,  avg # of iterations =  2.0

     negative rho (up, down):  3.521E-05 0.000E+00

     total cpu time spent up to now is       82.2 secs

     total energy              =    -571.23423310 Ry
     estimated scf accuracy    <       0.00000001 Ry

     iteration #  3     ecut=    65.00 Ry     beta= 0.70
     Davidson diagonalization with overlap
     ethr =  4.39E-11,  avg # of iterations =  2.0

     negative rho (up, down):  3.521E-05 0.000E+00

     total cpu time spent up to now is       83.5 secs

     total energy              =    -571.23423310 Ry
     estimated scf accuracy    <          7.7E-09 Ry

     iteration #  4     ecut=    65.00 Ry     beta= 0.70
     Davidson diagonalization with overlap
     ethr =  2.98E-11,  avg # of iterations =  1.0

     negative rho (up, down):  3.521E-05 0.000E+00

     total cpu time spent up to now is       84.7 secs

     total energy              =    -571.23423310 Ry
     estimated scf accuracy    <          2.6E-10 Ry

     iteration #  5     ecut=    65.00 Ry     beta= 0.70
     Davidson diagonalization with overlap
     ethr =  9.86E-13,  avg # of iterations =  2.0

     negative rho (up, down):  3.521E-05 0.000E+00

     total cpu time spent up to now is       86.1 secs

     End of self-consistent calculation

          k = 0.0000 0.0000 0.0000 (  5891 PWs)   bands (ev):

   -45.5255 -23.9786 -23.2595 -23.2384 -20.7604 -13.0606  -3.2249  -2.5725
    -2.5455  -1.1976   1.1503   1.2527   3.7332   5.6273   5.7475   5.8013
     6.5966   6.6700   7.8192   8.6159  11.0188  13.8494  14.3964  14.6633
    15.1999  17.0911

          k = 0.0000 0.0733 0.0000 (  5862 PWs)   bands (ev):

   -45.5233 -23.9703 -23.2682 -23.2643 -20.7523 -13.0328  -3.1913  -2.5814
    -2.5722  -1.1753   1.0319   1.1085   3.7484   5.6718   5.7329   5.8479
     6.6147   6.6486   7.9451   8.8443  11.1519  13.9018  14.2495  14.5305
    15.0921  17.3322

          k = 0.0000 0.1465 0.0000 (  5850 PWs)   bands (ev):

   -45.5172 -23.9469 -23.3505 -23.2780 -20.7315 -12.9520  -3.1010  -2.6728
    -2.5723  -1.1214   0.4767   0.9938   3.7660   5.6216   5.8130   5.9628
     6.6771   6.7846   8.2835   9.3337  11.5377  13.5146  13.9313  14.9294
    14.9361  17.3211

          k = 0.0000 0.2198 0.0000 (  5848 PWs)   bands (ev):

   -45.5079 -23.9132 -23.4662 -23.2985 -20.7065 -12.8263  -2.9925  -2.7760
    -2.5758  -1.0687  -0.2149   0.8332   3.7299   5.5678   6.0307   6.0613
     6.9625   6.9909   8.7521   9.8315  11.9172  13.1297  13.5714  15.2797
    15.5784  16.9835

          k = 0.0000 0.2930 0.0000 (  5884 PWs)   bands (ev):

   -45.4970 -23.8798 -23.5882 -23.3225 -20.6851 -12.6700  -2.9871  -2.7779
    -2.5847  -1.1737  -0.7585   0.6586   3.6272   5.6268   6.1937   6.4072
     7.1488   7.4218   9.2399  10.2349  11.7816  12.8285  14.0002  15.7698
    16.3291  16.3721

          k = 0.0000 0.3663 0.0000 (  5902 PWs)   bands (ev):

   -45.4860 -23.8718 -23.6770 -23.3464 -20.6713 -12.5037  -3.0799  -2.6995
    -2.5983  -1.6988  -0.8029   0.4978   3.5090   5.7729   6.4480   6.7973
     7.3434   7.9317   9.6019  10.5052  11.6680  12.5175  14.6472  15.0971
    16.0340  16.2840

          k = 0.0000 0.4395 0.0000 (  5892 PWs)   bands (ev):

   -45.4767 -23.9143 -23.6977 -23.3665 -20.6648 -12.3536  -3.1700  -2.6546
    -2.6134  -2.1737  -0.7520   0.3708   3.4244   5.9736   6.6562   7.1013
     7.6016   8.5356   9.7448  10.7109  11.7976  12.4477  13.6422  15.0307
    15.5096  15.5383

          k = 0.0000 0.5128 0.0000 (  5882 PWs)   bands (ev):

   -45.4704 -23.9641 -23.6875 -23.3799 -20.6629 -12.2480  -3.2396  -2.6717
    -2.6252  -2.4368  -0.7097   0.2903   3.3834   6.1924   6.6968   7.2401
     7.8914   9.1896   9.8071  10.8929  11.8391  12.3921  13.0116  14.4899
    14.8402  15.0723

          k = 0.0000-0.5860 0.0000 (  5882 PWs)   bands (ev):

   -45.4682 -23.9836 -23.6815 -23.3845 -20.6627 -12.2099  -3.2684  -2.7083
    -2.6297  -2.4947  -0.6940   0.2627   3.3728   6.3221   6.6465   7.2769
     8.0193   9.5604   9.8315  11.0791  11.4761  12.3114  13.1662  14.0289
    14.6643  14.8974

          k = 0.0625 0.0366 0.0000 (  5871 PWs)   bands (ev):

   -45.5235 -23.9706 -23.2851 -23.2461 -20.7524 -13.0339  -3.1921  -2.6026
    -2.5493  -1.1766   0.9537   1.1949   3.7451   5.5896   5.8209   5.8476
     6.5643   6.7092   7.9390   8.8357  11.1470  13.9003  14.0963  14.7364
    15.0723  17.2676

          k = 0.0625 0.1099 0.0000 (  5871 PWs)   bands (ev):

   -45.5193 -23.9548 -23.3302 -23.2663 -20.7380 -12.9796  -3.1298  -2.6520
    -2.5637  -1.1386   0.6222   1.0620   3.7611   5.5907   5.8295   5.9524
     6.5817   6.7883   8.1720   9.1902  11.4132  13.6594  13.9519  14.7776
    15.0241  17.3424

          k = 0.0625 0.1831 0.0000 (  5862 PWs)   bands (ev):

   -45.5116 -23.9261 -23.4233 -23.2893 -20.7152 -12.8763  -3.0253  -2.7464
    -2.5729  -1.0837   0.0411   0.8824   3.7552   5.5308   5.9900   6.0513
     6.7487   6.9797   8.5771   9.6717  11.8875  13.1288  13.6629  14.9583
    15.5185  16.9215

          k = 0.0625 0.2564 0.0000 (  5877 PWs)   bands (ev):

   -45.5015 -23.8917 -23.5386 -23.3157 -20.6923 -12.7350  -2.9494  -2.8115
    -2.5846  -1.0702  -0.5837   0.6800   3.6941   5.5467   6.0885   6.3570
     7.0009   7.2861   9.0597  10.1247  12.0328  12.9699  13.4648  15.4216
    16.1996  16.4949

          k = 0.0625 0.3296 0.0000 (  5875 PWs)   bands (ev):

   -45.4905 -23.8677 -23.6433 -23.3433 -20.6751 -12.5729  -3.0199  -2.7401
    -2.6021  -1.4222  -0.8170   0.4827   3.5971   5.6815   6.2479   6.7324
     7.2276   7.7393   9.4998  10.4869  11.7933  12.6420  14.2512  15.3243
    15.9170  16.3502

          k = 0.0625 0.4029 0.0000 (  5899 PWs)   bands (ev):

   -45.4804 -23.8857 -23.6938 -23.3685 -20.6652 -12.4136  -3.1128  -2.6720
    -2.6240  -1.9373  -0.7804   0.3147   3.5131   5.8909   6.4635   7.0214
     7.4659   8.3352   9.7680  10.7342  11.7789  12.4601  14.1925  14.8502
    15.4483  16.2732

          k = 0.0625 0.4761 0.0000 (  5891 PWs)   bands (ev):

   -45.4726 -23.9368 -23.6916 -23.3877 -20.6613 -12.2845  -3.1890  -2.6885
    -2.6201  -2.2908  -0.7308   0.1935   3.4672   6.1232   6.6257   7.1670
     7.7061   9.0439   9.8772  10.9116  11.9102  12.4829  13.1902  14.5288
    14.9745  15.5749

          k = 0.0625 0.5494 0.0000 (  5883 PWs)   bands (ev):

   -45.4684 -23.9720 -23.6815 -23.3980 -20.6603 -12.2117  -3.2364  -2.7513
    -2.6137  -2.4283  -0.7011   0.1301   3.4521   6.3161   6.6498   7.2186
     7.8744   9.6558   9.9616  11.0775  11.6685  12.3358  13.0812  14.0903
    14.6650  15.0007

          k = 0.1250 0.0733 0.0000 (  5860 PWs)   bands (ev):

   -45.5177 -23.9482 -23.3634 -23.2600 -20.7319 -12.9564  -3.1039  -2.6885
    -2.5506  -1.1263   0.4153   1.0840   3.7520   5.5274   5.9233   5.9642
     6.6490   6.8387   8.2648   9.3167  11.5191  13.4576  13.8892  14.9065
    15.1133  17.3501

          k = 0.1250 0.1465 0.0000 (  5864 PWs)   bands (ev):

   -45.5120 -23.9271 -23.4292 -23.2795 -20.7155 -12.8796  -3.0274  -2.7529
    -2.5620  -1.0874   0.0088   0.9373   3.7425   5.5105   6.0066   6.0675
     6.7452   6.9976   8.5655   9.6641  11.8748  13.1049  13.6407  14.9554
    15.5832  16.9538

          k = 0.1250 0.2198 0.0000 (  5850 PWs)   bands (ev):

   -45.5034 -23.8972 -23.5209 -23.3096 -20.6951 -12.7605  -2.9301  -2.8315
    -2.5816  -1.0573  -0.4925   0.6884   3.7186   5.4818   6.1051   6.3649
     6.9018   7.2665   8.9881  10.0930  12.4232  12.6905  13.2488  15.2180
    16.1991  16.4802

          k = 0.1250 0.2930 0.0000 (  5874 PWs)   bands (ev):

   -45.4933 -23.8691 -23.6158 -23.3456 -20.6768 -12.6127  -2.9565  -2.7888
    -2.6090  -1.2314  -0.8167   0.4073   3.6812   5.5508   6.2145   6.6974
     7.1455   7.6667   9.4381  10.5258  12.2342  12.7394  13.4016  15.1709
    16.0207  16.4486

          k = 0.1250 0.3663 0.0000 (  5895 PWs)   bands (ev):

   -45.4832 -23.8658 -23.6801 -23.3816 -20.6641 -12.4560  -3.0425  -2.7051
    -2.6415  -1.6876  -0.8120   0.1487   3.6473   5.7477   6.3436   6.9115
     7.4230   8.2649   9.8110  10.9094  12.0080  12.5167  14.1839  14.5777
    15.2758  16.2973

          k = 0.1250 0.4395 0.0000 (  5882 PWs)   bands (ev):

   -45.4745 -23.9019 -23.6916 -23.4122 -20.6573 -12.3153  -3.1145  -2.7192
    -2.6274  -2.0673  -0.7634  -0.0559   3.6349   6.0305   6.4625   7.0503
     7.6011   9.0344  10.0388  11.1730  11.9950  12.4913  13.6121  14.2768
    15.0562  16.1176

          k = 0.1250 0.5128 0.0000 (  5880 PWs)   bands (ev):

   -45.4688 -23.9419 -23.6813 -23.4327 -20.6546 -12.2168  -3.1628  -2.7967
    -2.6036  -2.2720  -0.7242  -0.1873   3.6409   6.2972   6.5500   7.1328
     7.6636   9.8104  10.1964  11.2912  11.9733  12.4615  12.9933  14.0432
    14.7158  15.4341

          k = 0.1250 0.5860 0.0000 (  5872 PWs)   bands (ev):

   -45.4667 -23.9575 -23.6757 -23.4400 -20.6540 -12.1812  -3.1803  -2.8386
    -2.5977  -2.3268  -0.7094  -0.2329   3.6465   6.3996   6.6038   7.1433
     7.6787  10.0409  10.5146  11.4224  11.5593  12.3090  13.1244  13.9435
    14.6669  14.9214

          k = 0.1250 0.0000 0.0000 (  5835 PWs)   bands (ev):

   -45.5197 -23.9557 -23.3392 -23.2535 -20.7382 -12.9829  -3.1318  -2.6644
    -2.5468  -1.1422   0.5853   1.1168   3.7538   5.5132   5.9070   5.9633
     6.5898   6.8043   8.1565   9.1762  11.4014  13.6016  13.9320  14.8354
    15.1046  17.3717

          k = 0.1875 0.1099 0.0000 (  5863 PWs)   bands (ev):

   -45.5090 -23.9160 -23.4753 -23.2789 -20.7068 -12.8361  -2.9979  -2.7868
    -2.5532  -1.0792  -0.2611   0.9349   3.7014   5.5286   5.9963   6.1696
     6.9647   7.0185   8.7210   9.8163  11.8960  13.0863  13.5218  15.2381
    15.7386  17.0320

          k = 0.1875 0.1831 0.0000 (  5861 PWs)   bands (ev):

   -45.5025 -23.8943 -23.5451 -23.2998 -20.6925 -12.7437  -2.9551  -2.8168
    -2.5679  -1.0832  -0.6175   0.7695   3.6653   5.5427   6.0829   6.3928
     7.0229   7.2861   9.0362  10.1185  12.0289  12.9301  13.4061  15.3867
    16.2854  16.5242

          k = 0.1875 0.2564 0.0000 (  5865 PWs)   bands (ev):

   -45.4939 -23.8708 -23.6187 -23.3371 -20.6768 -12.6181  -2.9603  -2.7890
    -2.6015  -1.2470  -0.8250   0.4555   3.6646   5.5551   6.2137   6.7051
     7.1621   7.6614   9.4262  10.5272  12.2457  12.7331  13.3359  15.1672
    15.9708  16.4332

          k = 0.1875 0.3296 0.0000 (  5878 PWs)   bands (ev):

   -45.4846 -23.8606 -23.6728 -23.3843 -20.6633 -12.4751  -3.0075  -2.7269
    -2.6447  -1.5786  -0.8332   0.0847   3.7038   5.6407   6.3844   6.8162
     7.4353   8.2443   9.8185  10.9897  12.3434  12.5569  13.6277  14.4354
    15.5674  16.0508

          k = 0.1875 0.4029 0.0000 (  5892 PWs)   bands (ev):

   -45.4760 -23.8780 -23.6888 -23.4321 -20.6540 -12.3358  -3.0587  -2.7378
    -2.6357  -1.8812  -0.8041  -0.2525   3.7692   5.8333   6.5216   6.8729
     7.6120   9.0346  10.1408  11.4268  12.2539  12.5164  13.7363  14.3186
    14.6739  15.6335

          k = 0.1875 0.4761 0.0000 (  5881 PWs)   bands (ev):

   -45.4693 -23.9077 -23.6807 -23.4708 -20.6487 -12.2239  -3.1002  -2.8070
    -2.5995  -2.0833  -0.7830  -0.4946   3.8387   6.1099   6.5363   7.0178
     7.6127   9.8967  10.3495  11.6872  12.1328  12.6610  13.2413  13.9250
    14.7496  15.4391

          k = 0.1875 0.5494 0.0000 (  5861 PWs)   bands (ev):

   -45.4658 -23.9271 -23.6716 -23.4924 -20.6466 -12.1612  -3.1239  -2.8605
    -2.5826  -2.1744  -0.7851  -0.6074   3.8847   6.3493   6.5199   7.1378
     7.5143  10.2516  10.9198  11.7208  11.9294  12.3938  13.1570  14.0095
    14.5468  15.1812

          k = 0.1875-0.0366 0.0000 (  5838 PWs)   bands (ev):

   -45.5125 -23.9284 -23.4305 -23.2731 -20.7155 -12.8848  -3.0298  -2.7566
    -2.5525  -1.0924   0.0122   0.9505   3.7384   5.4691   6.0068   6.1242
     6.7876   6.9734   8.5463   9.6556  11.8658  13.1055  13.6346  14.9713
    15.6250  16.9372

          k = 0.2500 0.1465 0.0000 (  5866 PWs)   bands (ev):

   -45.4987 -23.8842 -23.5938 -23.3006 -20.6850 -12.6865  -2.9942  -2.7842
    -2.5600  -1.1981  -0.7823   0.7732   3.5892   5.6249   6.1571   6.4861
     7.1955   7.4007   9.2002  10.2288  11.7747  12.7837  13.9134  15.6827
    16.2173  16.5131

          k = 0.2500 0.2198 0.0000 (  5878 PWs)   bands (ev):

   -45.4922 -23.8720 -23.6485 -23.3230 -20.6748 -12.5886  -3.0267  -2.7432
    -2.5816  -1.4523  -0.8337   0.5949   3.5583   5.6894   6.2370   6.7649
     7.2669   7.7215   9.4686  10.4919  11.7865  12.6019  14.1371  15.2258
    15.9004  16.3626

          k = 0.2500 0.2930 0.0000 (  5868 PWs)   bands (ev):

   -45.4844 -23.8690 -23.6838 -23.3666 -20.6637 -12.4684  -3.0475  -2.7005
    -2.6332  -1.7101  -0.8225   0.2295   3.6196   5.7551   6.3400   6.9273
     7.4424   8.2545   9.7912  10.9253  12.0083  12.5024  14.0969  14.4962
    15.2136  16.2906

          k = 0.2500 0.3663 0.0000 (  5873 PWs)   bands (ev):

   -45.4766 -23.8795 -23.6906 -23.4246 -20.6536 -12.3427  -3.0607  -2.7305
    -2.6375  -1.8910  -0.8078  -0.2151   3.7568   5.8341   6.5222   6.8791
     7.6173   9.0298  10.1305  11.4419  12.2530  12.5384  13.7222  14.2081
    14.6166  15.7060

          k = 0.2500 0.4395 0.0000 (  5876 PWs)   bands (ev):

   -45.4700 -23.8925 -23.6811 -23.4843 -20.6460 -12.2315  -3.0795  -2.8003
    -2.5991  -1.9837  -0.8506  -0.5844   3.9237   5.9738   6.6022   6.9241
     7.6301   9.9130  10.4004  11.7652  12.3126  12.8354  13.4747  13.9974
    14.4336  14.9875

          k = 0.2500 0.5128 0.0000 (  5865 PWs)   bands (ev):

   -45.4656 -23.8994 -23.6702 -23.5302 -20.6413 -12.1546  -3.1106  -2.8292
    -2.5711  -2.0120  -1.0548  -0.6867   4.0610   6.1738   6.5247   7.0956
     7.5097  10.3575  10.9400  11.6953  12.5757  12.9875  13.2012  13.7788
    14.4471  14.9847

          k = 0.2500 0.5860 0.0000 (  5860 PWs)   bands (ev):

   -45.4640 -23.9010 -23.6658 -23.5477 -20.6398 -12.1270  -3.1274  -2.8319
    -2.5608  -2.0134  -1.1637  -0.6950   4.1142   6.2999   6.4754   7.1552
     7.4341  10.3352  11.6011  11.8988  11.9437  12.8912  13.3903  13.8566
    14.4803  15.0745

          k = 0.2500-0.0733 0.0000 (  5866 PWs)   bands (ev):

   -45.5031 -23.8956 -23.5420 -23.2977 -20.6921 -12.7501  -2.9554  -2.8174
    -2.5626  -1.0849  -0.5992   0.7580   3.6701   5.5243   6.0857   6.4218
     7.0486   7.2638   9.0181  10.1141  12.0356  12.9416  13.4328  15.4057
    16.2231  16.5068

          k = 0.2500 0.0000 0.0000 (  5832 PWs)   bands (ev):

   -45.5047 -23.8999 -23.5195 -23.3005 -20.6947 -12.7720  -2.9338  -2.8336
    -2.5678  -1.0664  -0.4780   0.7058   3.7134   5.4505   6.1199   6.4084
     6.9433   7.2421   8.9541  10.0840  12.4178  12.7191  13.2481  15.2140
    16.1634  16.4920

          k = 0.3125 0.1831 0.0000 (  5881 PWs)   bands (ev):

   -45.4885 -23.8765 -23.6810 -23.3222 -20.6704 -12.5277  -3.0862  -2.7031
    -2.5710  -1.7186  -0.8237   0.6239   3.4681   5.7860   6.4193   6.8457
     7.3893   7.9018   9.5616  10.5133  11.6463  12.4678  14.4914  14.9991
    16.1436  16.2177

          k = 0.3125 0.2564 0.0000 (  5875 PWs)   bands (ev):

   -45.4827 -23.8898 -23.6988 -23.3449 -20.6642 -12.4368  -3.1200  -2.6698
    -2.6028  -1.9583  -0.8004   0.4405   3.4712   5.9046   6.4453   7.0556
     7.4964   8.3112   9.7386  10.7533  11.7498  12.4114  14.0485  14.7768
    15.4385  16.2311

          k = 0.3125 0.3296 0.0000 (  5867 PWs)   bands (ev):

   -45.4765 -23.9047 -23.6962 -23.3930 -20.6561 -12.3353  -3.1203  -2.7003
    -2.6297  -2.0810  -0.7793   0.0418   3.6034   6.0386   6.4527   7.0731
     7.6120   9.0186  10.0168  11.2144  11.9747  12.4608  13.5026  14.2564
    14.9420  16.0742

          k = 0.3125 0.4029 0.0000 (  5877 PWs)   bands (ev):

   -45.4707 -23.9089 -23.6842 -23.4583 -20.6476 -12.2384  -3.1018  -2.7985
    -2.6003  -2.0892  -0.7855  -0.4424   3.8218   6.1040   6.5385   7.0286
     7.6177   9.8776  10.3312  11.7318  12.1573  12.6519  13.1328  13.9329
    14.6371  15.5134

          k = 0.3125 0.4761 0.0000 (  5866 PWs)   bands (ev):

   -45.4663 -23.8992 -23.6720 -23.5250 -20.6406 -12.1621  -3.1090  -2.8271
    -2.5710  -2.0133  -1.0322  -0.6895   4.0567   6.1648   6.5264   7.1009
     7.5130  10.3315  10.9374  11.7117  12.5504  13.0254  13.1565  13.8428
    14.4106  14.9570

          k = 0.3125 0.5494 0.0000 (  5865 PWs)   bands (ev):

   -45.4639 -23.8855 -23.6652 -23.5699 -20.6367 -12.1200  -3.1366  -2.8020
    -2.5492  -1.8697  -1.4058  -0.7073   4.2159   6.2456   6.4633   7.1077
     7.4719  10.3129  11.6194  11.8453  12.6040  12.8576  13.5114  13.7889
    14.5615  15.1717

          k = 0.3125-0.1099 0.0000 (  5868 PWs)   bands (ev):

   -45.4928 -23.8720 -23.6446 -23.3234 -20.6741 -12.5953  -3.0238  -2.7444
    -2.5778  -1.4311  -0.8332   0.5726   3.5705   5.6875   6.2421   6.7662
     7.2678   7.7128   9.4530  10.4890  11.7991  12.6095  14.1951  15.2344
    15.8872  16.3327

          k = 0.3125-0.0366 0.0000 (  5854 PWs)   bands (ev):

   -45.4952 -23.8723 -23.6124 -23.3343 -20.6756 -12.6313  -2.9564  -2.7919
    -2.5924  -1.2229  -0.8174   0.4350   3.6762   5.5400   6.2335   6.7173
     7.1704   7.6447   9.3942  10.5204  12.2761  12.7483  13.3928  15.1389
    15.9355  16.4059

          k = 0.3750 0.2198 0.0000 (  5885 PWs)   bands (ev):

   -45.4797 -23.9161 -23.7036 -23.3404 -20.6630 -12.3846  -3.1773  -2.6532
    -2.5833  -2.1825  -0.7776   0.5056   3.3826   5.9901   6.6422   7.1346
     7.6283   8.4959   9.7125  10.7185  11.7506  12.3817  13.5135  14.9344
    15.4051  15.6837

          k = 0.3750 0.2930 0.0000 (  5877 PWs)   bands (ev):

   -45.4755 -23.9384 -23.6982 -23.3622 -20.6594 -12.3147  -3.1978  -2.6688
    -2.6108  -2.2975  -0.7557   0.3250   3.4257   6.1409   6.6061   7.2069
     7.7107   9.0149   9.8554  10.9267  11.8528  12.4086  13.0878  14.5065
    14.8816  15.6136

          k = 0.3750 0.3663 0.0000 (  5876 PWs)   bands (ev):

   -45.4713 -23.9425 -23.6874 -23.4116 -20.6526 -12.2436  -3.1692  -2.7794
    -2.6018  -2.2701  -0.7449  -0.0857   3.6110   6.3140   6.5280   7.1634
     7.6599   9.7719  10.1865  11.3419  11.9079  12.3907  12.9418  14.0264
    14.6176  15.4197

          k = 0.3750 0.4395 0.0000 (  5862 PWs)   bands (ev):

   -45.4677 -23.9260 -23.6764 -23.4781 -20.6446 -12.1824  -3.1236  -2.8509
    -2.5815  -2.1682  -0.7757  -0.5690   3.8706   6.3447   6.5112   7.1615
     7.5106  10.1925  10.9144  11.7210  11.9257  12.4044  13.1084  13.9834
    14.5037  15.1346

          k = 0.3750 0.5128 0.0000 (  5876 PWs)   bands (ev):

   -45.4653 -23.8979 -23.6688 -23.5413 -20.6382 -12.1411  -3.1233  -2.8263
    -2.5596  -2.0015  -1.1380  -0.7066   4.1148   6.2928   6.4641   7.1672
     7.4365  10.2830  11.6111  11.8339  11.8975  13.0148  13.4151  13.8568
    14.4461  15.0510

          k = 0.3750 0.5860 0.0000 (  5856 PWs)   bands (ev):

   -45.4645 -23.8823 -23.6662 -23.5693 -20.6358 -12.1265  -3.1344  -2.7978
    -2.5481  -1.8459  -1.4160  -0.7140   4.2218   6.2483   6.4501   7.1101
     7.4739  10.2859  11.6345  11.7327  12.6762  12.8530  13.6377  13.7284
    14.5371  15.1567

          k = 0.3750-0.1465 0.0000 (  5880 PWs)   bands (ev):

   -45.4833 -23.8871 -23.6975 -23.3464 -20.6633 -12.4429  -3.1162  -2.6719
    -2.5991  -1.9361  -0.8030   0.4174   3.4854   5.9088   6.4599   7.0398
     7.4917   8.2956   9.7230  10.7522  11.7558  12.4123  14.0662  14.8222
    15.4009  16.2688

          k = 0.3750-0.0733 0.0000 (  5874 PWs)   bands (ev):

   -45.4857 -23.8662 -23.6793 -23.3678 -20.6620 -12.4814  -3.0411  -2.7041
    -2.6246  -1.6665  -0.8271   0.1925   3.6414   5.7533   6.3535   6.9309
     7.4246   8.2313   9.7599  10.9176  12.0340  12.5132  14.1689  14.5084
    15.2339  16.2524

          k = 0.3750 0.0000 0.0000 (  5852 PWs)   bands (ev):

   -45.4865 -23.8594 -23.6677 -23.3803 -20.6613 -12.4948  -3.0015  -2.7281
    -2.6332  -1.5332  -0.8408   0.0677   3.7187   5.6338   6.4044   6.8278
     7.4212   8.2160   9.7735  10.9813  12.3624  12.6247  13.6534  14.4079
    15.5599  15.9871

          k = 0.4375 0.2564 0.0000 (  5876 PWs)   bands (ev):

   -45.4738 -23.9637 -23.6952 -23.3525 -20.6604 -12.2841  -3.2492  -2.6619
    -2.5931  -2.4407  -0.7389   0.4305   3.3408   6.2063   6.7005   7.2771
     7.8840   9.1413   9.7824  10.8829  11.7522  12.2952  12.9468  14.4097
    14.7200  15.2604

          k = 0.4375 0.3296 0.0000 (  5885 PWs)   bands (ev):

   -45.4717 -23.9715 -23.6892 -23.3719 -20.6578 -12.2468  -3.2463  -2.7306
    -2.6017  -2.4229  -0.7293   0.2608   3.4129   6.3311   6.6476   7.2563
     7.8562   9.6036   9.9615  11.0714  11.5551  12.2596  13.0390  14.0270
    14.5670  15.1156

          k = 0.4375 0.4029 0.0000 (  5875 PWs)   bands (ev):

   -45.4696 -23.9555 -23.6826 -23.4189 -20.6513 -12.2126  -3.1856  -2.8196
    -2.5936  -2.3136  -0.7325  -0.1380   3.6219   6.4108   6.5984   7.1725
     7.6625   9.9677  10.5156  11.4175  11.5035  12.2676  13.0849  13.8870
    14.6101  14.9371

          k = 0.4375 0.4761 0.0000 (  5871 PWs)   bands (ev):

   -45.4681 -23.9226 -23.6769 -23.4794 -20.6439 -12.1868  -3.1218  -2.8458
    -2.5806  -2.1546  -0.7752  -0.5852   3.8787   6.3566   6.5016   7.1745
     7.4921  10.1754  10.8259  11.7496  11.9691  12.4087  13.1021  13.9897
    14.5253  15.1577

          k = 0.4375 0.5494 0.0000 (  5874 PWs)   bands (ev):

   -45.4673 -23.8922 -23.6732 -23.5263 -20.6391 -12.1730  -3.1058  -2.8168
    -2.5692  -1.9762  -1.0483  -0.7062   4.0718   6.1747   6.5019   7.1298
     7.4867  10.2965  10.8193  11.7359  12.5436  13.0617  13.2468  13.8064
    14.4276  14.9944

          k = 0.4375-0.1831 0.0000 (  5888 PWs)   bands (ev):

   -45.4759 -23.9353 -23.6983 -23.3635 -20.6587 -12.3190  -3.1943  -2.6702
    -2.6083  -2.2827  -0.7577   0.3081   3.4366   6.1390   6.6341   7.1871
     7.7096   8.9852   9.8375  10.9282  11.8583  12.4021  13.1005  14.5365
    14.8811  15.6148

          k = 0.4375-0.1099 0.0000 (  5870 PWs)   bands (ev):

   -45.4774 -23.8983 -23.6958 -23.3955 -20.6545 -12.3458  -3.1139  -2.6989
    -2.6254  -2.0452  -0.7835   0.0065   3.6249   6.0450   6.4630   7.0779
     7.5870   8.9771   9.9789  11.2109  11.9871  12.4551  13.5374  14.2759
    14.9936  16.1101

          k = 0.4375-0.0366 0.0000 (  5867 PWs)   bands (ev):

   -45.4783 -23.8719 -23.6893 -23.4256 -20.6513 -12.3603  -3.0532  -2.7236
    -2.6337  -1.8360  -0.8150  -0.2548   3.7814   5.8338   6.5185   6.9087
     7.5828   8.9823  10.0767  11.4277  12.2491  12.5954  13.7271  14.2914
    14.6596  15.6693

          k =-0.5000-0.2930 0.0000 (  5886 PWs)   bands (ev):

   -45.4718 -23.9825 -23.6898 -23.3568 -20.6599 -12.2478  -3.2792  -2.6938
    -2.5970  -2.4978  -0.7245   0.4048   3.3296   6.3302   6.6621   7.3164
     7.9962   9.4982   9.8290  11.0570  11.3556  12.2284  13.1127  13.9558
    14.5445  15.0942

          k =-0.5000-0.2198 0.0000 (  5873 PWs)   bands (ev):

   -45.4718 -23.9702 -23.6894 -23.3724 -20.6575 -12.2483  -3.2446  -2.7302
    -2.6010  -2.4184  -0.7300   0.2547   3.4170   6.3241   6.6679   7.2462
     7.8580   9.5800   9.9536  11.0676  11.5771  12.2545  13.0290  14.0439
    14.5929  15.0954

          k =-0.5000-0.1465 0.0000 (  5870 PWs)   bands (ev):

   -45.4718 -23.9380 -23.6878 -23.4134 -20.6516 -12.2495  -3.1648  -2.7754
    -2.6003  -2.2526  -0.7468  -0.1069   3.6239   6.3076   6.5556   7.1592
     7.6449   9.7299  10.1405  11.3413  11.9476  12.3830  12.9413  14.0527
    14.6544  15.4196

          k =-0.5000-0.0733 0.0000 (  5863 PWs)   bands (ev):

   -45.4718 -23.9007 -23.6849 -23.4609 -20.6458 -12.2506  -3.0964  -2.7887
    -2.5981  -2.0495  -0.7880  -0.4807   3.8429   6.1149   6.5218   7.0628
     7.5797   9.8269  10.2556  11.7242  12.1569  12.6821  13.1841  13.9388
    14.7052  15.5212

          k =-0.5000-0.0000 0.0000 (  5884 PWs)   bands (ev):

   -45.4718 -23.8831 -23.6827 -23.4835 -20.6434 -12.2511  -3.0739  -2.7859
    -2.5971  -1.9315  -0.8549  -0.6171   3.9441   5.9749   6.5715   6.9799
     7.5909   9.8532  10.3073  11.7752  12.2702  12.9472  13.5013  14.0171
    14.4438  15.0168

     highest occupied, lowest unoccupied level (ev):     4.2218    5.4505

!    total energy              =    -571.23423310 Ry
     total all-electron energy =    -12610.611644 Ry
     estimated scf accuracy    <          6.0E-11 Ry

     The total energy is the sum of the following terms:
     one-electron contribution =    -277.55665558 Ry
     hartree contribution      =     147.19186561 Ry
     xc contribution           =     -36.33751411 Ry
     ewald contribution        =      -7.67760433 Ry
     one-center paw contrib.   =    -396.85432469 Ry

     convergence has been achieved in   5 iterations

     negative rho (up, down):  3.521E-05 0.000E+00

     Forces acting on atoms (cartesian axes, Ry/au):

     atom    1 type  1   force =     0.00000000    0.00002735   -0.00009993
     atom    2 type  2   force =     0.00000000   -0.00008857    0.00007140
     atom    3 type  3   force =     0.00000000    0.00006123    0.00002853
     The non-local contrib.  to forces
     atom    1 type  1   force =     0.00000000   -0.00298917   -0.02497178
     atom    2 type  2   force =     0.00000000   -0.02188742   -0.97792195
     atom    3 type  3   force =     0.00000000   -0.00118483    0.21088017
     The ionic contribution  to forces
     atom    1 type  1   force =    -0.00000001   -0.16319142   -0.47200772
     atom    2 type  2   force =     0.00000001    0.12043749   24.24388397
     atom    3 type  3   force =     0.00000000    0.04275393  -23.77187625
     The local contribution  to forces
     atom    1 type  1   force =    -0.00000000    0.16608410    0.49271002
     atom    2 type  2   force =     0.00000027   -0.09870547  -23.26906683
     atom    3 type  3   force =    -0.00000000   -0.04140277   23.56377388
     The core correction contribution to forces
     atom    1 type  1   force =    -0.00000000    0.00012269    0.00417674
     atom    2 type  2   force =     0.00000000    0.00006625    0.00317949
     atom    3 type  3   force =    -0.00000000   -0.00010613   -0.00276332
     The Hubbard contrib.    to forces
     atom    1 type  1   force =     0.00000000    0.00000000    0.00000000
     atom    2 type  2   force =     0.00000000    0.00000000    0.00000000
     atom    3 type  3   force =     0.00000000    0.00000000    0.00000000
     The SCF correction term to forces
     atom    1 type  1   force =    -0.00000000    0.00000004   -0.00001060
     atom    2 type  2   force =    -0.00000000   -0.00000055   -0.00000670
     atom    3 type  3   force =    -0.00000000   -0.00000009    0.00001064

     Total force =     0.000168     Total SCF correction =     0.000016
     Energy error            =      6.1E-08 Ry
     Gradient error          =      1.0E-04 Ry/Bohr

     bfgs converged in   8 scf cycles and   7 bfgs steps
     (criteria: energy <  1.0E-05 Ry, force <  1.0E-04 Ry/Bohr)

     End of BFGS Geometry Optimization

     Final energy             =    -571.2342330995 Ry

     File ./tmp/ZrFBr.bfgs deleted, as requested
Begin final coordinates

ATOMIC_POSITIONS (angstrom)
Zr            0.0000000000       -0.0017624577       10.1031045951
F            -0.0000000020        1.9297617418       11.3998560709
Br           -0.0000000020        1.9338084791        8.2152180470
End final coordinates



     Writing all to output data dir ./tmp/ZrFBr.save/

     init_run     :      0.58s CPU      0.62s WALL (       1 calls)
     electrons    :     80.34s CPU     82.33s WALL (       8 calls)
     update_pot   :      0.80s CPU      0.86s WALL (       7 calls)
     forces       :      1.51s CPU      1.52s WALL (       8 calls)

     Called by init_run:
     wfcinit      :      0.43s CPU      0.44s WALL (       1 calls)
     potinit      :      0.07s CPU      0.08s WALL (       1 calls)
     hinit0       :      0.07s CPU      0.07s WALL (       1 calls)

     Called by electrons:
     c_bands      :     68.46s CPU     69.73s WALL (      57 calls)
     sum_band     :      9.38s CPU      9.66s WALL (      57 calls)
     v_of_rho     :      0.19s CPU      0.19s WALL (      57 calls)
     newd         :      0.32s CPU      0.36s WALL (      57 calls)
     PAW_pot      :      2.59s CPU      3.13s WALL (      64 calls)
     mix_rho      :      0.01s CPU      0.01s WALL (      57 calls)

     Called by c_bands:
     init_us_2    :      0.52s CPU      0.53s WALL (    9490 calls)
     init_us_2:cp :      0.51s CPU      0.52s WALL (    9490 calls)
     cegterg      :     67.33s CPU     68.57s WALL (    4161 calls)

     Called by *egterg:
     cdiaghg      :     10.39s CPU     10.47s WALL (   12759 calls)
     h_psi        :     39.48s CPU     40.51s WALL (   13927 calls)
     s_psi        :      2.03s CPU      2.06s WALL (   13927 calls)
     g_psi        :      0.10s CPU      0.10s WALL (    9693 calls)

     Called by h_psi:
     h_psi:calbec :      3.54s CPU      3.64s WALL (   13927 calls)
     vloc_psi     :     33.81s CPU     34.71s WALL (   13927 calls)
     add_vuspsi   :      2.03s CPU      2.07s WALL (   13927 calls)

     General routines
     calbec       :      6.07s CPU      6.21s WALL (   20935 calls)
     fft          :      0.09s CPU      0.10s WALL (     730 calls)
     ffts         :      0.01s CPU      0.01s WALL (      57 calls)
     fftw         :     38.20s CPU     39.22s WALL (  606124 calls)

     Parallel routines

     PWSCF        :   1m24.40s CPU   1m26.82s WALL


   This run was terminated on:   8:52:46  18Sep2026            

=------------------------------------------------------------------------------=
   JOB DONE.
=------------------------------------------------------------------------------=
Note: The following floating-point exceptions are signalling: IEEE_INVALID_FLAG
