
     Program PWSCF v.7.2 starts on 18Sep2026 at  8:55: 2 

     This program is part of the open-source Quantum ESPRESSO suite
     for quantum simulation of materials; please cite
         "P. Giannozzi et al., J. Phys.:Condens. Matter 21 395502 (2009);
         "P. Giannozzi et al., J. Phys.:Condens. Matter 29 465901 (2017);
         "P. Giannozzi et al., J. Chem. Phys. 152 154105 (2020);
          URL http://www.quantum-espresso.org", 
     in publications or presentations arising from this work. More details at
     http://www.quantum-espresso.org/quote

     Parallel version (MPI), running on    32 processors

     MPI processes distributed on     1 nodes
     228834 MiB available memory on the printing compute node when the environment starts

     Waiting for input...
     Reading input from standard input

     Current dimensions of program PWSCF are:
     Max number of different atomic species (ntypx) = 10
     Max number of k-points (npk) =  40000
     Max angular momentum in pseudopotentials (lmaxx) =  4
     file Zr.pbe-spn-kjpaw_psl.1.0.0.UPF: wavefunction(s)  4S 4P renormalized
     file F.pbe-n-kjpaw_psl.1.0.0.UPF: wavefunction(s)  2S 2P renormalized
     file Br.pbe-n-kjpaw_psl.1.0.0.UPF: wavefunction(s)  4S 4P renormalized
     Message from routine setup:
     using ibrav=0 with symmetry is DISCOURAGED, use correct ibrav instead

     R & G space division:  proc/nbgrp/npool/nimage =      32
     Subspace diagonalization in iterative solution of the eigenvalue problem:
     a serial algorithm will be used


     Parallelization info
     --------------------
     sticks:   dense  smooth     PW     G-vecs:    dense   smooth      PW
     Min          22      22      6                 1448     1448     226
     Max          23      23      7                 1457     1457     241
     Sum         725     725    211                46477    46477    7451

     Using Slab Decomposition



     bravais-lattice index     =            0
     lattice parameter (alat)  =       6.3200  a.u.
     unit-cell volume          =     656.9554 (a.u.)^3
     number of atoms/cell      =            3
     number of atomic types    =            3
     number of electrons       =        26.00
     number of Kohn-Sham states=           26
     kinetic-energy cutoff     =      65.0000  Ry
     charge density cutoff     =     260.0000  Ry
     scf convergence threshold =      1.0E-08
     mixing beta               =       0.7000
     number of iterations used =            8  plain     mixing
     energy convergence thresh.=      1.0E-05
     force convergence thresh. =      1.0E-04
     Exchange-correlation= SLA  PW   PBX  PBC
                           (   1   4   3   4   0   0   0)
     nstep                     =           50


     celldm(1)=   6.320045  celldm(2)=   0.000000  celldm(3)=   0.000000
     celldm(4)=   0.000000  celldm(5)=   0.000000  celldm(6)=   0.000000

     crystal axes: (cart. coord. in units of alat)
               a(1) = (   1.000000   0.000000   0.000000 )  
               a(2) = (  -0.500000   0.870356   0.000000 )  
               a(3) = (   0.000000   0.000000   2.990052 )  

     reciprocal axes: (cart. coord. in units 2 pi/alat)
               b(1) = (  1.000000  0.574478 -0.000000 )  
               b(2) = (  0.000000  1.148956  0.000000 )  
               b(3) = (  0.000000 -0.000000  0.334442 )  


     PseudoPot. # 1 for Zr read from file:
     /mgpfs/home/rabdillah/repo/qe/pseudo/Zr.pbe-spn-kjpaw_psl.1.0.0.UPF
     MD5 check sum: 02112c41713a0468aff2bb39ef194e36
     Pseudo is Projector augmented-wave + core cor, Zval = 12.0
     Generated using &quot;atomic&quot; code by A. Dal Corso  v.6.2.2
     Shape of augmentation charge: PSQ
     Using radial grid of 1225 points,  6 beta functions with: 
                l(1) =   0
                l(2) =   0
                l(3) =   1
                l(4) =   1
                l(5) =   2
                l(6) =   2
     Q(r) pseudized with 0 coefficients 


     PseudoPot. # 2 for F  read from file:
     /mgpfs/home/rabdillah/repo/qe/pseudo/F.pbe-n-kjpaw_psl.1.0.0.UPF
     MD5 check sum: 66d718ea72839a4268ab2a9540e8cdd4
     Pseudo is Projector augmented-wave + core cor, Zval =  7.0
     Generated using &quot;atomic&quot; code by A. Dal Corso  v.6.3
     Shape of augmentation charge: PSQ
     Using radial grid of 1105 points,  4 beta functions with: 
                l(1) =   0
                l(2) =   0
                l(3) =   1
                l(4) =   1
     Q(r) pseudized with 0 coefficients 


     PseudoPot. # 3 for Br read from file:
     /mgpfs/home/rabdillah/repo/qe/pseudo/Br.pbe-n-kjpaw_psl.1.0.0.UPF
     MD5 check sum: b00de77caabc69c0a6b76eb37264f235
     Pseudo is Projector augmented-wave + core cor, Zval =  7.0
     Generated using &quot;atomic&quot; code by A. Dal Corso  v.6.3
     Shape of augmentation charge: PSQ
     Using radial grid of 1213 points,  4 beta functions with: 
                l(1) =   0
                l(2) =   0
                l(3) =   1
                l(4) =   1
     Q(r) pseudized with 0 coefficients 


     atomic species   valence    mass     pseudopotential
        Zr            12.00    91.22400     Zr( 1.00)
        F              7.00    18.99800     F ( 1.00)
        Br             7.00    79.90400     Br( 1.00)

      2 Sym. Ops. (no inversion) found



   Cartesian axes

     site n.     atom                  positions (alat units)
         1           Zr  tau(   1) = (   0.0000000   0.0000000   3.0210788  )
         2           F   tau(   2) = (  -0.0000000   0.5773503   3.4105834  )
         3           Br  tau(   3) = (  -0.0000000   0.5773503   2.4542273  )

     number of k points=    73
                       cart. coord. in units 2pi/alat
        k(    1) = (   0.0000000   0.0000000   0.0000000), wk =   0.0078125
        k(    2) = (   0.0000000   0.0718097   0.0000000), wk =   0.0156250
        k(    3) = (   0.0000000   0.1436195   0.0000000), wk =   0.0156250
        k(    4) = (   0.0000000   0.2154292   0.0000000), wk =   0.0156250
        k(    5) = (   0.0000000   0.2872389   0.0000000), wk =   0.0156250
        k(    6) = (   0.0000000   0.3590487   0.0000000), wk =   0.0156250
        k(    7) = (   0.0000000   0.4308584   0.0000000), wk =   0.0156250
        k(    8) = (   0.0000000   0.5026681   0.0000000), wk =   0.0156250
        k(    9) = (   0.0000000  -0.5744779   0.0000000), wk =   0.0078125
        k(   10) = (   0.0625000   0.0359049   0.0000000), wk =   0.0312500
        k(   11) = (   0.0625000   0.1077146   0.0000000), wk =   0.0312500
        k(   12) = (   0.0625000   0.1795243   0.0000000), wk =   0.0312500
        k(   13) = (   0.0625000   0.2513341   0.0000000), wk =   0.0312500
        k(   14) = (   0.0625000   0.3231438   0.0000000), wk =   0.0312500
        k(   15) = (   0.0625000   0.3949535   0.0000000), wk =   0.0312500
        k(   16) = (   0.0625000   0.4667633   0.0000000), wk =   0.0312500
        k(   17) = (   0.0625000   0.5385730   0.0000000), wk =   0.0312500
        k(   18) = (   0.1250000   0.0718097   0.0000000), wk =   0.0312500
        k(   19) = (   0.1250000   0.1436195   0.0000000), wk =   0.0312500
        k(   20) = (   0.1250000   0.2154292   0.0000000), wk =   0.0312500
        k(   21) = (   0.1250000   0.2872389   0.0000000), wk =   0.0312500
        k(   22) = (   0.1250000   0.3590487   0.0000000), wk =   0.0312500
        k(   23) = (   0.1250000   0.4308584   0.0000000), wk =   0.0312500
        k(   24) = (   0.1250000   0.5026681   0.0000000), wk =   0.0312500
        k(   25) = (   0.1250000   0.5744779   0.0000000), wk =   0.0156250
        k(   26) = (   0.1250000   0.0000000   0.0000000), wk =   0.0156250
        k(   27) = (   0.1875000   0.1077146   0.0000000), wk =   0.0312500
        k(   28) = (   0.1875000   0.1795243   0.0000000), wk =   0.0312500
        k(   29) = (   0.1875000   0.2513341   0.0000000), wk =   0.0312500
        k(   30) = (   0.1875000   0.3231438   0.0000000), wk =   0.0312500
        k(   31) = (   0.1875000   0.3949535   0.0000000), wk =   0.0312500
        k(   32) = (   0.1875000   0.4667633   0.0000000), wk =   0.0312500
        k(   33) = (   0.1875000   0.5385730   0.0000000), wk =   0.0312500
        k(   34) = (   0.1875000  -0.0359049   0.0000000), wk =   0.0312500
        k(   35) = (   0.2500000   0.1436195   0.0000000), wk =   0.0312500
        k(   36) = (   0.2500000   0.2154292   0.0000000), wk =   0.0312500
        k(   37) = (   0.2500000   0.2872389   0.0000000), wk =   0.0312500
        k(   38) = (   0.2500000   0.3590487   0.0000000), wk =   0.0312500
        k(   39) = (   0.2500000   0.4308584   0.0000000), wk =   0.0312500
        k(   40) = (   0.2500000   0.5026681   0.0000000), wk =   0.0312500
        k(   41) = (   0.2500000   0.5744779   0.0000000), wk =   0.0156250
        k(   42) = (   0.2500000  -0.0718097   0.0000000), wk =   0.0312500
        k(   43) = (   0.2500000   0.0000000   0.0000000), wk =   0.0156250
        k(   44) = (   0.3125000   0.1795243   0.0000000), wk =   0.0312500
        k(   45) = (   0.3125000   0.2513341   0.0000000), wk =   0.0312500
        k(   46) = (   0.3125000   0.3231438   0.0000000), wk =   0.0312500
        k(   47) = (   0.3125000   0.3949535   0.0000000), wk =   0.0312500
        k(   48) = (   0.3125000   0.4667633   0.0000000), wk =   0.0312500
        k(   49) = (   0.3125000   0.5385730   0.0000000), wk =   0.0312500
        k(   50) = (   0.3125000  -0.1077146   0.0000000), wk =   0.0312500
        k(   51) = (   0.3125000  -0.0359049   0.0000000), wk =   0.0312500
        k(   52) = (   0.3750000   0.2154292   0.0000000), wk =   0.0312500
        k(   53) = (   0.3750000   0.2872389   0.0000000), wk =   0.0312500
        k(   54) = (   0.3750000   0.3590487   0.0000000), wk =   0.0312500
        k(   55) = (   0.3750000   0.4308584   0.0000000), wk =   0.0312500
        k(   56) = (   0.3750000   0.5026681   0.0000000), wk =   0.0312500
        k(   57) = (   0.3750000   0.5744779   0.0000000), wk =   0.0156250
        k(   58) = (   0.3750000  -0.1436195   0.0000000), wk =   0.0312500
        k(   59) = (   0.3750000  -0.0718097   0.0000000), wk =   0.0312500
        k(   60) = (   0.3750000   0.0000000   0.0000000), wk =   0.0156250
        k(   61) = (   0.4375000   0.2513341   0.0000000), wk =   0.0312500
        k(   62) = (   0.4375000   0.3231438   0.0000000), wk =   0.0312500
        k(   63) = (   0.4375000   0.3949535   0.0000000), wk =   0.0312500
        k(   64) = (   0.4375000   0.4667633   0.0000000), wk =   0.0312500
        k(   65) = (   0.4375000   0.5385730   0.0000000), wk =   0.0312500
        k(   66) = (   0.4375000  -0.1795243   0.0000000), wk =   0.0312500
        k(   67) = (   0.4375000  -0.1077146   0.0000000), wk =   0.0312500
        k(   68) = (   0.4375000  -0.0359049   0.0000000), wk =   0.0312500
        k(   69) = (  -0.5000000  -0.2872389   0.0000000), wk =   0.0156250
        k(   70) = (  -0.5000000  -0.2154292   0.0000000), wk =   0.0312500
        k(   71) = (  -0.5000000  -0.1436195   0.0000000), wk =   0.0312500
        k(   72) = (  -0.5000000  -0.0718097   0.0000000), wk =   0.0312500
        k(   73) = (  -0.5000000  -0.0000000   0.0000000), wk =   0.0156250

     Dense  grid:    46477 G-vectors     FFT dimensions: (  36,  36, 100)

     Estimated max dynamical RAM per process >      14.51 MB

     Estimated total dynamical RAM >     464.46 MB

     Check: negative core charge=   -0.000002

     Initial potential from superposition of free atoms

     starting charge      25.9978, renormalised to      26.0000

     negative rho (up, down):  4.655E-07 0.000E+00
     Starting wfcs are   21 randomized atomic wfcs +    5 random wfcs
     Checking if some PAW data can be deallocated... 

     total cpu time spent up to now is        0.9 secs

     Self-consistent Calculation

     iteration #  1     ecut=    65.00 Ry     beta= 0.70
     Davidson diagonalization with overlap
     ethr =  1.00E-02,  avg # of iterations =  5.8

     Threshold (ethr) on eigenvalues was too large:
     Diagonalizing with lowered threshold

     Davidson diagonalization with overlap
     ethr =  9.49E-04,  avg # of iterations =  1.0

     negative rho (up, down):  2.519E-05 0.000E+00

     total cpu time spent up to now is        4.3 secs

     total energy              =    -571.11744185 Ry
     estimated scf accuracy    <       0.24813757 Ry

     iteration #  2     ecut=    65.00 Ry     beta= 0.70
     Davidson diagonalization with overlap
     ethr =  9.54E-04,  avg # of iterations =  3.7

     negative rho (up, down):  1.889E-06 0.000E+00

     total cpu time spent up to now is        6.1 secs

     total energy              =    -571.10776274 Ry
     estimated scf accuracy    <       0.58967321 Ry

     iteration #  3     ecut=    65.00 Ry     beta= 0.70
     Davidson diagonalization with overlap
     ethr =  9.54E-04,  avg # of iterations =  2.3

     negative rho (up, down):  4.724E-06 0.000E+00

     total cpu time spent up to now is        7.6 secs

     total energy              =    -571.22903914 Ry
     estimated scf accuracy    <       0.02381309 Ry

     iteration #  4     ecut=    65.00 Ry     beta= 0.70
     Davidson diagonalization with overlap
     ethr =  9.16E-05,  avg # of iterations =  3.0

     negative rho (up, down):  1.414E-05 0.000E+00

     total cpu time spent up to now is        9.0 secs

     total energy              =    -571.23361265 Ry
     estimated scf accuracy    <       0.00347348 Ry

     iteration #  5     ecut=    65.00 Ry     beta= 0.70
     Davidson diagonalization with overlap
     ethr =  1.34E-05,  avg # of iterations =  4.7

     negative rho (up, down):  2.564E-05 0.000E+00

     total cpu time spent up to now is       10.7 secs

     total energy              =    -571.23430536 Ry
     estimated scf accuracy    <       0.00128873 Ry

     iteration #  6     ecut=    65.00 Ry     beta= 0.70
     Davidson diagonalization with overlap
     ethr =  4.96E-06,  avg # of iterations =  2.6

     negative rho (up, down):  2.989E-05 0.000E+00

     total cpu time spent up to now is       12.1 secs

     total energy              =    -571.23455722 Ry
     estimated scf accuracy    <       0.00001540 Ry

     iteration #  7     ecut=    65.00 Ry     beta= 0.70
     Davidson diagonalization with overlap
     ethr =  5.92E-08,  avg # of iterations =  2.5

     negative rho (up, down):  3.112E-05 0.000E+00

     total cpu time spent up to now is       13.6 secs

     total energy              =    -571.23456185 Ry
     estimated scf accuracy    <       0.00000059 Ry

     iteration #  8     ecut=    65.00 Ry     beta= 0.70
     Davidson diagonalization with overlap
     ethr =  2.28E-09,  avg # of iterations =  2.6

     negative rho (up, down):  3.144E-05 0.000E+00

     total cpu time spent up to now is       15.0 secs

     total energy              =    -571.23456200 Ry
     estimated scf accuracy    <       0.00000002 Ry

     iteration #  9     ecut=    65.00 Ry     beta= 0.70
     Davidson diagonalization with overlap
     ethr =  8.02E-11,  avg # of iterations =  2.0

     negative rho (up, down):  3.148E-05 0.000E+00

     total cpu time spent up to now is       16.5 secs

     End of self-consistent calculation

          k = 0.0000 0.0000 0.0000 (  5811 PWs)   bands (ev):

   -45.4352 -23.9046 -23.1536 -23.1443 -20.7006 -13.0095  -3.1773  -2.5067
    -2.4841  -1.1590   1.3125   1.3620   3.7570   5.7438   5.8247   5.8645
     6.7402   6.7560   7.9039   8.7386  11.1094  13.9635  14.6112  14.6935
    15.2644  17.1941

          k = 0.0000 0.0718 0.0000 (  5772 PWs)   bands (ev):

   -45.4330 -23.8961 -23.1841 -23.1489 -20.6922 -12.9818  -3.1434  -2.5424
    -2.4836  -1.1371   1.0905   1.3219   3.7705   5.6872   5.8677   5.9589
     6.7072   6.7911   8.0280   8.9606  11.2433  14.0200  14.2432  14.8267
    15.1336  17.3953

          k = 0.0000 0.1436 0.0000 (  5780 PWs)   bands (ev):

   -45.4268 -23.8725 -23.2681 -23.1621 -20.6708 -12.9015  -3.0524  -2.6333
    -2.4835  -1.0845   0.5318   1.2117   3.7823   5.5995   6.0039   6.0650
     6.7796   6.9247   8.3623   9.4409  11.6304  13.5791  14.0082  14.9796
    15.2221  17.5981

          k = 0.0000 0.2154 0.0000 (  5814 PWs)   bands (ev):

   -45.4175 -23.8386 -23.3858 -23.1817 -20.6451 -12.7765  -2.9433  -2.7350
    -2.4862  -1.0342  -0.1642   1.0572   3.7373   5.5871   6.1197   6.2433
     7.0923   7.1008   8.8258   9.9340  12.0085  13.2078  13.6347  15.3413
    15.8653  17.2649

          k = 0.0000 0.2872 0.0000 (  5808 PWs)   bands (ev):

   -45.4066 -23.8058 -23.5091 -23.2047 -20.6231 -12.6209  -2.9427  -2.7297
    -2.4937  -1.1378  -0.7167   0.8886   3.6272   5.6867   6.2754   6.5758
     7.2874   7.5139   9.3063  10.3411  11.8722  12.8742  14.0897  15.8266
    16.3790  16.6562

          k = 0.0000 0.3590 0.0000 (  5824 PWs)   bands (ev):

   -45.3955 -23.8006 -23.5967 -23.2277 -20.6091 -12.4552  -3.0378  -2.6473
    -2.5057  -1.6587  -0.7713   0.7328   3.5054   5.8592   6.5360   6.9482
     7.4838   8.0097   9.6614  10.6258  11.7441  12.5558  14.6950  15.1601
    16.3314  16.3446

          k = 0.0000 0.4309 0.0000 (  5838 PWs)   bands (ev):

   -45.3862 -23.8459 -23.6157 -23.2470 -20.6026 -12.3056  -3.1309  -2.6004
    -2.5190  -2.1320  -0.7245   0.6095   3.4190   6.0722   6.7600   7.2382
     7.7377   8.5989   9.8114  10.8327  11.8480  12.4818  13.6875  15.0877
    15.5704  15.8193

          k = 0.0000 0.5027 0.0000 (  5810 PWs)   bands (ev):

   -45.3799 -23.8969 -23.6049 -23.2598 -20.6009 -12.2003  -3.2048  -2.6180
    -2.5295  -2.3901  -0.6844   0.5311   3.3770   6.2931   6.8155   7.3748
     8.0130   9.2453   9.8932  10.9887  11.8659  12.4187  13.0901  14.5332
    14.8757  15.3955

          k = 0.0000-0.5745 0.0000 (  5834 PWs)   bands (ev):

   -45.3777 -23.9167 -23.5988 -23.2643 -20.6007 -12.1622  -3.2359  -2.6557
    -2.5335  -2.4444  -0.6695   0.5042   3.3659   6.4177   6.7752   7.4119
     8.1333   9.6097   9.9416  11.1321  11.5213  12.3388  13.2560  14.0622
    14.6955  15.2270

          k = 0.0625 0.0359 0.0000 (  5791 PWs)   bands (ev):

   -45.4330 -23.8961 -23.1779 -23.1554 -20.6923 -12.9814  -3.1435  -2.5293
    -2.4978  -1.1366   1.1228   1.2863   3.7739   5.7260   5.8221   5.9601
     6.6956   6.8037   8.0295   8.9612  11.2448  14.0202  14.2822  14.7670
    15.1486  17.4151

          k = 0.0625 0.1077 0.0000 (  5776 PWs)   bands (ev):

   -45.4288 -23.8800 -23.2382 -23.1611 -20.6774 -12.9274  -3.0807  -2.6003
    -2.4900  -1.0994   0.7238   1.2205   3.7877   5.6227   5.9465   6.0591
     6.7113   6.8949   8.2585   9.3058  11.5134  13.7496  14.0611  14.8994
    15.1577  17.5029

          k = 0.0625 0.1795 0.0000 (  5782 PWs)   bands (ev):

   -45.4211 -23.8511 -23.3382 -23.1785 -20.6540 -12.8246  -2.9754  -2.7008
    -2.4914  -1.0463   0.1143   1.0691   3.7763   5.5488   6.1270   6.1686
     6.8795   7.0865   8.6583   9.7787  11.9913  13.2203  13.7412  15.0598
    15.7291  17.0960

          k = 0.0625 0.2513 0.0000 (  5795 PWs)   bands (ev):

   -45.4109 -23.8168 -23.4570 -23.2022 -20.6305 -12.6839  -2.9019  -2.7635
    -2.4998  -1.0340  -0.5260   0.8811   3.7076   5.5886   6.1998   6.4990
     7.1320   7.3850   9.1340  10.2298  12.1385  13.0391  13.5571  15.5183
    16.4115  16.6634

          k = 0.0625 0.3231 0.0000 (  5822 PWs)   bands (ev):

   -45.3999 -23.7943 -23.5628 -23.2281 -20.6129 -12.5225  -2.9762  -2.6871
    -2.5151  -1.3778  -0.7790   0.6932   3.6049   5.7509   6.3535   6.8703
     7.3605   7.8268   9.5655  10.6022  11.8928  12.6922  14.3489  15.4042
    16.0441  16.4818

          k = 0.0625 0.3950 0.0000 (  5829 PWs)   bands (ev):

   -45.3897 -23.8155 -23.6119 -23.2520 -20.6030 -12.3637  -3.0710  -2.6152
    -2.5373  -1.8928  -0.7488   0.5315   3.5179   5.9815   6.5665   7.1542
     7.5968   8.4113   9.8308  10.8674  11.8535  12.5037  14.2404  14.9536
    15.5920  16.3953

          k = 0.0625 0.4668 0.0000 (  5819 PWs)   bands (ev):

   -45.3819 -23.8685 -23.6088 -23.2702 -20.5991 -12.2348  -3.1507  -2.6169
    -2.5497  -2.2406  -0.7024   0.4143   3.4702   6.2240   6.7352   7.2980
     7.8238   9.1119   9.9526  11.0406  11.9569  12.5169  13.2563  14.6484
    15.0473  15.7495

          k = 0.0625 0.5386 0.0000 (  5820 PWs)   bands (ev):

   -45.3776 -23.9045 -23.5985 -23.2801 -20.5983 -12.1622  -3.2017  -2.6844
    -2.5441  -2.3683  -0.6744   0.3529   3.4539   6.4144   6.7748   7.3468
     7.9791   9.7145  10.0685  11.1692  11.7054  12.3724  13.1731  14.1482
    14.7335  15.2337

          k = 0.1250 0.0718 0.0000 (  5797 PWs)   bands (ev):

   -45.4267 -23.8723 -23.2615 -23.1695 -20.6713 -12.8998  -3.0529  -2.6195
    -2.5010  -1.0826   0.5601   1.1721   3.7955   5.6337   5.9520   6.0608
     6.7738   6.9363   8.3672   9.4412  11.6355  13.5940  14.0229  15.0004
    15.1658  17.5489

          k = 0.1250 0.1436 0.0000 (  5787 PWs)   bands (ev):

   -45.4209 -23.8510 -23.3350 -23.1824 -20.6544 -12.8233  -2.9760  -2.6946
    -2.5001  -1.0446   0.1281   1.0464   3.7866   5.5560   6.1092   6.1634
     6.8851   7.0851   8.6615   9.7784  11.9935  13.2287  13.7520  15.0659
    15.7062  17.0830

          k = 0.1250 0.2154 0.0000 (  5787 PWs)   bands (ev):

   -45.4123 -23.8209 -23.4326 -23.2076 -20.6334 -12.7045  -2.8796  -2.7772
    -2.5119  -1.0142  -0.3992   0.8179   3.7603   5.5175   6.2199   6.4824
     7.0250   7.3636   9.0766  10.2004  12.5475  12.8160  13.3453  15.3345
    16.3440  16.6285

          k = 0.1250 0.2872 0.0000 (  5800 PWs)   bands (ev):

   -45.4022 -23.7934 -23.5312 -23.2400 -20.6147 -12.5572  -2.9095  -2.7319
    -2.5350  -1.1720  -0.7622   0.5549   3.7174   5.5994   6.3352   6.8171
     7.2631   7.7627   9.5172  10.6348  12.3700  12.8282  13.5143  15.3128
    16.1043  16.5660

          k = 0.1250 0.3590 0.0000 (  5812 PWs)   bands (ev):

   -45.3920 -23.7921 -23.5967 -23.2734 -20.6019 -12.4008  -2.9971  -2.6427
    -2.5687  -1.6304  -0.7712   0.3102   3.6776   5.8146   6.4606   7.0302
     7.5416   8.3538   9.8812  11.0353  12.1308  12.5949  14.2980  14.6811
    15.3735  16.4231

          k = 0.1250 0.4309 0.0000 (  5824 PWs)   bands (ev):

   -45.3833 -23.8308 -23.6078 -23.3021 -20.5951 -12.2603  -3.0715  -2.6396
    -2.5715  -2.0130  -0.7264   0.1152   3.6604   6.1157   6.5700   7.1750
     7.7101   9.1163  10.1069  11.3303  12.0888  12.5574  13.6874  14.4001
    15.1429  16.2333

          k = 0.1250 0.5027 0.0000 (  5816 PWs)   bands (ev):

   -45.3775 -23.8724 -23.5973 -23.3214 -20.5925 -12.1618  -3.1227  -2.7237
    -2.5463  -2.2120  -0.6895  -0.0102   3.6630   6.3940   6.6572   7.2607
     7.7581   9.8795  10.2803  11.4587  12.0454  12.5090  13.0827  14.1577
    14.7926  15.5480

          k = 0.1250 0.5745 0.0000 (  5816 PWs)   bands (ev):

   -45.3755 -23.8886 -23.5916 -23.3282 -20.5920 -12.1262  -3.1419  -2.7693
    -2.5396  -2.2631  -0.6757  -0.0537   3.6673   6.4931   6.7239   7.2667
     7.7669  10.0990  10.6360  11.5481  11.6257  12.3834  13.2224  14.0013
    14.7659  15.0515

          k = 0.1250 0.0000 0.0000 (  5790 PWs)   bands (ev):

   -45.4287 -23.8799 -23.2321 -23.1679 -20.6778 -12.9261  -3.0810  -2.5862
    -2.5069  -1.0982   0.7473   1.1899   3.7965   5.6662   5.8879   6.0601
     6.6900   6.9185   8.2621   9.3060  11.5169  13.7641  14.0675  14.8887
    15.1388  17.5068

          k = 0.1875 0.1077 0.0000 (  5803 PWs)   bands (ev):

   -45.4172 -23.8382 -23.3795 -23.1899 -20.6460 -12.7727  -2.9446  -2.7234
    -2.5052  -1.0292  -0.1435   1.0143   3.7630   5.6027   6.1080   6.2023
     7.0855   7.1162   8.8335   9.9318  12.0109  13.2249  13.6585  15.3627
    15.8139  17.2211

          k = 0.1875 0.1795 0.0000 (  5812 PWs)   bands (ev):

   -45.4106 -23.8163 -23.4525 -23.2085 -20.6313 -12.6806  -2.9013  -2.7582
    -2.5133  -1.0272  -0.5127   0.8455   3.7308   5.5897   6.1829   6.4849
     7.1370   7.3860   9.1402  10.2266  12.1332  13.0622  13.5813  15.5308
    16.3808  16.6538

          k = 0.1875 0.2513 0.0000 (  5800 PWs)   bands (ev):

   -45.4020 -23.7929 -23.5291 -23.2434 -20.6152 -12.5551  -2.9069  -2.7329
    -2.5410  -1.1650  -0.7591   0.5362   3.7307   5.5965   6.3251   6.8156
     7.2621   7.7653   9.5201  10.6322  12.3588  12.8398  13.5396  15.3097
    16.1235  16.5757

          k = 0.1875 0.3231 0.0000 (  5826 PWs)   bands (ev):

   -45.3926 -23.7836 -23.5856 -23.2880 -20.6015 -12.4122  -2.9568  -2.6678
    -2.5814  -1.4975  -0.7829   0.1770   3.7661   5.6902   6.5029   6.9218
     7.5409   8.3422   9.9019  11.0989  12.4621  12.6900  13.7886  14.5821
    15.7138  16.1813

          k = 0.1875 0.3950 0.0000 (  5821 PWs)   bands (ev):

   -45.3840 -23.8029 -23.6027 -23.3331 -20.5921 -12.2727  -3.0110  -2.6666
    -2.5800  -1.8125  -0.7550  -0.1474   3.8248   5.8970   6.6303   6.9874
     7.7149   9.1260  10.2157  11.5542  12.3611  12.6774  13.8723  14.4176
    14.7825  15.8404

          k = 0.1875 0.4668 0.0000 (  5819 PWs)   bands (ev):

   -45.3773 -23.8348 -23.5949 -23.3695 -20.5869 -12.1606  -3.0547  -2.7368
    -2.5439  -2.0215  -0.7273  -0.3847   3.8876   6.1890   6.6304   7.1476
     7.7041   9.9762  10.4204  11.8505  12.2782  12.7810  13.3091  14.0607
    14.8335  15.6662

          k = 0.1875 0.5386 0.0000 (  5818 PWs)   bands (ev):

   -45.3737 -23.8556 -23.5859 -23.3898 -20.5848 -12.0978  -3.0791  -2.7949
    -2.5270  -2.1131  -0.7129  -0.5073   3.9292   6.4423   6.6084   7.2742
     7.5927  10.3061  11.0095  11.8739  12.0741  12.5255  13.2405  14.1100
    14.6563  15.2745

          k = 0.1875-0.0359 0.0000 (  5799 PWs)   bands (ev):

   -45.4207 -23.8508 -23.3320 -23.1862 -20.6549 -12.8213  -2.9765  -2.6884
    -2.5105  -1.0427   0.1322   1.0354   3.7966   5.5748   6.1120   6.1239
     6.8669   7.1082   8.6649   9.7772  11.9963  13.2224  13.7592  15.0653
    15.7003  17.0998

          k = 0.2500 0.1436 0.0000 (  5819 PWs)   bands (ev):

   -45.4060 -23.8048 -23.5035 -23.2137 -20.6247 -12.6146  -2.9399  -2.7261
    -2.5143  -1.1245  -0.7079   0.8424   3.6617   5.6865   6.2650   6.5437
     7.2916   7.5184   9.3155  10.3335  11.8701  12.9037  14.1179  15.8605
    16.4175  16.6066

          k = 0.2500 0.2154 0.0000 (  5824 PWs)   bands (ev):

   -45.3994 -23.7928 -23.5585 -23.2361 -20.6142 -12.5166  -2.9719  -2.6877
    -2.5315  -1.3643  -0.7723   0.6498   3.6370   5.7465   6.3352   6.8565
     7.3607   7.8339   9.5728  10.5928  11.8900  12.7204  14.3877  15.4371
    16.0579  16.4774

          k = 0.2500 0.2872 0.0000 (  5828 PWs)   bands (ev):

   -45.3916 -23.7903 -23.5943 -23.2793 -20.6029 -12.3962  -2.9930  -2.6485
    -2.5763  -1.6216  -0.7661   0.2797   3.7010   5.8095   6.4434   7.0309
     7.5368   8.3601   9.8844  11.0268  12.1245  12.6125  14.3307  14.7062
    15.3988  16.4212

          k = 0.2500 0.3590 0.0000 (  5825 PWs)   bands (ev):

   -45.3837 -23.8015 -23.6019 -23.3362 -20.5927 -12.2701  -3.0087  -2.6733
    -2.5801  -1.8090  -0.7529  -0.1613   3.8363   5.8950   6.6165   6.9941
     7.7121   9.1293  10.2159  11.5500  12.3622  12.6718  13.8792  14.4516
    14.8045  15.8149

          k = 0.2500 0.4309 0.0000 (  5832 PWs)   bands (ev):

   -45.3771 -23.8161 -23.5929 -23.3942 -20.5850 -12.1584  -3.0313  -2.7377
    -2.5431  -1.9106  -0.7878  -0.5290   3.9980   6.0466   6.6754   7.0598
     7.7174  10.0049  10.4799  11.9007  12.4069  13.0271  13.6268  14.1400
    14.5866  15.1549

          k = 0.2500 0.5027 0.0000 (  5799 PWs)   bands (ev):

   -45.3727 -23.8248 -23.5822 -23.4381 -20.5804 -12.0810  -3.0633  -2.7680
    -2.5155  -1.9471  -0.9717  -0.6390   4.1293   6.2609   6.5972   7.2267
     7.5916  10.4232  11.0279  11.8508  12.6872  13.1800  13.3457  13.9525
    14.5549  15.1316

          k = 0.2500 0.5745 0.0000 (  5800 PWs)   bands (ev):

   -45.3711 -23.8272 -23.5780 -23.4546 -20.5789 -12.0533  -3.0798  -2.7728
    -2.5054  -1.9527  -1.0727  -0.6484   4.1799   6.4024   6.5398   7.2737
     7.5232  10.3961  11.7581  11.9805  12.0242  13.1576  13.5525  13.9977
    14.5769  15.1983

          k = 0.2500-0.0718 0.0000 (  5816 PWs)   bands (ev):

   -45.4104 -23.8161 -23.4515 -23.2105 -20.6320 -12.6782  -2.9015  -2.7568
    -2.5202  -1.0256  -0.5171   0.8458   3.7372   5.5956   6.1852   6.4645
     7.1351   7.3926   9.1421  10.2247  12.1324  13.0585  13.5696  15.5325
    16.3943  16.6825

          k = 0.2500 0.0000 0.0000 (  5800 PWs)   bands (ev):

   -45.4119 -23.8205 -23.4291 -23.2131 -20.6346 -12.7001  -2.8804  -2.7717
    -2.5268  -1.0094  -0.3992   0.8039   3.7786   5.5283   6.2050   6.4561
     7.0247   7.3736   9.0817  10.1973  12.5509  12.7992  13.3534  15.3457
    16.3455  16.6509

          k = 0.3125 0.1795 0.0000 (  5829 PWs)   bands (ev):

   -45.3947 -23.7980 -23.5929 -23.2373 -20.6111 -12.4462  -3.0340  -2.6486
    -2.5278  -1.6491  -0.7618   0.6835   3.5434   5.8491   6.5252   6.9295
     7.4850   8.0175   9.6707  10.6102  11.7499  12.5889  14.7296  15.2134
    16.2850  16.3828

          k = 0.3125 0.2513 0.0000 (  5831 PWs)   bands (ev):

   -45.3889 -23.8120 -23.6093 -23.2612 -20.6048 -12.3550  -3.0664  -2.6195
    -2.5548  -1.8854  -0.7386   0.4838   3.5538   5.9710   6.5530   7.1430
     7.5943   8.4221   9.8365  10.8510  11.8615  12.5359  14.2835  14.9862
    15.5971  16.4174

          k = 0.3125 0.3231 0.0000 (  5828 PWs)   bands (ev):

   -45.3827 -23.8272 -23.6063 -23.3099 -20.5966 -12.2529  -3.0668  -2.6539
    -2.5742  -2.0097  -0.7178   0.0789   3.6889   6.1089   6.5530   7.1757
     7.7052   9.1252  10.1085  11.3123  12.0949  12.5807  13.7261  14.4045
    15.1791  16.2585

          k = 0.3125 0.3950 0.0000 (  5825 PWs)   bands (ev):

   -45.3769 -23.8320 -23.5940 -23.3751 -20.5880 -12.1552  -3.0518  -2.7451
    -2.5463  -2.0205  -0.7251  -0.4036   3.9057   6.1892   6.6136   7.1522
     7.6998   9.9844  10.4205  11.8414  12.2733  12.7857  13.3463  14.0499
    14.8697  15.6429

          k = 0.3125 0.4668 0.0000 (  5821 PWs)   bands (ev):

   -45.3724 -23.8233 -23.5818 -23.4410 -20.5809 -12.0782  -3.0634  -2.7708
    -2.5169  -1.9465  -0.9817  -0.6360   4.1365   6.2637   6.5914   7.2271
     7.5880  10.4295  11.0292  11.8500  12.6989  13.1766  13.3467  13.9230
    14.5708  15.1398

          k = 0.3125 0.5386 0.0000 (  5801 PWs)   bands (ev):

   -45.3700 -23.8108 -23.5752 -23.4847 -20.5769 -12.0357  -3.0920  -2.7471
    -2.4947  -1.8059  -1.3513  -0.6517   4.2920   6.3584   6.5246   7.2083
     7.5641  10.4039  11.7639  11.9328  12.7825  12.9892  13.7570  13.8937
    14.6841  15.3073

          k = 0.3125-0.1077 0.0000 (  5822 PWs)   bands (ev):

   -45.3991 -23.7927 -23.5585 -23.2369 -20.6149 -12.5140  -2.9730  -2.6872
    -2.5371  -1.3696  -0.7724   0.6552   3.6384   5.7447   6.3380   6.8558
     7.3656   7.8293   9.5743  10.5902  11.8885  12.7190  14.3617  15.4420
    16.0586  16.4907

          k = 0.3125-0.0359 0.0000 (  5801 PWs)   bands (ev):

   -45.4015 -23.7925 -23.5280 -23.2465 -20.6165 -12.5501  -2.9070  -2.7330
    -2.5526  -1.1688  -0.7613   0.5379   3.7402   5.6004   6.3116   6.8153
     7.2684   7.7621   9.5230  10.6287  12.3523  12.8403  13.5126  15.3282
    16.1327  16.5886

          k = 0.3750 0.2154 0.0000 (  5838 PWs)   bands (ev):

   -45.3852 -23.8415 -23.6138 -23.2572 -20.6050 -12.2940  -3.1266  -2.6046
    -2.5424  -2.1295  -0.7110   0.5576   3.4577   6.0552   6.7488   7.2300
     7.7406   8.6082   9.8213  10.8148  11.8653  12.5193  13.7243  15.1236
    15.6213  15.7706

          k = 0.3750 0.2872 0.0000 (  5825 PWs)   bands (ev):

   -45.3809 -23.8638 -23.6074 -23.2802 -20.6013 -12.2235  -3.1453  -2.6278
    -2.5627  -2.2422  -0.6887   0.3647   3.5069   6.2041   6.7311   7.2882
     7.8257   9.1215   9.9590  11.0235  11.9793  12.5570  13.2846  14.6673
    15.0709  15.7471

          k = 0.3750 0.3590 0.0000 (  5815 PWs)   bands (ev):

   -45.3767 -23.8680 -23.5961 -23.3303 -20.5944 -12.1517  -3.1175  -2.7368
    -2.5520  -2.2168  -0.6782  -0.0480   3.6928   6.3757   6.6547   7.2562
     7.7589   9.8877  10.2864  11.4343  12.0718  12.5468  13.0936  14.1644
    14.8190  15.5677

          k = 0.3750 0.4309 0.0000 (  5803 PWs)   bands (ev):

   -45.3731 -23.8521 -23.5849 -23.3968 -20.5863 -12.0899  -3.0771  -2.8046
    -2.5309  -2.1170  -0.7149  -0.5212   3.9490   6.4386   6.6023   7.2694
     7.5921  10.3195  11.0155  11.8790  12.0757  12.5255  13.2472  14.1147
    14.6697  15.3046

          k = 0.3750 0.5027 0.0000 (  5806 PWs)   bands (ev):

   -45.3707 -23.8250 -23.5773 -23.4591 -20.5798 -12.0480  -3.0816  -2.7782
    -2.5077  -1.9559  -1.0853  -0.6415   4.1885   6.4059   6.5375   7.2752
     7.5153  10.4121  11.7547  12.0014  12.0456  13.1100  13.5395  13.9878
    14.5958  15.2124

          k = 0.3750 0.5745 0.0000 (  5816 PWs)   bands (ev):

   -45.3698 -23.8101 -23.5749 -23.4863 -20.5774 -12.0332  -3.0936  -2.7502
    -2.4954  -1.8120  -1.3505  -0.6487   4.2931   6.3602   6.5252   7.2125
     7.5587  10.4143  11.7543  11.9731  12.7608  12.9872  13.7045  13.9121
    14.6989  15.3167

          k = 0.3750-0.1436 0.0000 (  5833 PWs)   bands (ev):

   -45.3887 -23.8121 -23.6095 -23.2614 -20.6054 -12.3526  -3.0681  -2.6188
    -2.5601  -1.8907  -0.7378   0.4903   3.5520   5.9674   6.5500   7.1528
     7.6031   8.4157   9.8423  10.8466  11.8612  12.5348  14.2745  14.9725
    15.6138  16.4050

          k = 0.3750-0.0718 0.0000 (  5816 PWs)   bands (ev):

   -45.3911 -23.7901 -23.5943 -23.2808 -20.6040 -12.3913  -2.9954  -2.6470
    -2.5876  -1.6327  -0.7643   0.2889   3.7020   5.8088   6.4373   7.0369
     7.5515   8.3541   9.8900  11.0224  12.1208  12.6088  14.2998  14.7034
    15.3961  16.4391

          k = 0.3750 0.0000 0.0000 (  5820 PWs)   bands (ev):

   -45.3920 -23.7827 -23.5845 -23.2922 -20.6033 -12.4047  -2.9573  -2.6704
    -2.5956  -1.5076  -0.7794   0.1771   3.7771   5.6915   6.4784   6.9360
     7.5537   8.3392   9.9077  11.0941  12.4600  12.6738  13.7708  14.5950
    15.7244  16.2023

          k = 0.4375 0.2513 0.0000 (  5814 PWs)   bands (ev):

   -45.3787 -23.8920 -23.6037 -23.2705 -20.6035 -12.1868  -3.1992  -2.6243
    -2.5540  -2.3930  -0.6682   0.4776   3.4157   6.2695   6.8055   7.3687
     8.0252   9.2506   9.9069  10.9802  11.8986  12.4603  13.1042  14.5718
    14.9165  15.3385

          k = 0.4375 0.3231 0.0000 (  5816 PWs)   bands (ev):

   -45.3765 -23.8997 -23.5973 -23.2905 -20.6008 -12.1490  -3.1956  -2.6967
    -2.5569  -2.3768  -0.6586   0.3036   3.4901   6.3857   6.7736   7.3396
     7.9907   9.7154  10.0810  11.1664  11.7434  12.4041  13.1822  14.1798
    14.7669  15.2011

          k = 0.4375 0.3950 0.0000 (  5814 PWs)   bands (ev):

   -45.3745 -23.8842 -23.5906 -23.3374 -20.5942 -12.1144  -3.1371  -2.7846
    -2.5462  -2.2720  -0.6631  -0.0894   3.6961   6.4706   6.7211   7.2611
     7.7779  10.1108  10.6462  11.5449  11.6447  12.4024  13.2277  14.0254
    14.7844  15.0590

          k = 0.4375 0.4668 0.0000 (  5809 PWs)   bands (ev):

   -45.3730 -23.8522 -23.5849 -23.3970 -20.5866 -12.0882  -3.0781  -2.8086
    -2.5309  -2.1206  -0.7147  -0.5166   3.9473   6.4375   6.6025   7.2632
     7.6041  10.3278  11.0428  11.8651  12.0598  12.5165  13.2487  14.1218
    14.6689  15.2877

          k = 0.4375 0.5386 0.0000 (  5810 PWs)   bands (ev):

   -45.3721 -23.8230 -23.5816 -23.4425 -20.5817 -12.0741  -3.0658  -2.7782
    -2.5177  -1.9569  -0.9780  -0.6302   4.1354   6.2640   6.5947   7.2210
     7.5977  10.4468  11.0651  11.8291  12.7017  13.1522  13.3165  13.9410
    14.5752  15.1303

          k = 0.4375-0.1795 0.0000 (  5825 PWs)   bands (ev):

   -45.3808 -23.8641 -23.6075 -23.2802 -20.6017 -12.2219  -3.1468  -2.6319
    -2.5628  -2.2445  -0.6881   0.3697   3.5045   6.2057   6.7167   7.2976
     7.8376   9.1200   9.9699  11.0189  11.9766  12.5570  13.2769  14.6629
    15.0738  15.7459

          k = 0.4375-0.1077 0.0000 (  5825 PWs)   bands (ev):

   -45.3823 -23.8275 -23.6064 -23.3103 -20.5975 -12.2489  -3.0696  -2.6602
    -2.5765  -2.0182  -0.7163   0.0888   3.6857   6.1058   6.5503   7.1742
     7.7273   9.1254  10.1248  11.3048  12.0906  12.5777  13.7102  14.4076
    15.1654  16.2484

          k = 0.4375-0.0359 0.0000 (  5828 PWs)   bands (ev):

   -45.3832 -23.8012 -23.6017 -23.3385 -20.5941 -12.2635  -3.0114  -2.6831
    -2.5843  -1.8232  -0.7496  -0.1518   3.8374   5.8963   6.6082   6.9933
     7.7333   9.1342  10.2309  11.5454  12.3655  12.6480  13.8786  14.4221
    14.7961  15.8335

          k =-0.5000-0.2872 0.0000 (  5826 PWs)   bands (ev):

   -45.3765 -23.9118 -23.5977 -23.2751 -20.6034 -12.1480  -3.2296  -2.6632
    -2.5585  -2.4490  -0.6523   0.4502   3.4045   6.3886   6.7687   7.4056
     8.1504   9.6087   9.9543  11.1474  11.5512  12.3691  13.2677  14.1012
    14.7372  15.1659

          k =-0.5000-0.2154 0.0000 (  5818 PWs)   bands (ev):

   -45.3765 -23.8998 -23.5974 -23.2905 -20.6009 -12.1485  -3.1962  -2.6989
    -2.5565  -2.3772  -0.6584   0.3054   3.4891   6.3903   6.7615   7.3445
     7.9955   9.7194  10.0847  11.1676  11.7357  12.4028  13.1835  14.1777
    14.7595  15.2079

          k =-0.5000-0.1436 0.0000 (  5816 PWs)   bands (ev):

   -45.3765 -23.8684 -23.5962 -23.3303 -20.5949 -12.1495  -3.1194  -2.7426
    -2.5519  -2.2203  -0.6775  -0.0417   3.6899   6.3808   6.6401   7.2559
     7.7766   9.8929  10.3080  11.4292  12.0554  12.5430  13.0886  14.1696
    14.8104  15.5640

          k =-0.5000-0.0718 0.0000 (  5811 PWs)   bands (ev):

   -45.3765 -23.8322 -23.5940 -23.3760 -20.5889 -12.1505  -3.0544  -2.7546
    -2.5474  -2.0308  -0.7236  -0.3930   3.9027   6.1875   6.6173   7.1392
     7.7230   9.9938  10.4517  11.8302  12.2649  12.7706  13.3293  14.0632
    14.8531  15.6336

          k =-0.5000-0.0000 0.0000 (  5842 PWs)   bands (ev):

   -45.3765 -23.8152 -23.5925 -23.3975 -20.5865 -12.1510  -3.0335  -2.7510
    -2.5455  -1.9243  -0.7867  -0.5202   4.0008   6.0490   6.6732   7.0486
     7.7368  10.0204  10.5114  11.8821  12.4210  12.9778  13.6298  14.1322
    14.5863  15.1537

     highest occupied, lowest unoccupied level (ev):     4.2931    5.5175

!    total energy              =    -571.23456201 Ry
     total all-electron energy =    -12610.611973 Ry
     estimated scf accuracy    <          1.0E-09 Ry

     The total energy is the sum of the following terms:
     one-electron contribution =    -278.06860027 Ry
     hartree contribution      =     147.52218852 Ry
     xc contribution           =     -36.34737646 Ry
     ewald contribution        =      -7.48576327 Ry
     one-center paw contrib.   =    -396.85501052 Ry

     convergence has been achieved in   9 iterations

     negative rho (up, down):  3.148E-05 0.000E+00

     Forces acting on atoms (cartesian axes, Ry/au):

     atom    1 type  1   force =     0.00000000   -0.00236832   -0.00092389
     atom    2 type  2   force =     0.00000000    0.00101003    0.00025067
     atom    3 type  3   force =     0.00000000    0.00135829    0.00067322
     The non-local contrib.  to forces
     atom    1 type  1   force =     0.00000000   -0.00072115   -0.02445844
     atom    2 type  2   force =     0.00000000    0.00176363   -0.99154828
     atom    3 type  3   force =     0.00000000    0.00099740    0.21130215
     The ionic contribution  to forces
     atom    1 type  1   force =    -0.00000001    0.00296841   -0.54249118
     atom    2 type  2   force =     0.00000001   -0.00056309   24.49657030
     atom    3 type  3   force =     0.00000000   -0.00240532  -23.95407913
     The local contribution  to forces
     atom    1 type  1   force =    -0.00000000   -0.00457680    0.56184063
     atom    2 type  2   force =     0.00000027   -0.00017947  -23.50803426
     atom    3 type  3   force =    -0.00000000    0.00282063   23.74616183
     The core correction contribution to forces
     atom    1 type  1   force =    -0.00000000   -0.00003956    0.00410874
     atom    2 type  2   force =     0.00000000   -0.00001110    0.00321878
     atom    3 type  3   force =    -0.00000000   -0.00005493   -0.00270439
     The Hubbard contrib.    to forces
     atom    1 type  1   force =     0.00000000    0.00000000    0.00000000
     atom    2 type  2   force =     0.00000000    0.00000000    0.00000000
     atom    3 type  3   force =     0.00000000    0.00000000    0.00000000
     The SCF correction term to forces
     atom    1 type  1   force =    -0.00000000    0.00000026    0.00006878
     atom    2 type  2   force =     0.00000000   -0.00000045    0.00003657
     atom    3 type  3   force =     0.00000000   -0.00000000   -0.00001480

     Total force =     0.003137     Total SCF correction =     0.000079

     BFGS Geometry Optimization
     Energy error            =      0.0E+00 Ry
     Gradient error          =      2.4E-03 Ry/Bohr

     number of scf cycles    =   1
     number of bfgs steps    =   0

     energy             new  =    -571.2345620072 Ry

     new trust radius        =       0.0025421473 bohr
     new conv_thr            =       0.0000000100 Ry


ATOMIC_POSITIONS (angstrom)
Zr            0.0000000000       -0.0012532604       10.1032783148
F            -0.0000000020        1.9314383684       11.4065684952
Br           -0.0000000020        1.9316226551        8.2083319030



     Writing config-only to output data dir ./tmp/ZrFBr.save/
     NEW-OLD atomic charge density approx. for the potential

     Check: negative core charge=   -0.000002

     negative rho (up, down):  3.172E-05 0.000E+00

     total cpu time spent up to now is       16.9 secs

     Self-consistent Calculation

     iteration #  1     ecut=    65.00 Ry     beta= 0.70
     Davidson diagonalization with overlap
     ethr =  1.00E-06,  avg # of iterations =  2.3

     Threshold (ethr) on eigenvalues was too large:
     Diagonalizing with lowered threshold

     Davidson diagonalization with overlap
     ethr =  1.51E-09,  avg # of iterations =  3.3

     negative rho (up, down):  3.154E-05 0.000E+00

     total cpu time spent up to now is       20.1 secs

     total energy              =    -571.23457042 Ry
     estimated scf accuracy    <       0.00000037 Ry

     iteration #  2     ecut=    65.00 Ry     beta= 0.70
     Davidson diagonalization with overlap
     ethr =  1.43E-09,  avg # of iterations =  2.0

     negative rho (up, down):  3.150E-05 0.000E+00

     total cpu time spent up to now is       21.5 secs

     total energy              =    -571.23457038 Ry
     estimated scf accuracy    <       0.00000047 Ry

     iteration #  3     ecut=    65.00 Ry     beta= 0.70
     Davidson diagonalization with overlap
     ethr =  1.43E-09,  avg # of iterations =  1.5

     negative rho (up, down):  3.149E-05 0.000E+00

     total cpu time spent up to now is       22.7 secs

     total energy              =    -571.23457051 Ry
     estimated scf accuracy    <       0.00000012 Ry

     iteration #  4     ecut=    65.00 Ry     beta= 0.70
     Davidson diagonalization with overlap
     ethr =  4.57E-10,  avg # of iterations =  1.0

     negative rho (up, down):  3.148E-05 0.000E+00

     total cpu time spent up to now is       23.9 secs

     End of self-consistent calculation

          k = 0.0000 0.0000 0.0000 (  5811 PWs)   bands (ev):

   -45.4351 -23.9041 -23.1535 -23.1445 -20.6985 -13.0122  -3.1762  -2.5022
    -2.4820  -1.1598   1.3098   1.3561   3.7565   5.7464   5.8222   5.8639
     6.7436   6.7506   7.9036   8.7386  11.1085  13.9627  14.6094  14.6930
    15.2693  17.1912

          k = 0.0000 0.0718 0.0000 (  5772 PWs)   bands (ev):

   -45.4329 -23.8957 -23.1839 -23.1491 -20.6901 -12.9846  -3.1423  -2.5379
    -2.4816  -1.1379   1.0878   1.3161   3.7703   5.6885   5.8652   5.9592
     6.7026   6.7945   8.0276   8.9604  11.2422  14.0194  14.2413  14.8260
    15.1387  17.3931

          k = 0.0000 0.1436 0.0000 (  5780 PWs)   bands (ev):

   -45.4267 -23.8720 -23.2678 -23.1623 -20.6688 -12.9042  -3.0513  -2.6290
    -2.4816  -1.0855   0.5291   1.2062   3.7828   5.5999   6.0018   6.0639
     6.7773   6.9278   8.3619   9.4404  11.6291  13.5779  14.0081  14.9835
    15.2211  17.5981

          k = 0.0000 0.2154 0.0000 (  5814 PWs)   bands (ev):

   -45.4174 -23.8382 -23.3854 -23.1819 -20.6432 -12.7792  -2.9421  -2.7312
    -2.4844  -1.0355  -0.1669   1.0519   3.7385   5.5872   6.1169   6.2417
     7.0920   7.1034   8.8255   9.9334  12.0071  13.2081  13.6348  15.3431
    15.8637  17.2657

          k = 0.0000 0.2872 0.0000 (  5808 PWs)   bands (ev):

   -45.4064 -23.8053 -23.5086 -23.2049 -20.6213 -12.6237  -2.9401  -2.7276
    -2.4921  -1.1401  -0.7184   0.8835   3.6290   5.6869   6.2713   6.5749
     7.2894   7.5146   9.3062  10.3402  11.8711  12.8774  14.0871  15.8281
    16.3800  16.6535

          k = 0.0000 0.3590 0.0000 (  5824 PWs)   bands (ev):

   -45.3954 -23.7998 -23.5964 -23.2278 -20.6074 -12.4580  -3.0351  -2.6458
    -2.5042  -1.6615  -0.7725   0.7279   3.5075   5.8593   6.5317   6.9483
     7.4850   8.0109   9.6613  10.6242  11.7437  12.5591  14.6920  15.1631
    16.3317  16.3449

          k = 0.0000 0.4309 0.0000 (  5838 PWs)   bands (ev):

   -45.3861 -23.8447 -23.6157 -23.2472 -20.6009 -12.3085  -3.1285  -2.5992
    -2.5177  -2.1347  -0.7257   0.6047   3.4211   6.0717   6.7570   7.2394
     7.7382   8.5993   9.8113  10.8306  11.8486  12.4847  13.6878  15.0882
    15.5717  15.8192

          k = 0.0000 0.5027 0.0000 (  5810 PWs)   bands (ev):

   -45.3798 -23.8956 -23.6051 -23.2600 -20.5992 -12.2032  -3.2027  -2.6175
    -2.5283  -2.3918  -0.6855   0.5263   3.3790   6.2916   6.8145   7.3763
     8.0136   9.2437   9.8935  10.9874  11.8671  12.4207  13.0898  14.5360
    14.8756  15.3948

          k = 0.0000-0.5745 0.0000 (  5834 PWs)   bands (ev):

   -45.3776 -23.9154 -23.5990 -23.2645 -20.5990 -12.1652  -3.2340  -2.6561
    -2.5323  -2.4452  -0.6705   0.4995   3.3679   6.4151   6.7758   7.4133
     8.1340   9.6058   9.9425  11.1340  11.5207  12.3401  13.2551  14.0659
    14.6959  15.2260

          k = 0.0625 0.0359 0.0000 (  5791 PWs)   bands (ev):

   -45.4329 -23.8956 -23.1779 -23.1554 -20.6902 -12.9841  -3.1423  -2.5259
    -2.4946  -1.1375   1.1182   1.2825   3.7732   5.7264   5.8216   5.9602
     6.6968   6.8002   8.0292   8.9615  11.2437  14.0195  14.2817  14.7655
    15.1520  17.4131

          k = 0.0625 0.1077 0.0000 (  5776 PWs)   bands (ev):

   -45.4287 -23.8796 -23.2380 -23.1613 -20.6754 -12.9301  -3.0795  -2.5964
    -2.4875  -1.1003   0.7205   1.2155   3.7875   5.6230   5.9445   6.0597
     6.7092   6.8960   8.2582   9.3057  11.5121  13.7486  14.0606  14.9013
    15.1583  17.5027

          k = 0.0625 0.1795 0.0000 (  5782 PWs)   bands (ev):

   -45.4209 -23.8506 -23.3379 -23.1787 -20.6520 -12.8273  -2.9743  -2.6969
    -2.4893  -1.0475   0.1114   1.0639   3.7769   5.5488   6.1257   6.1668
     6.8793   7.0880   8.6580   9.7784  11.9899  13.2193  13.7423  15.0611
    15.7284  17.0962

          k = 0.0625 0.2513 0.0000 (  5795 PWs)   bands (ev):

   -45.4108 -23.8163 -23.4566 -23.2024 -20.6286 -12.6867  -2.9000  -2.7607
    -2.4980  -1.0357  -0.5284   0.8761   3.7090   5.5884   6.1971   6.4977
     7.1334   7.3859   9.1338  10.2292  12.1372  13.0414  13.5555  15.5188
    16.4093  16.6649

          k = 0.0625 0.3231 0.0000 (  5822 PWs)   bands (ev):

   -45.3998 -23.7936 -23.5624 -23.2283 -20.6111 -12.5253  -2.9733  -2.6855
    -2.5135  -1.3806  -0.7803   0.6884   3.6067   5.7509   6.3499   6.8700
     7.3615   7.8279   9.5654  10.6011  11.8918  12.6954  14.3464  15.4054
    16.0451  16.4814

          k = 0.0625 0.3950 0.0000 (  5829 PWs)   bands (ev):

   -45.3896 -23.8145 -23.6118 -23.2522 -20.6013 -12.3665  -3.0684  -2.6138
    -2.5360  -1.8955  -0.7501   0.5269   3.5198   5.9815   6.5629   7.1552
     7.5973   8.4120   9.8307  10.8657  11.8534  12.5067  14.2403  14.9541
    15.5919  16.3966

          k = 0.0625 0.4668 0.0000 (  5819 PWs)   bands (ev):

   -45.3818 -23.8672 -23.6089 -23.2704 -20.5974 -12.2378  -3.1483  -2.6163
    -2.5484  -2.2426  -0.7036   0.4097   3.4721   6.2234   6.7329   7.2993
     7.8244   9.1114   9.9526  11.0387  11.9578  12.5194  13.2564  14.6502
    15.0460  15.7509

          k = 0.0625 0.5386 0.0000 (  5820 PWs)   bands (ev):

   -45.3775 -23.9032 -23.5986 -23.2803 -20.5966 -12.1651  -3.1996  -2.6848
    -2.5428  -2.3693  -0.6755   0.3484   3.4558   6.4124   6.7746   7.3482
     7.9797   9.7112  10.0698  11.1691  11.7062  12.3738  13.1726  14.1510
    14.7332  15.2342

          k = 0.1250 0.0718 0.0000 (  5797 PWs)   bands (ev):

   -45.4265 -23.8718 -23.2616 -23.1695 -20.6691 -12.9025  -3.0515  -2.6167
    -2.4971  -1.0837   0.5557   1.1685   3.7943   5.6330   5.9526   6.0613
     6.7744   6.9332   8.3672   9.4419  11.6343  13.5937  14.0226  15.0018
    15.1639  17.5491

          k = 0.1250 0.1436 0.0000 (  5787 PWs)   bands (ev):

   -45.4208 -23.8505 -23.3349 -23.1825 -20.6523 -12.8261  -2.9746  -2.6915
    -2.4970  -1.0459   0.1247   1.0421   3.7861   5.5558   6.1105   6.1615
     6.8842   7.0854   8.6614   9.7787  11.9924  13.2277  13.7524  15.0664
    15.7051  17.0836

          k = 0.1250 0.2154 0.0000 (  5787 PWs)   bands (ev):

   -45.4122 -23.8204 -23.4323 -23.2078 -20.6315 -12.7073  -2.8780  -2.7741
    -2.5095  -1.0159  -0.4020   0.8134   3.7605   5.5172   6.2194   6.4811
     7.0249   7.3645   9.0766  10.2004  12.5469  12.8147  13.3459  15.3349
    16.3423  16.6294

          k = 0.1250 0.2872 0.0000 (  5800 PWs)   bands (ev):

   -45.4020 -23.7928 -23.5309 -23.2402 -20.6129 -12.5600  -2.9065  -2.7303
    -2.5330  -1.1748  -0.7637   0.5504   3.7183   5.5990   6.3333   6.8174
     7.2629   7.7636   9.5173  10.6344  12.3688  12.8306  13.5124  15.3128
    16.1038  16.5676

          k = 0.1250 0.3590 0.0000 (  5812 PWs)   bands (ev):

   -45.3919 -23.7912 -23.5965 -23.2736 -20.6001 -12.4037  -2.9942  -2.6413
    -2.5672  -1.6331  -0.7727   0.3059   3.6790   5.8144   6.4577   7.0315
     7.5416   8.3543   9.8811  11.0344  12.1299  12.5974  14.2968  14.6806
    15.3751  16.4219

          k = 0.1250 0.4309 0.0000 (  5824 PWs)   bands (ev):

   -45.3832 -23.8297 -23.6078 -23.3023 -20.5934 -12.2632  -3.0687  -2.6389
    -2.5700  -2.0152  -0.7279   0.1111   3.6619   6.1158   6.5670   7.1762
     7.7108   9.1165  10.1065  11.3289  12.0887  12.5594  13.6881  14.4004
    15.1424  16.2348

          k = 0.1250 0.5027 0.0000 (  5816 PWs)   bands (ev):

   -45.3774 -23.8711 -23.5973 -23.3217 -20.5908 -12.1647  -3.1201  -2.7239
    -2.5448  -2.2134  -0.6911  -0.0143   3.6646   6.3937   6.6552   7.2617
     7.7588   9.8781  10.2810  11.4572  12.0460  12.5108  13.0822  14.1592
    14.7918  15.5502

          k = 0.1250 0.5745 0.0000 (  5816 PWs)   bands (ev):

   -45.3754 -23.8873 -23.5917 -23.3285 -20.5902 -12.1292  -3.1394  -2.7699
    -2.5382  -2.2641  -0.6772  -0.0576   3.6690   6.4917   6.7234   7.2679
     7.7673  10.0963  10.6373  11.5488  11.6253  12.3842  13.2217  14.0030
    14.7651  15.0541

          k = 0.1250 0.0000 0.0000 (  5790 PWs)   bands (ev):

   -45.4286 -23.8794 -23.2324 -23.1677 -20.6756 -12.9289  -3.0796  -2.5840
    -2.5024  -1.0991   0.7421   1.1870   3.7951   5.6645   5.8903   6.0606
     6.6914   6.9139   8.2622   9.3068  11.5157  13.7644  14.0670  14.8887
    15.1378  17.5057

          k = 0.1875 0.1077 0.0000 (  5803 PWs)   bands (ev):

   -45.4171 -23.8377 -23.3797 -23.1898 -20.6439 -12.7756  -2.9428  -2.7210
    -2.5013  -1.0308  -0.1471   1.0108   3.7612   5.6025   6.1091   6.2019
     7.0874   7.1128   8.8339   9.9328  12.0101  13.2246  13.6573  15.3628
    15.8119  17.2206

          k = 0.1875 0.1795 0.0000 (  5812 PWs)   bands (ev):

   -45.4105 -23.8158 -23.4525 -23.2086 -20.6293 -12.6834  -2.8992  -2.7559
    -2.5101  -1.0295  -0.5153   0.8416   3.7296   5.5897   6.1837   6.4838
     7.1359   7.3866   9.1405  10.2272  12.1330  13.0620  13.5793  15.5314
    16.3790  16.6548

          k = 0.1875 0.2513 0.0000 (  5800 PWs)   bands (ev):

   -45.4019 -23.7923 -23.5290 -23.2435 -20.6133 -12.5580  -2.9042  -2.7311
    -2.5384  -1.1682  -0.7606   0.5322   3.7301   5.5964   6.3252   6.8156
     7.2610   7.7660   9.5205  10.6322  12.3591  12.8397  13.5374  15.3107
    16.1223  16.5769

          k = 0.1875 0.3231 0.0000 (  5826 PWs)   bands (ev):

   -45.3925 -23.7828 -23.5854 -23.2882 -20.5997 -12.4151  -2.9539  -2.6659
    -2.5796  -1.5004  -0.7845   0.1731   3.7662   5.6900   6.5021   6.9226
     7.5407   8.3425   9.9022  11.0984  12.4629  12.6894  13.7868  14.5820
    15.7154  16.1810

          k = 0.1875 0.3950 0.0000 (  5821 PWs)   bands (ev):

   -45.3839 -23.8019 -23.6027 -23.3333 -20.5903 -12.2757  -3.0082  -2.6653
    -2.5785  -1.8149  -0.7569  -0.1511   3.8255   5.8968   6.6284   6.9885
     7.7158   9.1262  10.2156  11.5533  12.3614  12.6770  13.8724  14.4162
    14.7841  15.8410

          k = 0.1875 0.4668 0.0000 (  5819 PWs)   bands (ev):

   -45.3772 -23.8337 -23.5949 -23.3698 -20.5852 -12.1636  -3.0518  -2.7364
    -2.5424  -2.0233  -0.7296  -0.3879   3.8886   6.1892   6.6285   7.1481
     7.7053   9.9764  10.4200  11.8492  12.2781  12.7809  13.3100  14.0612
    14.8336  15.6666

          k = 0.1875 0.5386 0.0000 (  5818 PWs)   bands (ev):

   -45.3736 -23.8544 -23.5859 -23.3901 -20.5831 -12.1008  -3.0763  -2.7950
    -2.5255  -2.1145  -0.7157  -0.5100   3.9304   6.4428   6.6068   7.2746
     7.5934  10.3049  11.0103  11.8740  12.0734  12.5257  13.2398  14.1107
    14.6569  15.2763

          k = 0.1875-0.0359 0.0000 (  5799 PWs)   bands (ev):

   -45.4206 -23.8502 -23.3324 -23.1860 -20.6528 -12.8241  -2.9748  -2.6862
    -2.5061  -1.0441   0.1278   1.0324   3.7944   5.5740   6.1138   6.1243
     6.8664   7.1057   8.6655   9.7784  11.9951  13.2226  13.7584  15.0645
    15.6986  17.0984

          k = 0.2500 0.1436 0.0000 (  5819 PWs)   bands (ev):

   -45.4058 -23.8042 -23.5037 -23.2136 -20.6226 -12.6175  -2.9375  -2.7242
    -2.5104  -1.1280  -0.7096   0.8389   3.6593   5.6873   6.2648   6.5438
     7.2896   7.5197   9.3164  10.3348  11.8696  12.9034  14.1157  15.8607
    16.4184  16.6044

          k = 0.2500 0.2154 0.0000 (  5824 PWs)   bands (ev):

   -45.3992 -23.7921 -23.5586 -23.2361 -20.6122 -12.5195  -2.9695  -2.6857
    -2.5282  -1.3679  -0.7738   0.6461   3.6350   5.7472   6.3356   6.8567
     7.3590   7.8348   9.5736  10.5936  11.8899  12.7200  14.3854  15.4385
    16.0573  16.4773

          k = 0.2500 0.2872 0.0000 (  5828 PWs)   bands (ev):

   -45.3914 -23.7895 -23.5943 -23.2794 -20.6009 -12.3991  -2.9906  -2.6461
    -2.5740  -1.6245  -0.7679   0.2760   3.6996   5.8100   6.4440   7.0310
     7.5364   8.3602   9.8852  11.0267  12.1247  12.6117  14.3285  14.7067
    15.3994  16.4211

          k = 0.2500 0.3590 0.0000 (  5825 PWs)   bands (ev):

   -45.3836 -23.8007 -23.6019 -23.3364 -20.5908 -12.2731  -3.0062  -2.6712
    -2.5784  -1.8114  -0.7549  -0.1648   3.8355   5.8953   6.6173   6.9935
     7.7131   9.1292  10.2166  11.5490  12.3626  12.6702  13.8787  14.4513
    14.8053  15.8160

          k = 0.2500 0.4309 0.0000 (  5832 PWs)   bands (ev):

   -45.3770 -23.8152 -23.5928 -23.3944 -20.5832 -12.1614  -3.0286  -2.7364
    -2.5414  -1.9125  -0.7905  -0.5317   3.9978   6.0468   6.6754   7.0593
     7.7189  10.0052  10.4800  11.8980  12.4077  13.0256  13.6274  14.1411
    14.5864  15.1560

          k = 0.2500 0.5027 0.0000 (  5799 PWs)   bands (ev):

   -45.3725 -23.8238 -23.5822 -23.4384 -20.5786 -12.0841  -3.0608  -2.7669
    -2.5138  -1.9489  -0.9752  -0.6408   4.1297   6.2613   6.5967   7.2261
     7.5930  10.4231  11.0282  11.8489  12.6880  13.1804  13.3440  13.9527
    14.5566  15.1317

          k = 0.2500 0.5745 0.0000 (  5800 PWs)   bands (ev):

   -45.3710 -23.8261 -23.5779 -23.4549 -20.5771 -12.0563  -3.0774  -2.7717
    -2.5037  -1.9545  -1.0763  -0.6501   4.1805   6.4031   6.5392   7.2727
     7.5246  10.3954  11.7577  11.9821  12.0236  13.1566  13.5518  13.9973
    14.5785  15.1982

          k = 0.2500-0.0718 0.0000 (  5816 PWs)   bands (ev):

   -45.4102 -23.8155 -23.4519 -23.2103 -20.6299 -12.6810  -2.8993  -2.7548
    -2.5159  -1.0281  -0.5201   0.8427   3.7343   5.5958   6.1856   6.4651
     7.1326   7.3935   9.1433  10.2261  12.1317  13.0584  13.5677  15.5310
    16.3945  16.6799

          k = 0.2500 0.0000 0.0000 (  5800 PWs)   bands (ev):

   -45.4118 -23.8199 -23.4295 -23.2129 -20.6325 -12.7030  -2.8784  -2.7696
    -2.5224  -1.0116  -0.4028   0.8011   3.7755   5.5281   6.2066   6.4565
     7.0218   7.3742   9.0830  10.1986  12.5495  12.7991  13.3522  15.3439
    16.3462  16.6476

          k = 0.3125 0.1795 0.0000 (  5829 PWs)   bands (ev):

   -45.3946 -23.7974 -23.5931 -23.2373 -20.6091 -12.4491  -3.0316  -2.6465
    -2.5240  -1.6525  -0.7635   0.6800   3.5406   5.8508   6.5246   6.9298
     7.4828   8.0192   9.6717  10.6115  11.7495  12.5883  14.7308  15.2115
    16.2837  16.3829

          k = 0.3125 0.2513 0.0000 (  5831 PWs)   bands (ev):

   -45.3888 -23.8114 -23.6094 -23.2612 -20.6028 -12.3580  -3.0642  -2.6174
    -2.5516  -1.8881  -0.7406   0.4802   3.5514   5.9726   6.5529   7.1438
     7.5931   8.4224   9.8375  10.8515  11.8615  12.5352  14.2848  14.9847
    15.5965  16.4170

          k = 0.3125 0.3231 0.0000 (  5828 PWs)   bands (ev):

   -45.3825 -23.8265 -23.6062 -23.3099 -20.5946 -12.2559  -3.0646  -2.6517
    -2.5721  -2.0116  -0.7200   0.0754   3.6869   6.1103   6.5537   7.1753
     7.7061   9.1247  10.1095  11.3118  12.0946  12.5795  13.7264  14.4052
    15.1786  16.2582

          k = 0.3125 0.3950 0.0000 (  5825 PWs)   bands (ev):

   -45.3768 -23.8313 -23.5939 -23.3751 -20.5861 -12.1583  -3.0495  -2.7437
    -2.5443  -2.0220  -0.7274  -0.4068   3.9043   6.1899   6.6149   7.1511
     7.7014   9.9843  10.4213  11.8391  12.2725  12.7845  13.3470  14.0522
    14.8698  15.6429

          k = 0.3125 0.4668 0.0000 (  5821 PWs)   bands (ev):

   -45.3723 -23.8226 -23.5817 -23.4411 -20.5791 -12.0813  -3.0610  -2.7693
    -2.5149  -1.9484  -0.9847  -0.6383   4.1358   6.2642   6.5920   7.2261
     7.5899  10.4297  11.0295  11.8471  12.6992  13.1762  13.3466  13.9246
    14.5719  15.1400

          k = 0.3125 0.5386 0.0000 (  5801 PWs)   bands (ev):

   -45.3699 -23.8100 -23.5750 -23.4848 -20.5751 -12.0388  -3.0897  -2.7452
    -2.4928  -1.8084  -1.3541  -0.6539   4.2918   6.3589   6.5248   7.2067
     7.5663  10.4033  11.7620  11.9338  12.7834  12.9901  13.7557  13.8935
    14.6849  15.3077

          k = 0.3125-0.1077 0.0000 (  5822 PWs)   bands (ev):

   -45.3990 -23.7920 -23.5588 -23.2368 -20.6128 -12.5170  -2.9705  -2.6852
    -2.5330  -1.3735  -0.7740   0.6521   3.6353   5.7459   6.3378   6.8557
     7.3629   7.8318   9.5758  10.5917  11.8876  12.7183  14.3603  15.4419
    16.0585  16.4897

          k = 0.3125-0.0359 0.0000 (  5801 PWs)   bands (ev):

   -45.4014 -23.7918 -23.5285 -23.2462 -20.6144 -12.5530  -2.9045  -2.7309
    -2.5484  -1.1729  -0.7629   0.5352   3.7369   5.6007   6.3133   6.8141
     7.2654   7.7648   9.5249  10.6300  12.3516  12.8389  13.5114  15.3273
    16.1326  16.5886

          k = 0.3750 0.2154 0.0000 (  5838 PWs)   bands (ev):

   -45.3850 -23.8411 -23.6138 -23.2572 -20.6030 -12.2970  -3.1246  -2.6026
    -2.5386  -2.1321  -0.7132   0.5542   3.4548   6.0575   6.7489   7.2303
     7.7387   8.6096   9.8215  10.8160  11.8652  12.5187  13.7260  15.1230
    15.6210  15.7687

          k = 0.3750 0.2872 0.0000 (  5825 PWs)   bands (ev):

   -45.3808 -23.8634 -23.6073 -23.2802 -20.5994 -12.2266  -3.1434  -2.6262
    -2.5597  -2.2435  -0.6910   0.3613   3.5043   6.2068   6.7308   7.2887
     7.8254   9.1213   9.9594  11.0239  11.9792  12.5562  13.2859  14.6671
    15.0709  15.7462

          k = 0.3750 0.3590 0.0000 (  5815 PWs)   bands (ev):

   -45.3765 -23.8676 -23.5960 -23.3302 -20.5925 -12.1548  -3.1156  -2.7356
    -2.5496  -2.2173  -0.6806  -0.0513   3.6905   6.3785   6.6544   7.2561
     7.7596   9.8874  10.2866  11.4340  12.0713  12.5459  13.0942  14.1658
    14.8193  15.5670

          k = 0.3750 0.4309 0.0000 (  5803 PWs)   bands (ev):

   -45.3730 -23.8516 -23.5848 -23.3967 -20.5844 -12.0930  -3.0747  -2.8035
    -2.5287  -2.1180  -0.7174  -0.5241   3.9472   6.4402   6.6028   7.2692
     7.5931  10.3194  11.0156  11.8772  12.0758  12.5247  13.2480  14.1166
    14.6703  15.3036

          k = 0.3750 0.5027 0.0000 (  5806 PWs)   bands (ev):

   -45.3706 -23.8246 -23.5772 -23.4590 -20.5780 -12.0511  -3.0791  -2.7765
    -2.5057  -1.9579  -1.0880  -0.6440   4.1874   6.4065   6.5382   7.2733
     7.5180  10.4113  11.7536  12.0017  12.0464  13.1099  13.5401  13.9892
    14.5956  15.2124

          k = 0.3750 0.5745 0.0000 (  5816 PWs)   bands (ev):

   -45.3697 -23.8097 -23.5748 -23.4862 -20.5756 -12.0363  -3.0912  -2.7480
    -2.4935  -1.8149  -1.3527  -0.6510   4.2922   6.3601   6.5262   7.2102
     7.5618  10.4131  11.7533  11.9740  12.7621  12.9878  13.7053  13.9130
    14.6980  15.3164

          k = 0.3750-0.1436 0.0000 (  5833 PWs)   bands (ev):

   -45.3886 -23.8117 -23.6096 -23.2613 -20.6033 -12.3557  -3.0658  -2.6167
    -2.5562  -1.8939  -0.7398   0.4871   3.5490   5.9695   6.5499   7.1523
     7.6008   8.4183   9.8429  10.8481  11.8607  12.5343  14.2765  14.9709
    15.6127  16.4038

          k = 0.3750-0.0718 0.0000 (  5816 PWs)   bands (ev):

   -45.3910 -23.7896 -23.5946 -23.2805 -20.6020 -12.3943  -2.9929  -2.6447
    -2.5837  -1.6365  -0.7661   0.2861   3.6989   5.8096   6.4386   7.0352
     7.5496   8.3569   9.8916  11.0238  12.1198  12.6081  14.2992  14.7034
    15.3956  16.4382

          k = 0.3750 0.0000 0.0000 (  5820 PWs)   bands (ev):

   -45.3919 -23.7822 -23.5848 -23.2919 -20.6012 -12.4077  -2.9547  -2.6679
    -2.5919  -1.5116  -0.7812   0.1745   3.7740   5.6916   6.4813   6.9329
     7.5520   8.3421   9.9097  11.0954  12.4599  12.6716  13.7702  14.5945
    15.7250  16.2016

          k = 0.4375 0.2513 0.0000 (  5814 PWs)   bands (ev):

   -45.3786 -23.8917 -23.6035 -23.2705 -20.6015 -12.1899  -3.1976  -2.6234
    -2.5502  -2.3939  -0.6707   0.4743   3.4128   6.2724   6.8062   7.3686
     8.0236   9.2515   9.9062  10.9811  11.8989  12.4605  13.1054  14.5721
    14.9163  15.3362

          k = 0.4375 0.3231 0.0000 (  5816 PWs)   bands (ev):

   -45.3764 -23.8994 -23.5971 -23.2905 -20.5988 -12.1522  -3.1941  -2.6960
    -2.5540  -2.3765  -0.6611   0.3003   3.4874   6.3891   6.7736   7.3398
     7.9900   9.7157  10.0799  11.1668  11.7442  12.4041  13.1826  14.1805
    14.7668  15.1995

          k = 0.4375 0.3950 0.0000 (  5814 PWs)   bands (ev):

   -45.3744 -23.8839 -23.5904 -23.3373 -20.5922 -12.1176  -3.1352  -2.7835
    -2.5438  -2.2721  -0.6657  -0.0925   3.6937   6.4735   6.7215   7.2613
     7.7772  10.1107  10.6455  11.5443  11.6463  12.4022  13.2281  14.0264
    14.7847  15.0579

          k = 0.4375 0.4668 0.0000 (  5809 PWs)   bands (ev):

   -45.3728 -23.8520 -23.5847 -23.3968 -20.5847 -12.0913  -3.0757  -2.8071
    -2.5288  -2.1218  -0.7174  -0.5193   3.9453   6.4387   6.6034   7.2632
     7.6041  10.3269  11.0434  11.8656  12.0591  12.5172  13.2497  14.1220
    14.6684  15.2883

          k = 0.4375 0.5386 0.0000 (  5810 PWs)   bands (ev):

   -45.3720 -23.8228 -23.5814 -23.4422 -20.5798 -12.0772  -3.0631  -2.7760
    -2.5157  -1.9592  -0.9806  -0.6325   4.1338   6.2639   6.5962   7.2195
     7.5995  10.4454  11.0663  11.8291  12.7024  13.1528  13.3182  13.9417
    14.5738  15.1297

          k = 0.4375-0.1795 0.0000 (  5825 PWs)   bands (ev):

   -45.3807 -23.8638 -23.6073 -23.2801 -20.5997 -12.2250  -3.1449  -2.6294
    -2.5600  -2.2464  -0.6905   0.3665   3.5016   6.2081   6.7176   7.2971
     7.8354   9.1221   9.9691  11.0202  11.9767  12.5568  13.2789  14.6618
    15.0738  15.7443

          k = 0.4375-0.1077 0.0000 (  5825 PWs)   bands (ev):

   -45.3822 -23.8273 -23.6064 -23.3101 -20.5955 -12.2519  -3.0673  -2.6569
    -2.5742  -2.0209  -0.7185   0.0860   3.6828   6.1073   6.5512   7.1734
     7.7258   9.1276  10.1248  11.3061  12.0903  12.5778  13.7116  14.4065
    15.1643  16.2473

          k = 0.4375-0.0359 0.0000 (  5828 PWs)   bands (ev):

   -45.3831 -23.8010 -23.6018 -23.3381 -20.5921 -12.2665  -3.0089  -2.6796
    -2.5821  -1.8265  -0.7519  -0.1543   3.8347   5.8964   6.6111   6.9907
     7.7326   9.1362  10.2319  11.5464  12.3653  12.6478  13.8785  14.4214
    14.7956  15.8332

          k =-0.5000-0.2872 0.0000 (  5826 PWs)   bands (ev):

   -45.3764 -23.9115 -23.5975 -23.2751 -20.6014 -12.1511  -3.2283  -2.6632
    -2.5546  -2.4486  -0.6549   0.4469   3.4017   6.3920   6.7694   7.4054
     8.1490   9.6096   9.9529  11.1473  11.5529  12.3697  13.2683  14.1017
    14.7372  15.1635

          k =-0.5000-0.2154 0.0000 (  5818 PWs)   bands (ev):

   -45.3764 -23.8996 -23.5971 -23.2904 -20.5989 -12.1516  -3.1947  -2.6978
    -2.5537  -2.3772  -0.6610   0.3022   3.4863   6.3932   6.7627   7.3442
     7.9939   9.7205  10.0833  11.1680  11.7367  12.4035  13.1844  14.1777
    14.7594  15.2061

          k =-0.5000-0.1436 0.0000 (  5816 PWs)   bands (ev):

   -45.3764 -23.8682 -23.5960 -23.3302 -20.5929 -12.1526  -3.1174  -2.7406
    -2.5496  -2.2214  -0.6800  -0.0447   3.6873   6.3829   6.6412   7.2557
     7.7752   9.8942  10.3069  11.4299  12.0558  12.5434  13.0902  14.1683
    14.8104  15.5633

          k =-0.5000-0.0718 0.0000 (  5811 PWs)   bands (ev):

   -45.3764 -23.8321 -23.5939 -23.3757 -20.5870 -12.1537  -3.0519  -2.7520
    -2.5453  -2.0330  -0.7261  -0.3956   3.9004   6.1878   6.6191   7.1384
     7.7228   9.9948  10.4513  11.8306  12.2660  12.7710  13.3301  14.0624
    14.8520  15.6350

          k =-0.5000-0.0000 0.0000 (  5842 PWs)   bands (ev):

   -45.3764 -23.8151 -23.5924 -23.3972 -20.5846 -12.1541  -3.0308  -2.7482
    -2.5434  -1.9271  -0.7893  -0.5224   3.9987   6.0487   6.6758   7.0468
     7.7372  10.0213  10.5114  11.8824  12.4222  12.9788  13.6290  14.1335
    14.5844  15.1526

     highest occupied, lowest unoccupied level (ev):     4.2922    5.5172

!    total energy              =    -571.23457053 Ry
     total all-electron energy =    -12610.611982 Ry
     estimated scf accuracy    <          5.7E-10 Ry

     The total energy is the sum of the following terms:
     one-electron contribution =    -278.08671202 Ry
     hartree contribution      =     147.53096213 Ry
     xc contribution           =     -36.34754342 Ry
     ewald contribution        =      -7.47624819 Ry
     one-center paw contrib.   =    -396.85502903 Ry

     convergence has been achieved in   4 iterations

     negative rho (up, down):  3.148E-05 0.000E+00

     Forces acting on atoms (cartesian axes, Ry/au):

     atom    1 type  1   force =     0.00000000   -0.00183734   -0.00039196
     atom    2 type  2   force =     0.00000000    0.00082215    0.00001519
     atom    3 type  3   force =     0.00000000    0.00101519    0.00037677
     The non-local contrib.  to forces
     atom    1 type  1   force =     0.00000000   -0.00034047   -0.02459203
     atom    2 type  2   force =     0.00000000    0.00283276   -0.99233223
     atom    3 type  3   force =     0.00000000    0.00085531    0.21120917
     The ionic contribution  to forces
     atom    1 type  1   force =    -0.00000001    0.01338361   -0.54113405
     atom    2 type  2   force =     0.00000001   -0.00816112   24.49880915
     atom    3 type  3   force =     0.00000000   -0.00522249  -23.95767510
     The local contribution  to forces
     atom    1 type  1   force =    -0.00000000   -0.01481932    0.56122345
     atom    2 type  2   force =     0.00000027    0.00616928  -23.50966142
     atom    3 type  3   force =    -0.00000000    0.00543241   23.74949357
     The core correction contribution to forces
     atom    1 type  1   force =    -0.00000000   -0.00003994    0.00412205
     atom    2 type  2   force =     0.00000000   -0.00001379    0.00322215
     atom    3 type  3   force =    -0.00000000   -0.00003308   -0.00268641
     The Hubbard contrib.    to forces
     atom    1 type  1   force =     0.00000000    0.00000000    0.00000000
     atom    2 type  2   force =     0.00000000    0.00000000    0.00000000
     atom    3 type  3   force =     0.00000000    0.00000000    0.00000000
     The SCF correction term to forces
     atom    1 type  1   force =     0.00000000   -0.00001265   -0.00001459
     atom    2 type  2   force =     0.00000000    0.00000357   -0.00002566
     atom    3 type  3   force =    -0.00000000   -0.00000840    0.00003232

     Total force =     0.002319     Total SCF correction =     0.000046
     Energy error            =      8.5E-06 Ry
     Gradient error          =      1.8E-03 Ry/Bohr

     number of scf cycles    =   2
     number of bfgs steps    =   1

     energy             old  =    -571.2345620072 Ry
     energy             new  =    -571.2345705332 Ry

     CASE: energy            _new < energy            _old

     new trust radius        =       0.0027963621 bohr
     new conv_thr            =            1.0E-10 Ry


ATOMIC_POSITIONS (angstrom)
Zr            0.0000000000       -0.0026970645       10.1029540433
F            -0.0000000020        1.9320824917       11.4065894088
Br           -0.0000000020        1.9324223361        8.2086352610



     Writing config-only to output data dir ./tmp/ZrFBr.save/
     NEW-OLD atomic charge density approx. for the potential

     Check: negative core charge=   -0.000002

     negative rho (up, down):  3.165E-05 0.000E+00

     total cpu time spent up to now is       24.3 secs

     Self-consistent Calculation

     iteration #  1     ecut=    65.00 Ry     beta= 0.70
     Davidson diagonalization with overlap
     ethr =  1.00E-06,  avg # of iterations =  2.7

     Threshold (ethr) on eigenvalues was too large:
     Diagonalizing with lowered threshold

     Davidson diagonalization with overlap
     ethr =  1.50E-09,  avg # of iterations =  3.7

     negative rho (up, down):  3.155E-05 0.000E+00

     total cpu time spent up to now is       27.7 secs

     total energy              =    -571.23457708 Ry
     estimated scf accuracy    <       0.00000038 Ry

     iteration #  2     ecut=    65.00 Ry     beta= 0.70
     Davidson diagonalization with overlap
     ethr =  1.46E-09,  avg # of iterations =  2.0

     negative rho (up, down):  3.150E-05 0.000E+00

     total cpu time spent up to now is       29.1 secs

     total energy              =    -571.23457704 Ry
     estimated scf accuracy    <       0.00000044 Ry

     iteration #  3     ecut=    65.00 Ry     beta= 0.70
     Davidson diagonalization with overlap
     ethr =  1.46E-09,  avg # of iterations =  1.5

     negative rho (up, down):  3.150E-05 0.000E+00

     total cpu time spent up to now is       30.3 secs

     total energy              =    -571.23457717 Ry
     estimated scf accuracy    <       0.00000013 Ry

     iteration #  4     ecut=    65.00 Ry     beta= 0.70
     Davidson diagonalization with overlap
     ethr =  5.09E-10,  avg # of iterations =  1.0

     negative rho (up, down):  3.149E-05 0.000E+00

     total cpu time spent up to now is       31.5 secs

     total energy              =    -571.23457719 Ry
     estimated scf accuracy    <          8.6E-10 Ry

     iteration #  5     ecut=    65.00 Ry     beta= 0.70
     Davidson diagonalization with overlap
     ethr =  3.31E-12,  avg # of iterations =  2.0

     negative rho (up, down):  3.149E-05 0.000E+00

     total cpu time spent up to now is       33.0 secs

     total energy              =    -571.23457719 Ry
     estimated scf accuracy    <          6.7E-10 Ry

     iteration #  6     ecut=    65.00 Ry     beta= 0.70
     Davidson diagonalization with overlap
     ethr =  2.59E-12,  avg # of iterations =  2.0

     negative rho (up, down):  3.149E-05 0.000E+00

     total cpu time spent up to now is       34.3 secs

     End of self-consistent calculation

          k = 0.0000 0.0000 0.0000 (  5811 PWs)   bands (ev):

   -45.4350 -23.9038 -23.1533 -23.1447 -20.6972 -13.0141  -3.1756  -2.4988
    -2.4815  -1.1603   1.3085   1.3513   3.7564   5.7496   5.8197   5.8633
     6.7449   6.7480   7.9032   8.7385  11.1078  13.9620  14.6079  14.6930
    15.2730  17.1894

          k = 0.0000 0.0718 0.0000 (  5772 PWs)   bands (ev):

   -45.4328 -23.8954 -23.1836 -23.1493 -20.6888 -12.9864  -3.1418  -2.5346
    -2.4812  -1.1384   1.0864   1.3114   3.7705   5.6903   5.8629   5.9593
     6.6978   6.7987   8.0271   8.9600  11.2414  14.0189  14.2396  14.8259
    15.1430  17.3916

          k = 0.0000 0.1436 0.0000 (  5780 PWs)   bands (ev):

   -45.4266 -23.8718 -23.2674 -23.1624 -20.6676 -12.9061  -3.0509  -2.6258
    -2.4812  -1.0861   0.5276   1.2016   3.7838   5.6009   5.9998   6.0625
     6.7750   6.9317   8.3614   9.4396  11.6281  13.5768  14.0081  14.9870
    15.2207  17.5982

          k = 0.0000 0.2154 0.0000 (  5814 PWs)   bands (ev):

   -45.4173 -23.8380 -23.3849 -23.1821 -20.6421 -12.7811  -2.9418  -2.7283
    -2.4842  -1.0362  -0.1685   1.0476   3.7405   5.5876   6.1139   6.2402
     7.0915   7.1068   8.8250   9.9324  12.0060  13.2084  13.6354  15.3448
    15.8629  17.2666

          k = 0.0000 0.2872 0.0000 (  5808 PWs)   bands (ev):

   -45.4063 -23.8050 -23.5080 -23.2051 -20.6204 -12.6256  -2.9387  -2.7263
    -2.4921  -1.1414  -0.7196   0.8794   3.6317   5.6870   6.2675   6.5741
     7.2922   7.5150   9.3057  10.3388  11.8702  12.8807  14.0851  15.8294
    16.3808  16.6517

          k = 0.0000 0.3590 0.0000 (  5824 PWs)   bands (ev):

   -45.3953 -23.7992 -23.5961 -23.2280 -20.6064 -12.4600  -3.0335  -2.6451
    -2.5043  -1.6633  -0.7731   0.7240   3.5104   5.8590   6.5278   6.9484
     7.4871   8.0115   9.6610  10.6221  11.7434  12.5627  14.6886  15.1665
    16.3326  16.3453

          k = 0.0000 0.4309 0.0000 (  5838 PWs)   bands (ev):

   -45.3859 -23.8438 -23.6157 -23.2473 -20.6000 -12.3105  -3.1269  -2.5987
    -2.5179  -2.1367  -0.7261   0.6009   3.4241   6.0707   6.7542   7.2405
     7.7394   8.5994   9.8112  10.8282  11.8492  12.4877  13.6875  15.0887
    15.5733  15.8197

          k = 0.0000 0.5027 0.0000 (  5810 PWs)   bands (ev):

   -45.3797 -23.8945 -23.6052 -23.2602 -20.5983 -12.2052  -3.2013  -2.6175
    -2.5285  -2.3934  -0.6857   0.5226   3.3820   6.2894   6.8135   7.3778
     8.0147   9.2420   9.8940  10.9859  11.8682  12.4226  13.0891  14.5387
    14.8756  15.3949

          k = 0.0000-0.5745 0.0000 (  5834 PWs)   bands (ev):

   -45.3775 -23.9143 -23.5991 -23.2647 -20.5981 -12.1672  -3.2327  -2.6566
    -2.5326  -2.4463  -0.6708   0.4958   3.3708   6.4117   6.7762   7.4149
     8.1352   9.6018   9.9439  11.1360  11.5195  12.3412  13.2540  14.0695
    14.6963  15.2258

          k = 0.0625 0.0359 0.0000 (  5791 PWs)   bands (ev):

   -45.4327 -23.8953 -23.1780 -23.1553 -20.6889 -12.9860  -3.1417  -2.5241
    -2.4926  -1.1380   1.1148   1.2799   3.7729   5.7271   5.8213   5.9601
     6.6983   6.7970   8.0290   8.9617  11.2429  14.0189  14.2816  14.7645
    15.1544  17.4120

          k = 0.0625 0.1077 0.0000 (  5776 PWs)   bands (ev):

   -45.4286 -23.8793 -23.2378 -23.1614 -20.6741 -12.9320  -3.0790  -2.5937
    -2.4865  -1.1009   0.7185   1.2116   3.7878   5.6239   5.9426   6.0600
     6.7072   6.8978   8.2578   9.3054  11.5113  13.7478  14.0602  14.9029
    15.1591  17.5028

          k = 0.0625 0.1795 0.0000 (  5782 PWs)   bands (ev):

   -45.4208 -23.8504 -23.3375 -23.1788 -20.6509 -12.8292  -2.9738  -2.6942
    -2.4887  -1.0482   0.1097   1.0598   3.7781   5.5491   6.1240   6.1653
     6.8794   7.0898   8.6575   9.7778  11.9888  13.2184  13.7435  15.0623
    15.7281  17.0965

          k = 0.0625 0.2513 0.0000 (  5795 PWs)   bands (ev):

   -45.4107 -23.8161 -23.4560 -23.2026 -20.6276 -12.6886  -2.8990  -2.7587
    -2.4977  -1.0366  -0.5300   0.8721   3.7111   5.5884   6.1943   6.4965
     7.1355   7.3865   9.1334  10.2283  12.1360  13.0438  13.5546  15.5193
    16.4074  16.6667

          k = 0.0625 0.3231 0.0000 (  5822 PWs)   bands (ev):

   -45.3997 -23.7932 -23.5619 -23.2285 -20.6102 -12.5272  -2.9716  -2.6847
    -2.5134  -1.3823  -0.7811   0.6846   3.6093   5.7508   6.3465   6.8698
     7.3634   7.8284   9.5650  10.5997  11.8910  12.6988  14.3445  15.4064
    16.0463  16.4813

          k = 0.0625 0.3950 0.0000 (  5829 PWs)   bands (ev):

   -45.3895 -23.8137 -23.6116 -23.2523 -20.6003 -12.3685  -3.0667  -2.6133
    -2.5361  -1.8973  -0.7506   0.5232   3.5226   5.9810   6.5595   7.1561
     7.5985   8.4123   9.8304  10.8637  11.8534  12.5100  14.2397  14.9550
    15.5921  16.3981

          k = 0.0625 0.4668 0.0000 (  5819 PWs)   bands (ev):

   -45.3817 -23.8662 -23.6090 -23.2706 -20.5965 -12.2397  -3.1467  -2.6164
    -2.5484  -2.2443  -0.7040   0.4061   3.4749   6.2221   6.7308   7.3006
     7.8255   9.1108   9.9527  11.0366  11.9587  12.5220  13.2558  14.6523
    15.0448  15.7528

          k = 0.0625 0.5386 0.0000 (  5820 PWs)   bands (ev):

   -45.3774 -23.9021 -23.5987 -23.2805 -20.5957 -12.1671  -3.1982  -2.6856
    -2.5426  -2.3705  -0.6759   0.3449   3.4586   6.4096   6.7743   7.3496
     7.9807   9.7079  10.0716  11.1689  11.7066  12.3751  13.1717  14.1536
    14.7328  15.2353

          k = 0.1250 0.0718 0.0000 (  5797 PWs)   bands (ev):

   -45.4264 -23.8715 -23.2617 -23.1694 -20.6678 -12.9044  -3.0508  -2.6155
    -2.4946  -1.0844   0.5524   1.1663   3.7934   5.6326   5.9536   6.0619
     6.7753   6.9303   8.3672   9.4425  11.6335  13.5937  14.0224  15.0025
    15.1625  17.5492

          k = 0.1250 0.1436 0.0000 (  5787 PWs)   bands (ev):

   -45.4207 -23.8501 -23.3347 -23.1825 -20.6511 -12.8280  -2.9739  -2.6896
    -2.4954  -1.0468   0.1223   1.0390   3.7859   5.5559   6.1117   6.1598
     6.8833   7.0859   8.6612   9.7788  11.9917  13.2269  13.7528  15.0668
    15.7045  17.0849

          k = 0.1250 0.2154 0.0000 (  5787 PWs)   bands (ev):

   -45.4121 -23.8201 -23.4319 -23.2080 -20.6304 -12.7093  -2.8771  -2.7722
    -2.5084  -1.0170  -0.4037   0.8099   3.7613   5.5171   6.2187   6.4800
     7.0255   7.3651   9.0763  10.2001  12.5466  12.8137  13.3467  15.3354
    16.3408  16.6309

          k = 0.1250 0.2872 0.0000 (  5800 PWs)   bands (ev):

   -45.4019 -23.7924 -23.5304 -23.2404 -20.6119 -12.5619  -2.9046  -2.7296
    -2.5324  -1.1765  -0.7648   0.5469   3.7199   5.5987   6.3312   6.8178
     7.2635   7.7640   9.5170  10.6337  12.3677  12.8332  13.5111  15.3128
    16.1035  16.5691

          k = 0.1250 0.3590 0.0000 (  5812 PWs)   bands (ev):

   -45.3917 -23.7906 -23.5962 -23.2738 -20.5991 -12.4057  -2.9923  -2.6408
    -2.5670  -1.6349  -0.7735   0.3026   3.6810   5.8141   6.4548   7.0332
     7.5421   8.3545   9.8808  11.0332  12.1291  12.6001  14.2961  14.6801
    15.3766  16.4209

          k = 0.1250 0.4309 0.0000 (  5824 PWs)   bands (ev):

   -45.3831 -23.8287 -23.6078 -23.3026 -20.5924 -12.2652  -3.0669  -2.6393
    -2.5695  -2.0167  -0.7287   0.1079   3.6643   6.1157   6.5638   7.1778
     7.7117   9.1164  10.1062  11.3274  12.0888  12.5615  13.6884  14.4008
    15.1421  16.2367

          k = 0.1250 0.5027 0.0000 (  5816 PWs)   bands (ev):

   -45.3773 -23.8700 -23.5974 -23.3219 -20.5898 -12.1667  -3.1184  -2.7248
    -2.5444  -2.2146  -0.6918  -0.0173   3.6671   6.3928   6.6531   7.2630
     7.7598   9.8766  10.2819  11.4557  12.0467  12.5127  13.0813  14.1606
    14.7910  15.5527

          k = 0.1250 0.5745 0.0000 (  5816 PWs)   bands (ev):

   -45.3753 -23.8861 -23.5918 -23.3288 -20.5893 -12.1312  -3.1377  -2.7710
    -2.5378  -2.2651  -0.6779  -0.0606   3.6715   6.4896   6.7227   7.2692
     7.7680  10.0939  10.6390  11.5496  11.6245  12.3851  13.2208  14.0043
    14.7642  15.0571

          k = 0.1250 0.0000 0.0000 (  5790 PWs)   bands (ev):

   -45.4284 -23.8791 -23.2327 -23.1675 -20.6743 -12.9308  -3.0789  -2.5834
    -2.4990  -1.0998   0.7379   1.1857   3.7939   5.6630   5.8933   6.0608
     6.6933   6.9090   8.2623   9.3077  11.5148  13.7650  14.0666  14.8884
    15.1366  17.5046

          k = 0.1875 0.1077 0.0000 (  5803 PWs)   bands (ev):

   -45.4169 -23.8373 -23.3799 -23.1898 -20.6426 -12.7775  -2.9417  -2.7199
    -2.4987  -1.0320  -0.1499   1.0085   3.7596   5.6025   6.1106   6.2019
     7.0891   7.1094   8.8343   9.9337  12.0098  13.2243  13.6563  15.3625
    15.8104  17.2200

          k = 0.1875 0.1795 0.0000 (  5812 PWs)   bands (ev):

   -45.4103 -23.8154 -23.4525 -23.2086 -20.6281 -12.6854  -2.8979  -2.7547
    -2.5080  -1.0311  -0.5171   0.8388   3.7287   5.5899   6.1850   6.4829
     7.1351   7.3870   9.1407  10.2277  12.1331  13.0617  13.5779  15.5320
    16.3776  16.6561

          k = 0.1875 0.2513 0.0000 (  5800 PWs)   bands (ev):

   -45.4017 -23.7919 -23.5288 -23.2436 -20.6121 -12.5599  -2.9026  -2.7300
    -2.5371  -1.1704  -0.7615   0.5292   3.7300   5.5966   6.3253   6.8157
     7.2605   7.7662   9.5206  10.6321  12.3598  12.8394  13.5358  15.3117
    16.1212  16.5778

          k = 0.1875 0.3231 0.0000 (  5826 PWs)   bands (ev):

   -45.3924 -23.7823 -23.5852 -23.2884 -20.5986 -12.4171  -2.9522  -2.6650
    -2.5789  -1.5023  -0.7855   0.1702   3.7668   5.6900   6.5009   6.9239
     7.5410   8.3423   9.9022  11.0978  12.4636  12.6893  13.7854  14.5822
    15.7166  16.1809

          k = 0.1875 0.3950 0.0000 (  5821 PWs)   bands (ev):

   -45.3837 -23.8011 -23.6026 -23.3336 -20.5893 -12.2777  -3.0064  -2.6651
    -2.5779  -1.8164  -0.7580  -0.1539   3.8267   5.8968   6.6261   6.9903
     7.7167   9.1260  10.2155  11.5523  12.3617  12.6770  13.8726  14.4150
    14.7856  15.8415

          k = 0.1875 0.4668 0.0000 (  5819 PWs)   bands (ev):

   -45.3771 -23.8327 -23.5949 -23.3701 -20.5842 -12.1656  -3.0501  -2.7368
    -2.5418  -2.0245  -0.7310  -0.3903   3.8902   6.1893   6.6263   7.1492
     7.7063   9.9764  10.4197  11.8483  12.2781  12.7810  13.3106  14.0614
    14.8338  15.6666

          k = 0.1875 0.5386 0.0000 (  5818 PWs)   bands (ev):

   -45.3735 -23.8533 -23.5859 -23.3905 -20.5821 -12.1029  -3.0746  -2.7957
    -2.5249  -2.1155  -0.7177  -0.5117   3.9323   6.4429   6.6050   7.2751
     7.5940  10.3039  11.0110  11.8741  12.0730  12.5260  13.2388  14.1111
    14.6574  15.2782

          k = 0.1875-0.0359 0.0000 (  5799 PWs)   bands (ev):

   -45.4205 -23.8498 -23.3327 -23.1858 -20.6514 -12.8261  -2.9738  -2.6853
    -2.5029  -1.0451   0.1243   1.0308   3.7922   5.5736   6.1155   6.1258
     6.8660   7.1030   8.6661   9.7795  11.9943  13.2232  13.7574  15.0633
    15.6972  17.0971

          k = 0.2500 0.1436 0.0000 (  5819 PWs)   bands (ev):

   -45.4057 -23.8038 -23.5040 -23.2135 -20.6213 -12.6195  -2.9361  -2.7231
    -2.5077  -1.1306  -0.7108   0.8366   3.6571   5.6881   6.2654   6.5441
     7.2877   7.5207   9.3172  10.3359  11.8694  12.9027  14.1142  15.8604
    16.4190  16.6030

          k = 0.2500 0.2154 0.0000 (  5824 PWs)   bands (ev):

   -45.3991 -23.7917 -23.5587 -23.2361 -20.6110 -12.5215  -2.9681  -2.6845
    -2.5261  -1.3704  -0.7747   0.6436   3.6334   5.7479   6.3367   6.8569
     7.3578   7.8350   9.5742  10.5942  11.8900  12.7193  14.3837  15.4396
    16.0566  16.4774

          k = 0.2500 0.2872 0.0000 (  5828 PWs)   bands (ev):

   -45.3913 -23.7891 -23.5943 -23.2795 -20.5998 -12.4012  -2.9892  -2.6446
    -2.5728  -1.6265  -0.7690   0.2734   3.6985   5.8106   6.4450   7.0313
     7.5365   8.3597   9.8859  11.0265  12.1252  12.6106  14.3267  14.7074
    15.3998  16.4214

          k = 0.2500 0.3590 0.0000 (  5825 PWs)   bands (ev):

   -45.3835 -23.8001 -23.6018 -23.3366 -20.5897 -12.2752  -3.0048  -2.6701
    -2.5776  -1.8129  -0.7562  -0.1673   3.8351   5.8957   6.6181   6.9932
     7.7143   9.1286  10.2173  11.5480  12.3630  12.6687  13.8783  14.4514
    14.8060  15.8170

          k = 0.2500 0.4309 0.0000 (  5832 PWs)   bands (ev):

   -45.3769 -23.8145 -23.5928 -23.3946 -20.5821 -12.1635  -3.0271  -2.7360
    -2.5405  -1.9138  -0.7924  -0.5336   3.9980   6.0471   6.6753   7.0593
     7.7202  10.0053  10.4803  11.8956  12.4082  13.0242  13.6282  14.1418
    14.5865  15.1571

          k = 0.2500 0.5027 0.0000 (  5799 PWs)   bands (ev):

   -45.3724 -23.8229 -23.5821 -23.4387 -20.5775 -12.0861  -3.0594  -2.7666
    -2.5129  -1.9501  -0.9779  -0.6419   4.1305   6.2617   6.5961   7.2261
     7.5940  10.4232  11.0283  11.8476  12.6887  13.1808  13.3422  13.9525
    14.5583  15.1318

          k = 0.2500 0.5745 0.0000 (  5800 PWs)   bands (ev):

   -45.3709 -23.8253 -23.5779 -23.4553 -20.5760 -12.0584  -3.0761  -2.7713
    -2.5029  -1.9558  -1.0791  -0.6511   4.1815   6.4037   6.5385   7.2725
     7.5254  10.3951  11.7578  11.9833  12.0229  13.1557  13.5509  13.9965
    14.5801  15.1983

          k = 0.2500-0.0718 0.0000 (  5816 PWs)   bands (ev):

   -45.4101 -23.8151 -23.4523 -23.2101 -20.6285 -12.6830  -2.8980  -2.7538
    -2.5128  -1.0300  -0.5224   0.8410   3.7316   5.5963   6.1864   6.4661
     7.1301   7.3942   9.1444  10.2274  12.1314  13.0579  13.5664  15.5293
    16.3954  16.6769

          k = 0.2500 0.0000 0.0000 (  5800 PWs)   bands (ev):

   -45.4117 -23.8194 -23.4301 -23.2126 -20.6311 -12.7050  -2.8771  -2.7686
    -2.5191  -1.0132  -0.4056   0.7997   3.7725   5.5283   6.2085   6.4573
     7.0190   7.3745   9.0844  10.1999  12.5485  12.7996  13.3509  15.3418
    16.3475  16.6441

          k = 0.3125 0.1795 0.0000 (  5829 PWs)   bands (ev):

   -45.3945 -23.7970 -23.5933 -23.2372 -20.6078 -12.4512  -3.0304  -2.6453
    -2.5212  -1.6551  -0.7647   0.6778   3.5381   5.8523   6.5250   6.9301
     7.4811   8.0204   9.6726  10.6128  11.7492  12.5873  14.7322  15.2094
    16.2825  16.3832

          k = 0.3125 0.2513 0.0000 (  5831 PWs)   bands (ev):

   -45.3887 -23.8110 -23.6094 -23.2612 -20.6016 -12.3600  -3.0630  -2.6160
    -2.5496  -1.8900  -0.7420   0.4778   3.5493   5.9741   6.5536   7.1446
     7.5924   8.4222   9.8384  10.8520  11.8615  12.5341  14.2857  14.9834
    15.5961  16.4167

          k = 0.3125 0.3231 0.0000 (  5828 PWs)   bands (ev):

   -45.3824 -23.8262 -23.6062 -23.3099 -20.5934 -12.2580  -3.0634  -2.6504
    -2.5708  -2.0128  -0.7215   0.0730   3.6851   6.1115   6.5549   7.1749
     7.7072   9.1239  10.1107  11.3113  12.0944  12.5781  13.7263  14.4061
    15.1784  16.2578

          k = 0.3125 0.3950 0.0000 (  5825 PWs)   bands (ev):

   -45.3766 -23.8309 -23.5938 -23.3752 -20.5849 -12.1604  -3.0482  -2.7429
    -2.5431  -2.0230  -0.7290  -0.4090   3.9031   6.1907   6.6165   7.1501
     7.7031   9.9839  10.4225  11.8369  12.2717  12.7833  13.3474  14.0545
    14.8701  15.6427

          k = 0.3125 0.4668 0.0000 (  5821 PWs)   bands (ev):

   -45.3722 -23.8221 -23.5816 -23.4411 -20.5779 -12.0834  -3.0597  -2.7686
    -2.5138  -1.9496  -0.9868  -0.6399   4.1352   6.2647   6.5927   7.2256
     7.5914  10.4302  11.0295  11.8446  12.6992  13.1757  13.3465  13.9259
    14.5731  15.1401

          k = 0.3125 0.5386 0.0000 (  5801 PWs)   bands (ev):

   -45.3698 -23.8095 -23.5749 -23.4850 -20.5740 -12.0409  -3.0885  -2.7442
    -2.4917  -1.8100  -1.3561  -0.6553   4.2917   6.3593   6.5251   7.2060
     7.5678  10.4031  11.7607  11.9345  12.7840  12.9907  13.7545  13.8933
    14.6858  15.3081

          k = 0.3125-0.1077 0.0000 (  5822 PWs)   bands (ev):

   -45.3989 -23.7916 -23.5592 -23.2366 -20.6115 -12.5191  -2.9692  -2.6840
    -2.5299  -1.3765  -0.7750   0.6502   3.6323   5.7472   6.3381   6.8556
     7.3605   7.8339   9.5772  10.5932  11.8870  12.7173  14.3596  15.4413
    16.0583  16.4887

          k = 0.3125-0.0359 0.0000 (  5801 PWs)   bands (ev):

   -45.4013 -23.7914 -23.5290 -23.2459 -20.6131 -12.5551  -2.9032  -2.7296
    -2.5452  -1.1762  -0.7640   0.5336   3.7336   5.6013   6.3153   6.8128
     7.2628   7.7672   9.5268  10.6314  12.3511  12.8373  13.5109  15.3262
    16.1327  16.5882

          k = 0.3750 0.2154 0.0000 (  5838 PWs)   bands (ev):

   -45.3849 -23.8410 -23.6137 -23.2571 -20.6017 -12.2992  -3.1235  -2.6014
    -2.5359  -2.1339  -0.7148   0.5521   3.4522   6.0596   6.7495   7.2304
     7.7371   8.6109   9.8219  10.8173  11.8651  12.5178  13.7273  15.1224
    15.6206  15.7674

          k = 0.3750 0.2872 0.0000 (  5825 PWs)   bands (ev):

   -45.3807 -23.8632 -23.6072 -23.2802 -20.5981 -12.2288  -3.1425  -2.6253
    -2.5576  -2.2443  -0.6928   0.3590   3.5019   6.2093   6.7308   7.2892
     7.8255   9.1209   9.9599  11.0245  11.9790  12.5550  13.2868  14.6668
    15.0711  15.7453

          k = 0.3750 0.3590 0.0000 (  5815 PWs)   bands (ev):

   -45.3764 -23.8675 -23.5959 -23.3302 -20.5913 -12.1570  -3.1146  -2.7350
    -2.5481  -2.2176  -0.6824  -0.0535   3.6884   6.3811   6.6545   7.2559
     7.7606   9.8872  10.2869  11.4338  12.0707  12.5445  13.0946  14.1672
    14.8197  15.5660

          k = 0.3750 0.4309 0.0000 (  5803 PWs)   bands (ev):

   -45.3728 -23.8515 -23.5846 -23.3966 -20.5832 -12.0951  -3.0735  -2.8028
    -2.5273  -2.1186  -0.7191  -0.5262   3.9456   6.4416   6.6036   7.2689
     7.5942  10.3197  11.0155  11.8755  12.0762  12.5237  13.2487  14.1185
    14.6710  15.3024

          k = 0.3750 0.5027 0.0000 (  5806 PWs)   bands (ev):

   -45.3704 -23.8245 -23.5770 -23.4588 -20.5768 -12.0533  -3.0777  -2.7754
    -2.5045  -1.9593  -1.0897  -0.6457   4.1863   6.4068   6.5392   7.2721
     7.5203  10.4109  11.7529  12.0017  12.0470  13.1100  13.5407  13.9905
    14.5952  15.2125

          k = 0.3750 0.5745 0.0000 (  5816 PWs)   bands (ev):

   -45.3696 -23.8096 -23.5746 -23.4860 -20.5744 -12.0385  -3.0898  -2.7467
    -2.4923  -1.8170  -1.3540  -0.6527   4.2914   6.3599   6.5273   7.2086
     7.5644  10.4123  11.7529  11.9746  12.7631  12.9879  13.7065  13.9139
    14.6968  15.3160

          k = 0.3750-0.1436 0.0000 (  5833 PWs)   bands (ev):

   -45.3885 -23.8115 -23.6097 -23.2611 -20.6020 -12.3578  -3.0646  -2.6153
    -2.5532  -1.8964  -0.7412   0.4852   3.5461   5.9714   6.5504   7.1516
     7.5988   8.4208   9.8435  10.8498  11.8603  12.5335  14.2782  14.9695
    15.6117  16.4027

          k = 0.3750-0.0718 0.0000 (  5816 PWs)   bands (ev):

   -45.3909 -23.7894 -23.5949 -23.2802 -20.6007 -12.3964  -2.9916  -2.6432
    -2.5806  -1.6394  -0.7674   0.2845   3.6958   5.8105   6.4402   7.0334
     7.5478   8.3597   9.8931  11.0253  12.1189  12.6072  14.2991  14.7034
    15.3947  16.4376

          k = 0.3750 0.0000 0.0000 (  5820 PWs)   bands (ev):

   -45.3917 -23.7819 -23.5853 -23.2915 -20.5999 -12.4099  -2.9534  -2.6662
    -2.5890  -1.5148  -0.7825   0.1731   3.7708   5.6920   6.4846   6.9297
     7.5504   8.3448   9.9118  11.0967  12.4596  12.6695  13.7702  14.5940
    15.7251  16.2009

          k = 0.4375 0.2513 0.0000 (  5814 PWs)   bands (ev):

   -45.3785 -23.8918 -23.6033 -23.2704 -20.6002 -12.1921  -3.1969  -2.6228
    -2.5475  -2.3944  -0.6725   0.4721   3.4101   6.2752   6.8071   7.3684
     8.0223   9.2528   9.9056  10.9821  11.8990  12.4602  13.1065  14.5720
    14.9162  15.3345

          k = 0.4375 0.3231 0.0000 (  5816 PWs)   bands (ev):

   -45.3763 -23.8994 -23.5969 -23.2904 -20.5975 -12.1543  -3.1934  -2.6956
    -2.5519  -2.3762  -0.6630   0.2981   3.4848   6.3925   6.7736   7.3399
     7.9896   9.7166  10.0789  11.1672  11.7447  12.4039  13.1829  14.1809
    14.7669  15.1981

          k = 0.4375 0.3950 0.0000 (  5814 PWs)   bands (ev):

   -45.3742 -23.8840 -23.5902 -23.3372 -20.5910 -12.1197  -3.1343  -2.7827
    -2.5422  -2.2722  -0.6675  -0.0945   3.6914   6.4762   6.7219   7.2614
     7.7767  10.1111  10.6448  11.5438  11.6475  12.4021  13.2286  14.0270
    14.7850  15.0565

          k = 0.4375 0.4668 0.0000 (  5809 PWs)   bands (ev):

   -45.3727 -23.8521 -23.5846 -23.3965 -20.5835 -12.0935  -3.0743  -2.8060
    -2.5275  -2.1226  -0.7191  -0.5211   3.9434   6.4396   6.6045   7.2634
     7.6041  10.3263  11.0439  11.8663  12.0586  12.5181  13.2508  14.1218
    14.6677  15.2888

          k = 0.4375 0.5386 0.0000 (  5810 PWs)   bands (ev):

   -45.3719 -23.8230 -23.5813 -23.4418 -20.5787 -12.0794  -3.0615  -2.7745
    -2.5145  -1.9609  -0.9821  -0.6342   4.1323   6.2636   6.5978   7.2185
     7.6010  10.4441  11.0674  11.8299  12.7028  13.1534  13.3200  13.9421
    14.5720  15.1290

          k = 0.4375-0.1795 0.0000 (  5825 PWs)   bands (ev):

   -45.3805 -23.8639 -23.6072 -23.2800 -20.5984 -12.2272  -3.1439  -2.6275
    -2.5580  -2.2477  -0.6922   0.3645   3.4989   6.2103   6.7190   7.2965
     7.8332   9.1244   9.9684  11.0218  11.9767  12.5563  13.2805  14.6604
    15.0740  15.7428

          k = 0.4375-0.1077 0.0000 (  5825 PWs)   bands (ev):

   -45.3821 -23.8274 -23.6063 -23.3098 -20.5942 -12.2541  -3.0661  -2.6543
    -2.5727  -2.0230  -0.7201   0.0842   3.6801   6.1086   6.5526   7.1726
     7.7242   9.1299  10.1249  11.3077  12.0901  12.5778  13.7128  14.4053
    15.1635  16.2462

          k = 0.4375-0.0359 0.0000 (  5828 PWs)   bands (ev):

   -45.3829 -23.8011 -23.6019 -23.3377 -20.5909 -12.2687  -3.0075  -2.6769
    -2.5806  -1.8291  -0.7534  -0.1557   3.8320   5.8966   6.6144   6.9881
     7.7317   9.1381  10.2330  11.5476  12.3650  12.6479  13.8785  14.4210
    14.7947  15.8326

          k =-0.5000-0.2872 0.0000 (  5826 PWs)   bands (ev):

   -45.3762 -23.9116 -23.5972 -23.2750 -20.6001 -12.1533  -3.2277  -2.6632
    -2.5519  -2.4483  -0.6568   0.4448   3.3990   6.3954   6.7700   7.4052
     8.1477   9.6113   9.9516  11.1470  11.5543  12.3699  13.2689  14.1016
    14.7371  15.1618

          k =-0.5000-0.2154 0.0000 (  5818 PWs)   bands (ev):

   -45.3762 -23.8997 -23.5969 -23.2903 -20.5976 -12.1538  -3.1940  -2.6969
    -2.5517  -2.3771  -0.6629   0.3001   3.4836   6.3959   6.7640   7.3438
     7.9923   9.7223  10.0819  11.1684  11.7374  12.4039  13.1853  14.1771
    14.7593  15.2045

          k =-0.5000-0.1436 0.0000 (  5816 PWs)   bands (ev):

   -45.3762 -23.8684 -23.5958 -23.3299 -20.5917 -12.1548  -3.1164  -2.7390
    -2.5482  -2.2222  -0.6818  -0.0466   3.6848   6.3848   6.6426   7.2556
     7.7736   9.8957  10.3059  11.4309  12.0563  12.5437  13.0918  14.1665
    14.8104  15.5625

          k =-0.5000-0.0718 0.0000 (  5811 PWs)   bands (ev):

   -45.3762 -23.8323 -23.5937 -23.3753 -20.5858 -12.1559  -3.0505  -2.7499
    -2.5440  -2.0347  -0.7279  -0.3971   3.8982   6.1882   6.6211   7.1377
     7.7223   9.9958  10.4510  11.8315  12.2673  12.7717  13.3305  14.0612
    14.8509  15.6362

          k =-0.5000-0.0000 0.0000 (  5842 PWs)   bands (ev):

   -45.3763 -23.8154 -23.5922 -23.3967 -20.5834 -12.1563  -3.0293  -2.7460
    -2.5421  -1.9293  -0.7910  -0.5238   3.9967   6.0485   6.6785   7.0452
     7.7372  10.0221  10.5115  11.8837  12.4232  12.9804  13.6279  14.1343
    14.5826  15.1511

     highest occupied, lowest unoccupied level (ev):     4.2917    5.5171

!    total energy              =    -571.23457719 Ry
     total all-electron energy =    -12610.611989 Ry
     estimated scf accuracy    <          2.3E-11 Ry

     The total energy is the sum of the following terms:
     one-electron contribution =    -278.11138834 Ry
     hartree contribution      =     147.54331467 Ry
     xc contribution           =     -36.34772346 Ry
     ewald contribution        =      -7.46373415 Ry
     one-center paw contrib.   =    -396.85504592 Ry

     convergence has been achieved in   6 iterations

     negative rho (up, down):  3.149E-05 0.000E+00

     Forces acting on atoms (cartesian axes, Ry/au):

     atom    1 type  1   force =     0.00000000   -0.00124695   -0.00007677
     atom    2 type  2   force =     0.00000000    0.00061151   -0.00008828
     atom    3 type  3   force =     0.00000000    0.00063543    0.00016505
     The non-local contrib.  to forces
     atom    1 type  1   force =     0.00000000    0.00005778   -0.02468761
     atom    2 type  2   force =     0.00000000    0.00405213   -0.99280369
     atom    3 type  3   force =     0.00000000    0.00068040    0.21115234
     The ionic contribution  to forces
     atom    1 type  1   force =    -0.00000001    0.02540597   -0.53987565
     atom    2 type  2   force =     0.00000001   -0.01697869   24.50067346
     atom    3 type  3   force =     0.00000000   -0.00842727  -23.96079781
     The local contribution  to forces
     atom    1 type  1   force =    -0.00000000   -0.02667165    0.56034805
     atom    2 type  2   force =     0.00000027    0.01355472  -23.51118631
     atom    3 type  3   force =    -0.00000000    0.00839049   23.75247795
     The core correction contribution to forces
     atom    1 type  1   force =    -0.00000000   -0.00003939    0.00412937
     atom    2 type  2   force =     0.00000000   -0.00001661    0.00322436
     atom    3 type  3   force =    -0.00000000   -0.00000848   -0.00267340
     The Hubbard contrib.    to forces
     atom    1 type  1   force =     0.00000000    0.00000000    0.00000000
     atom    2 type  2   force =     0.00000000    0.00000000    0.00000000
     atom    3 type  3   force =     0.00000000    0.00000000    0.00000000
     The SCF correction term to forces
     atom    1 type  1   force =     0.00000000    0.00000041    0.00000477
     atom    2 type  2   force =     0.00000000    0.00000002   -0.00000039
     atom    3 type  3   force =    -0.00000000    0.00000037    0.00000167

     Total force =     0.001541     Total SCF correction =     0.000005
     Energy error            =      6.7E-06 Ry
     Gradient error          =      1.2E-03 Ry/Bohr

     number of scf cycles    =   3
     number of bfgs steps    =   2

     energy             old  =    -571.2345705332 Ry
     energy             new  =    -571.2345771884 Ry

     CASE: energy            _new < energy            _old

     new trust radius        =       0.0041945431 bohr
     new conv_thr            =            1.0E-10 Ry


ATOMIC_POSITIONS (angstrom)
Zr           -0.0000000000       -0.0048980832       10.1026670025
F            -0.0000000020        1.9331254477       11.4065137468
Br           -0.0000000020        1.9335803987        8.2089979637



     Writing config-only to output data dir ./tmp/ZrFBr.save/
     NEW-OLD atomic charge density approx. for the potential

     Check: negative core charge=   -0.000002

     negative rho (up, down):  3.166E-05 0.000E+00

     total cpu time spent up to now is       34.7 secs

     Self-consistent Calculation

     iteration #  1     ecut=    65.00 Ry     beta= 0.70
     Davidson diagonalization with overlap
     ethr =  1.00E-06,  avg # of iterations =  3.0

     Threshold (ethr) on eigenvalues was too large:
     Diagonalizing with lowered threshold

     Davidson diagonalization with overlap
     ethr =  2.70E-09,  avg # of iterations =  3.9

     negative rho (up, down):  3.158E-05 0.000E+00

     total cpu time spent up to now is       38.2 secs

     total energy              =    -571.23458197 Ry
     estimated scf accuracy    <       0.00000073 Ry

     iteration #  2     ecut=    65.00 Ry     beta= 0.70
     Davidson diagonalization with overlap
     ethr =  2.81E-09,  avg # of iterations =  2.0

     negative rho (up, down):  3.152E-05 0.000E+00

     total cpu time spent up to now is       39.5 secs

     total energy              =    -571.23458195 Ry
     estimated scf accuracy    <       0.00000046 Ry

     iteration #  3     ecut=    65.00 Ry     beta= 0.70
     Davidson diagonalization with overlap
     ethr =  1.77E-09,  avg # of iterations =  1.9

     negative rho (up, down):  3.152E-05 0.000E+00

     total cpu time spent up to now is       40.9 secs

     total energy              =    -571.23458208 Ry
     estimated scf accuracy    <       0.00000038 Ry

     iteration #  4     ecut=    65.00 Ry     beta= 0.70
     Davidson diagonalization with overlap
     ethr =  1.46E-09,  avg # of iterations =  1.0

     negative rho (up, down):  3.152E-05 0.000E+00

     total cpu time spent up to now is       42.1 secs

     total energy              =    -571.23458215 Ry
     estimated scf accuracy    <          1.7E-09 Ry

     iteration #  5     ecut=    65.00 Ry     beta= 0.70
     Davidson diagonalization with overlap
     ethr =  6.55E-12,  avg # of iterations =  2.0

     negative rho (up, down):  3.151E-05 0.000E+00

     total cpu time spent up to now is       43.5 secs

     total energy              =    -571.23458215 Ry
     estimated scf accuracy    <          7.0E-10 Ry

     iteration #  6     ecut=    65.00 Ry     beta= 0.70
     Davidson diagonalization with overlap
     ethr =  2.71E-12,  avg # of iterations =  2.0

     negative rho (up, down):  3.151E-05 0.000E+00

     total cpu time spent up to now is       44.8 secs

     End of self-consistent calculation

          k = 0.0000 0.0000 0.0000 (  5811 PWs)   bands (ev):

   -45.4345 -23.9033 -23.1526 -23.1446 -20.6962 -13.0157  -3.1754  -2.4952
    -2.4824  -1.1606   1.3083   1.3458   3.7569   5.7542   5.8165   5.8629
     6.7368   6.7554   7.9028   8.7385  11.1072  13.9611  14.6063  14.6937
    15.2770  17.1882

          k = 0.0000 0.0718 0.0000 (  5772 PWs)   bands (ev):

   -45.4323 -23.8949 -23.1829 -23.1492 -20.6878 -12.9881  -3.1416  -2.5311
    -2.4821  -1.1387   1.0861   1.3059   3.7715   5.6933   5.8599   5.9595
     6.6911   6.8059   8.0266   8.9594  11.2407  14.0182  14.2375  14.8265
    15.1482  17.3904

          k = 0.0000 0.1436 0.0000 (  5780 PWs)   bands (ev):

   -45.4261 -23.8713 -23.2665 -23.1624 -20.6667 -12.9077  -3.0509  -2.6224
    -2.4823  -1.0864   0.5270   1.1965   3.7860   5.6028   5.9973   6.0604
     6.7718   6.9383   8.3608   9.4383  11.6272  13.5756  14.0082  14.9917
    15.2210  17.5985

          k = 0.0000 0.2154 0.0000 (  5814 PWs)   bands (ev):

   -45.4168 -23.8376 -23.3838 -23.1820 -20.6414 -12.7827  -2.9420  -2.7253
    -2.4855  -1.0365  -0.1695   1.0428   3.7443   5.5886   6.1097   6.2383
     7.0906   7.1127   8.8242   9.9307  12.0048  13.2091  13.6368  15.3471
    15.8626  17.2681

          k = 0.0000 0.2872 0.0000 (  5808 PWs)   bands (ev):

   -45.4058 -23.8046 -23.5068 -23.2050 -20.6197 -12.6272  -2.9377  -2.7251
    -2.4935  -1.1419  -0.7205   0.8749   3.6365   5.6873   6.2624   6.5731
     7.2972   7.5150   9.3050  10.3366  11.8692  12.8856  14.0831  15.8313
    16.3817  16.6500

          k = 0.0000 0.3590 0.0000 (  5824 PWs)   bands (ev):

   -45.3948 -23.7984 -23.5952 -23.2279 -20.6059 -12.4616  -3.0321  -2.6450
    -2.5059  -1.6647  -0.7732   0.7197   3.5157   5.8584   6.5230   6.9486
     7.4910   8.0119   9.6605  10.6189  11.7432  12.5679  14.6837  15.1717
    16.3344  16.3460

          k = 0.0000 0.4309 0.0000 (  5838 PWs)   bands (ev):

   -45.3855 -23.8424 -23.6154 -23.2472 -20.5995 -12.3121  -3.1256  -2.5988
    -2.5197  -2.1385  -0.7258   0.5968   3.4295   6.0689   6.7506   7.2422
     7.7422   8.5992   9.8112  10.8246  11.8501  12.4922  13.6865  15.0896
    15.5758  15.8213

          k = 0.0000 0.5027 0.0000 (  5810 PWs)   bands (ev):

   -45.3792 -23.8928 -23.6052 -23.2601 -20.5977 -12.2069  -3.2000  -2.6179
    -2.5304  -2.3954  -0.6852   0.5186   3.3874   6.2858   6.8121   7.3802
     8.0172   9.2396   9.8951  10.9836  11.8698  12.4252  13.0878  14.5424
    14.8759  15.3959

          k = 0.0000-0.5745 0.0000 (  5834 PWs)   bands (ev):

   -45.3770 -23.9125 -23.5992 -23.2646 -20.5976 -12.1688  -3.2314  -2.6574
    -2.5345  -2.4480  -0.6701   0.4918   3.3762   6.4064   6.7769   7.4173
     8.1377   9.5964   9.9464  11.1389  11.5172  12.3427  13.2523  14.0743
    14.6968  15.2265

          k = 0.0625 0.0359 0.0000 (  5791 PWs)   bands (ev):

   -45.4322 -23.8948 -23.1777 -23.1549 -20.6878 -12.9877  -3.1414  -2.5230
    -2.4909  -1.1383   1.1112   1.2780   3.7731   5.7283   5.8215   5.9602
     6.7007   6.7933   8.0287   8.9620  11.2423  14.0180  14.2821  14.7637
    15.1568  17.4113

          k = 0.0625 0.1077 0.0000 (  5776 PWs)   bands (ev):

   -45.4281 -23.8788 -23.2372 -23.1613 -20.6732 -12.9336  -3.0788  -2.5912
    -2.4864  -1.1014   0.7171   1.2074   3.7889   5.6256   5.9402   6.0606
     6.7045   6.9014   8.2572   9.3049  11.5105  13.7470  14.0597  14.9050
    15.1606  17.5034

          k = 0.0625 0.1795 0.0000 (  5782 PWs)   bands (ev):

   -45.4203 -23.8500 -23.3366 -23.1787 -20.6501 -12.8309  -2.9739  -2.6914
    -2.4893  -1.0486   0.1086   1.0553   3.7806   5.5501   6.1214   6.1636
     6.8799   7.0930   8.6568   9.7767  11.9878  13.2176  13.7454  15.0642
    15.7284  17.0972

          k = 0.0625 0.2513 0.0000 (  5795 PWs)   bands (ev):

   -45.4102 -23.8157 -23.4550 -23.2025 -20.6269 -12.6902  -2.8986  -2.7568
    -2.4987  -1.0370  -0.5311   0.8678   3.7150   5.5887   6.1904   6.4952
     7.1393   7.3873   9.1327  10.2267  12.1347  13.0473  13.5541  15.5203
    16.4051  16.6696

          k = 0.0625 0.3231 0.0000 (  5822 PWs)   bands (ev):

   -45.3992 -23.7926 -23.5609 -23.2284 -20.6095 -12.5289  -2.9701  -2.6844
    -2.5148  -1.3834  -0.7816   0.6804   3.6141   5.7507   6.3419   6.8698
     7.3672   7.8287   9.5643  10.5974  11.8902  12.7038  14.3424  15.4077
    16.0481  16.4813

          k = 0.0625 0.3950 0.0000 (  5829 PWs)   bands (ev):

   -45.3890 -23.8125 -23.6111 -23.2523 -20.5998 -12.3702  -3.0652  -2.6134
    -2.5377  -1.8988  -0.7507   0.5192   3.5277   5.9802   6.5552   7.1577
     7.6012   8.4124   9.8299  10.8605  11.8534  12.5147  14.2384  14.9569
    15.5927  16.4007

          k = 0.0625 0.4668 0.0000 (  5819 PWs)   bands (ev):

   -45.3812 -23.8646 -23.6088 -23.2706 -20.5959 -12.2414  -3.1454  -2.6174
    -2.5495  -2.2460  -0.7038   0.4023   3.4801   6.2198   6.7280   7.3028
     7.8279   9.1100   9.9531  11.0335  11.9600  12.5258  13.2545  14.6555
    15.0432  15.7560

          k = 0.0625 0.5386 0.0000 (  5820 PWs)   bands (ev):

   -45.3769 -23.9004 -23.5987 -23.2805 -20.5951 -12.1688  -3.1968  -2.6871
    -2.5436  -2.3722  -0.6754   0.3411   3.4637   6.4052   6.7740   7.3519
     7.9829   9.7034  10.0745  11.1686  11.7068  12.3768  13.1704  14.1573
    14.7323  15.2375

          k = 0.1250 0.0718 0.0000 (  5797 PWs)   bands (ev):

   -45.4259 -23.8709 -23.2616 -23.1689 -20.6668 -12.9061  -3.0502  -2.6150
    -2.4922  -1.0849   0.5490   1.1646   3.7927   5.6325   5.9553   6.0631
     6.7767   6.9267   8.3672   9.4432  11.6329  13.5941  14.0222  15.0028
    15.1611  17.5494

          k = 0.1250 0.1436 0.0000 (  5787 PWs)   bands (ev):

   -45.4202 -23.8496 -23.3343 -23.1823 -20.6501 -12.8297  -2.9734  -2.6882
    -2.4943  -1.0475   0.1203   1.0359   3.7864   5.5566   6.1135   6.1580
     6.8823   7.0872   8.6609   9.7788  11.9913  13.2262  13.7535  15.0674
    15.7043  17.0871

          k = 0.1250 0.2154 0.0000 (  5787 PWs)   bands (ev):

   -45.4116 -23.8196 -23.4312 -23.2079 -20.6295 -12.7109  -2.8768  -2.7705
    -2.5083  -1.0178  -0.4051   0.8062   3.7632   5.5176   6.2178   6.4789
     7.0270   7.3659   9.0758  10.1995  12.5466  12.8126  13.3481  15.3363
    16.3390  16.6335

          k = 0.1250 0.2872 0.0000 (  5800 PWs)   bands (ev):

   -45.4014 -23.7919 -23.5295 -23.2404 -20.6111 -12.5636  -2.9031  -2.7293
    -2.5330  -1.1776  -0.7655   0.5433   3.7230   5.5988   6.3283   6.8190
     7.2654   7.7640   9.5164  10.6325  12.3664  12.8373  13.5099  15.3130
    16.1034  16.5710

          k = 0.1250 0.3590 0.0000 (  5812 PWs)   bands (ev):

   -45.3913 -23.7897 -23.5955 -23.2739 -20.5984 -12.4074  -2.9907  -2.6411
    -2.5679  -1.6361  -0.7740   0.2990   3.6850   5.8140   6.4506   7.0360
     7.5437   8.3543   9.8801  11.0314  12.1282  12.6042  14.2956  14.6795
    15.3788  16.4199

          k = 0.1250 0.4309 0.0000 (  5824 PWs)   bands (ev):

   -45.3826 -23.8273 -23.6074 -23.3026 -20.5917 -12.2669  -3.0653  -2.6409
    -2.5697  -2.0181  -0.7290   0.1046   3.6686   6.1154   6.5595   7.1805
     7.7135   9.1161  10.1057  11.3251  12.0890  12.5646  13.6886  14.4016
    15.1419  16.2398

          k = 0.1250 0.5027 0.0000 (  5816 PWs)   bands (ev):

   -45.3768 -23.8684 -23.5973 -23.3220 -20.5892 -12.1685  -3.1168  -2.7268
    -2.5447  -2.2160  -0.6919  -0.0205   3.6716   6.3911   6.6505   7.2650
     7.7616   9.8746  10.2834  11.4536  12.0479  12.5154  13.0797  14.1627
    14.7898  15.5566

          k = 0.1250 0.5745 0.0000 (  5816 PWs)   bands (ev):

   -45.3748 -23.8844 -23.5917 -23.3289 -20.5886 -12.1329  -3.1361  -2.7731
    -2.5381  -2.2666  -0.6780  -0.0638   3.6760   6.4862   6.7221   7.2711
     7.7697  10.0907  10.6416  11.5511  11.6227  12.3865  13.2193  14.0060
    14.7631  15.0618

          k = 0.1250 0.0000 0.0000 (  5790 PWs)   bands (ev):

   -45.4279 -23.8785 -23.2328 -23.1668 -20.6732 -12.9325  -3.0783  -2.5841
    -2.4954  -1.1002   0.7331   1.1853   3.7928   5.6612   5.8982   6.0612
     6.6968   6.9023   8.2625   9.3088  11.5142  13.7663  14.0663  14.8880
    15.1345  17.5034

          k = 0.1875 0.1077 0.0000 (  5803 PWs)   bands (ev):

   -45.4164 -23.8367 -23.3799 -23.1893 -20.6415 -12.7793  -2.9408  -2.7195
    -2.4961  -1.0330  -0.1525   1.0068   3.7578   5.6030   6.1131   6.2026
     7.0907   7.1060   8.8348   9.9348  12.0098  13.2242  13.6553  15.3619
    15.8092  17.2195

          k = 0.1875 0.1795 0.0000 (  5812 PWs)   bands (ev):

   -45.4098 -23.8148 -23.4521 -23.2083 -20.6271 -12.6871  -2.8970  -2.7540
    -2.5064  -1.0326  -0.5187   0.8363   3.7280   5.5905   6.1873   6.4822
     7.1345   7.3873   9.1408  10.2282  12.1338  13.0610  13.5766  15.5330
    16.3761  16.6582

          k = 0.1875 0.2513 0.0000 (  5800 PWs)   bands (ev):

   -45.4012 -23.7913 -23.5282 -23.2435 -20.6112 -12.5617  -2.9015  -2.7293
    -2.5365  -1.1722  -0.7622   0.5263   3.7305   5.5972   6.3259   6.8164
     7.2608   7.7659   9.5205  10.6318  12.3611  12.8392  13.5342  15.3135
    16.1199  16.5786

          k = 0.1875 0.3231 0.0000 (  5826 PWs)   bands (ev):

   -45.3919 -23.7815 -23.5846 -23.2884 -20.5978 -12.4188  -2.9509  -2.6646
    -2.5791  -1.5037  -0.7862   0.1672   3.7684   5.6905   6.4994   6.9263
     7.5421   8.3416   9.9021  11.0968  12.4646  12.6897  13.7840  14.5827
    15.7179  16.1809

          k = 0.1875 0.3950 0.0000 (  5821 PWs)   bands (ev):

   -45.3832 -23.8000 -23.6021 -23.3337 -20.5885 -12.2795  -3.0049  -2.6659
    -2.5778  -1.8175  -0.7589  -0.1566   3.8292   5.8971   6.6226   6.9936
     7.7183   9.1256  10.2152  11.5509  12.3621  12.6774  13.8734  14.4136
    14.7875  15.8419

          k = 0.1875 0.4668 0.0000 (  5819 PWs)   bands (ev):

   -45.3766 -23.8313 -23.5946 -23.3703 -20.5834 -12.1674  -3.0485  -2.7382
    -2.5417  -2.0256  -0.7322  -0.3925   3.8934   6.1897   6.6231   7.1513
     7.7079   9.9763  10.4193  11.8472  12.2781  12.7813  13.3113  14.0616
    14.8343  15.6664

          k = 0.1875 0.5386 0.0000 (  5818 PWs)   bands (ev):

   -45.3730 -23.8518 -23.5857 -23.3907 -20.5813 -12.1046  -3.0730  -2.7972
    -2.5249  -2.1167  -0.7195  -0.5132   3.9357   6.4431   6.6027   7.2764
     7.5952  10.3029  11.0120  11.8745  12.0728  12.5266  13.2370  14.1114
    14.6581  15.2809

          k = 0.1875-0.0359 0.0000 (  5799 PWs)   bands (ev):

   -45.4200 -23.8492 -23.3331 -23.1851 -20.6503 -12.8278  -2.9729  -2.6856
    -2.4995  -1.0459   0.1205   1.0301   3.7896   5.5734   6.1162   6.1304
     6.8658   7.0994   8.6671   9.7810  11.9937  13.2244  13.7561  15.0615
    15.6956  17.0953

          k = 0.2500 0.1436 0.0000 (  5819 PWs)   bands (ev):

   -45.4052 -23.8031 -23.5041 -23.2131 -20.6202 -12.6213  -2.9352  -2.7225
    -2.5050  -1.1332  -0.7118   0.8349   3.6544   5.6894   6.2673   6.5450
     7.2854   7.5218   9.3183  10.3375  11.8696  12.9016  14.1130  15.8599
    16.4194  16.6020

          k = 0.2500 0.2154 0.0000 (  5824 PWs)   bands (ev):

   -45.3986 -23.7911 -23.5585 -23.2358 -20.6099 -12.5233  -2.9673  -2.6836
    -2.5243  -1.3727  -0.7755   0.6413   3.6316   5.7489   6.3393   6.8576
     7.3567   7.8350   9.5750  10.5950  11.8906  12.7182  14.3821  15.4411
    16.0554  16.4779

          k = 0.2500 0.2872 0.0000 (  5828 PWs)   bands (ev):

   -45.3908 -23.7884 -23.5939 -23.2793 -20.5988 -12.4030  -2.9885  -2.6433
    -2.5722  -1.6281  -0.7700   0.2709   3.6976   5.8116   6.4470   7.0319
     7.5373   8.3585   9.8868  11.0262  12.1264  12.6091  14.3246  14.7085
    15.4002  16.4224

          k = 0.2500 0.3590 0.0000 (  5825 PWs)   bands (ev):

   -45.3830 -23.7993 -23.6014 -23.3365 -20.5888 -12.2770  -3.0039  -2.6695
    -2.5773  -1.8140  -0.7573  -0.1698   3.8350   5.8968   6.6193   6.9933
     7.7162   9.1276  10.2183  11.5465  12.3636  12.6669  13.8780  14.4520
    14.8066  15.8183

          k = 0.2500 0.4309 0.0000 (  5832 PWs)   bands (ev):

   -45.3764 -23.8134 -23.5924 -23.3947 -20.5812 -12.1653  -3.0260  -2.7363
    -2.5400  -1.9147  -0.7941  -0.5354   3.9990   6.0480   6.6751   7.0601
     7.7221  10.0052  10.4809  11.8928  12.4086  13.0225  13.6295  14.1423
    14.5871  15.1584

          k = 0.2500 0.5027 0.0000 (  5799 PWs)   bands (ev):

   -45.3719 -23.8217 -23.5818 -23.4388 -20.5767 -12.0880  -3.0584  -2.7669
    -2.5125  -1.9512  -0.9807  -0.6425   4.1322   6.2625   6.5952   7.2269
     7.5952  10.4237  11.0282  11.8464  12.6895  13.1813  13.3396  13.9519
    14.5609  15.1320

          k = 0.2500 0.5745 0.0000 (  5800 PWs)   bands (ev):

   -45.3704 -23.8240 -23.5775 -23.4555 -20.5752 -12.0603  -3.0752  -2.7715
    -2.5026  -1.9568  -1.0820  -0.6515   4.1835   6.4047   6.5376   7.2732
     7.5260  10.3951  11.7584  11.9848  12.0217  13.1546  13.5495  13.9949
    14.5824  15.1988

          k = 0.2500-0.0718 0.0000 (  5816 PWs)   bands (ev):

   -45.4096 -23.8144 -23.4528 -23.2094 -20.6273 -12.6849  -2.8969  -2.7535
    -2.5095  -1.0319  -0.5247   0.8399   3.7280   5.5973   6.1879   6.4685
     7.1268   7.3951   9.1461  10.2291  12.1313  13.0573  13.5652  15.5268
    16.3973  16.6725

          k = 0.2500 0.0000 0.0000 (  5800 PWs)   bands (ev):

   -45.4111 -23.8188 -23.4306 -23.2118 -20.6299 -12.7068  -2.8760  -2.7685
    -2.5156  -1.0147  -0.4085   0.7990   3.7685   5.5290   6.2114   6.4594
     7.0154   7.3749   9.0864  10.2016  12.5473  12.8008  13.3491  15.3389
    16.3499  16.6389

          k = 0.3125 0.1795 0.0000 (  5829 PWs)   bands (ev):

   -45.3939 -23.7965 -23.5933 -23.2367 -20.6066 -12.4531  -3.0296  -2.6443
    -2.5185  -1.6575  -0.7658   0.6761   3.5350   5.8544   6.5266   6.9308
     7.4791   8.0218   9.6740  10.6146  11.7491  12.5858  14.7344  15.2063
    16.2811  16.3837

          k = 0.3125 0.2513 0.0000 (  5831 PWs)   bands (ev):

   -45.3882 -23.8106 -23.6092 -23.2608 -20.6005 -12.3619  -3.0623  -2.6149
    -2.5477  -1.8916  -0.7433   0.4758   3.5468   5.9760   6.5555   7.1459
     7.5921   8.4215   9.8399  10.8527  11.8617  12.5324  14.2866  14.9818
    15.5960  16.4165

          k = 0.3125 0.3231 0.0000 (  5828 PWs)   bands (ev):

   -45.3819 -23.8257 -23.6058 -23.3096 -20.5924 -12.2599  -3.0629  -2.6494
    -2.5697  -2.0136  -0.7229   0.0708   3.6832   6.1132   6.5573   7.1745
     7.7094   9.1224  10.1127  11.3107  12.0944  12.5758  13.7260  14.4076
    15.1785  16.2575

          k = 0.3125 0.3950 0.0000 (  5825 PWs)   bands (ev):

   -45.3761 -23.8303 -23.5934 -23.3749 -20.5840 -12.1623  -3.0475  -2.7426
    -2.5421  -2.0236  -0.7303  -0.4112   3.9018   6.1919   6.6190   7.1492
     7.7056   9.9832  10.4244  11.8340  12.2705  12.7817  13.3478  14.0578
    14.8707  15.6421

          k = 0.3125 0.4668 0.0000 (  5821 PWs)   bands (ev):

   -45.3717 -23.8215 -23.5812 -23.4409 -20.5770 -12.0853  -3.0589  -2.7683
    -2.5129  -1.9506  -0.9887  -0.6413   4.1348   6.2657   6.5938   7.2257
     7.5935  10.4314  11.0294  11.8417  12.6991  13.1748  13.3466  13.9278
    14.5746  15.1405

          k = 0.3125 0.5386 0.0000 (  5801 PWs)   bands (ev):

   -45.3693 -23.8087 -23.5745 -23.4848 -20.5731 -12.0428  -3.0877  -2.7436
    -2.4910  -1.8114  -1.3581  -0.6565   4.2920   6.3601   6.5256   7.2061
     7.5695  10.4033  11.7595  11.9351  12.7843  12.9911  13.7531  13.8932
    14.6872  15.3087

          k = 0.3125-0.1077 0.0000 (  5822 PWs)   bands (ev):

   -45.3984 -23.7911 -23.5595 -23.2359 -20.6103 -12.5209  -2.9683  -2.6831
    -2.5265  -1.3796  -0.7759   0.6490   3.6285   5.7492   6.3394   6.8558
     7.3576   7.8367   9.5792  10.5953  11.8865  12.7158  14.3595  15.4402
    16.0581  16.4875

          k = 0.3125-0.0359 0.0000 (  5801 PWs)   bands (ev):

   -45.4007 -23.7908 -23.5296 -23.2450 -20.6119 -12.5570  -2.9025  -2.7286
    -2.5416  -1.1796  -0.7650   0.5329   3.7293   5.6025   6.3187   6.8114
     7.2598   7.7703   9.5296  10.6333  12.3507  12.8348  13.5109  15.3247
    16.1332  16.5872

          k = 0.3750 0.2154 0.0000 (  5838 PWs)   bands (ev):

   -45.3844 -23.8409 -23.6133 -23.2566 -20.6006 -12.3011  -3.1229  -2.6003
    -2.5332  -2.1355  -0.7164   0.5504   3.4489   6.0625   6.7512   7.2306
     7.7355   8.6125   9.8225  10.8193  11.8650  12.5162  13.7287  15.1217
    15.6199  15.7662

          k = 0.3750 0.2872 0.0000 (  5825 PWs)   bands (ev):

   -45.3801 -23.8631 -23.6067 -23.2798 -20.5970 -12.2307  -3.1420  -2.6248
    -2.5555  -2.2446  -0.6945   0.3571   3.4990   6.2127   6.7313   7.2900
     7.8264   9.1204   9.9610  11.0255  11.9787  12.5531  13.2877  14.6663
    15.0718  15.7443

          k = 0.3750 0.3590 0.0000 (  5815 PWs)   bands (ev):

   -45.3759 -23.8673 -23.5954 -23.3298 -20.5902 -12.1589  -3.1142  -2.7345
    -2.5466  -2.2175  -0.6840  -0.0554   3.6860   6.3847   6.6551   7.2557
     7.7626   9.8870  10.2877  11.4337  12.0698  12.5423  13.0951  14.1693
    14.8206  15.5645

          k = 0.3750 0.4309 0.0000 (  5803 PWs)   bands (ev):

   -45.3723 -23.8513 -23.5841 -23.3961 -20.5822 -12.0971  -3.0727  -2.8023
    -2.5261  -2.1190  -0.7205  -0.5282   3.9437   6.4434   6.6051   7.2688
     7.5961  10.3206  11.0153  11.8731  12.0770  12.5224  13.2497  14.1208
    14.6719  15.3003

          k = 0.3750 0.5027 0.0000 (  5806 PWs)   bands (ev):

   -45.3699 -23.8244 -23.5765 -23.4582 -20.5759 -12.0553  -3.0767  -2.7745
    -2.5035  -1.9606  -1.0911  -0.6473   4.1851   6.4072   6.5408   7.2713
     7.5232  10.4107  11.7524  12.0014  12.0478  13.1104  13.5416  13.9922
    14.5946  15.2125

          k = 0.3750 0.5745 0.0000 (  5816 PWs)   bands (ev):

   -45.3691 -23.8095 -23.5742 -23.4853 -20.5735 -12.0405  -3.0887  -2.7456
    -2.4915  -1.8192  -1.3549  -0.6541   4.2907   6.3597   6.5292   7.2073
     7.5676  10.4116  11.7532  11.9750  12.7642  12.9877  13.7089  13.9155
    14.6949  15.3151

          k = 0.3750-0.1436 0.0000 (  5833 PWs)   bands (ev):

   -45.3880 -23.8114 -23.6095 -23.2605 -20.6009 -12.3598  -3.0638  -2.6141
    -2.5500  -1.8988  -0.7425   0.4838   3.5424   5.9740   6.5521   7.1506
     7.5964   8.4243   9.8445  10.8524  11.8598  12.5321  14.2804  14.9678
    15.6106  16.4013

          k = 0.3750-0.0718 0.0000 (  5816 PWs)   bands (ev):

   -45.3904 -23.7892 -23.5951 -23.2793 -20.5995 -12.3984  -2.9907  -2.6419
    -2.5772  -1.6425  -0.7686   0.2835   3.6918   5.8121   6.4432   7.0310
     7.5458   8.3635   9.8955  11.0276  12.1180  12.6059  14.2994  14.7037
    15.3932  16.4370

          k = 0.3750 0.0000 0.0000 (  5820 PWs)   bands (ev):

   -45.3912 -23.7817 -23.5856 -23.2905 -20.5988 -12.4118  -2.9526  -2.6647
    -2.5857  -1.5182  -0.7836   0.1724   3.7667   5.6929   6.4897   6.9252
     7.5487   8.3486   9.9148  11.0987  12.4591  12.6668  13.7709  14.5937
    15.7248  16.2000

          k = 0.4375 0.2513 0.0000 (  5814 PWs)   bands (ev):

   -45.3780 -23.8919 -23.6027 -23.2699 -20.5991 -12.1941  -3.1966  -2.6223
    -2.5447  -2.3947  -0.6744   0.4705   3.4069   6.2790   6.8086   7.3683
     8.0209   9.2549   9.9050  10.9837  11.8990  12.4596  13.1079  14.5712
    14.9161  15.3331

          k = 0.4375 0.3231 0.0000 (  5816 PWs)   bands (ev):

   -45.3758 -23.8995 -23.5963 -23.2899 -20.5964 -12.1563  -3.1932  -2.6953
    -2.5498  -2.3757  -0.6650   0.2964   3.4818   6.3973   6.7736   7.3402
     7.9896   9.7185  10.0776  11.1679  11.7452  12.4033  13.1833  14.1811
    14.7672  15.1967

          k = 0.4375 0.3950 0.0000 (  5814 PWs)   bands (ev):

   -45.3737 -23.8841 -23.5896 -23.3366 -20.5899 -12.1218  -3.1339  -2.7818
    -2.5408  -2.2720  -0.6693  -0.0962   3.6886   6.4801   6.7227   7.2618
     7.7765  10.1124  10.6440  11.5432  11.6489  12.4019  13.2293  14.0273
    14.7857  15.0545

          k = 0.4375 0.4668 0.0000 (  5809 PWs)   bands (ev):

   -45.3722 -23.8523 -23.5840 -23.3958 -20.5825 -12.0955  -3.0734  -2.8047
    -2.5264  -2.1235  -0.7206  -0.5227   3.9412   6.4409   6.6065   7.2640
     7.6042  10.3260  11.0446  11.8677  12.0579  12.5195  13.2523  14.1212
    14.6665  15.2894

          k = 0.4375 0.5386 0.0000 (  5810 PWs)   bands (ev):

   -45.3713 -23.8234 -23.5807 -23.4409 -20.5777 -12.0814  -3.0602  -2.7730
    -2.5136  -1.9627  -0.9832  -0.6357   4.1306   6.2635   6.6002   7.2176
     7.6030  10.4425  11.0690  11.8319  12.7034  13.1545  13.3227  13.9424
    14.5691  15.1278

          k = 0.4375-0.1795 0.0000 (  5825 PWs)   bands (ev):

   -45.3800 -23.8641 -23.6067 -23.2794 -20.5973 -12.2292  -3.1434  -2.6254
    -2.5562  -2.2491  -0.6939   0.3630   3.4955   6.2133   6.7216   7.2958
     7.8305   9.1279   9.9675  11.0242  11.9768  12.5554  13.2827  14.6583
    15.0745  15.7408

          k = 0.4375-0.1077 0.0000 (  5825 PWs)   bands (ev):

   -45.3816 -23.8276 -23.6059 -23.3090 -20.5931 -12.2561  -3.0653  -2.6513
    -2.5713  -2.0252  -0.7216   0.0830   3.6767   6.1106   6.5551   7.1717
     7.7220   9.1332  10.1251  11.3101  12.0900  12.5778  13.7143  14.4036
    15.1625  16.2447

          k = 0.4375-0.0359 0.0000 (  5828 PWs)   bands (ev):

   -45.3824 -23.8014 -23.6016 -23.3367 -20.5898 -12.2707  -3.0066  -2.6737
    -2.5792  -1.8320  -0.7548  -0.1566   3.8286   5.8973   6.6193   6.9848
     7.7305   9.1410  10.2348  11.5495  12.3646  12.6484  13.8789  14.4207
    14.7931  15.8314

          k =-0.5000-0.2872 0.0000 (  5826 PWs)   bands (ev):

   -45.3757 -23.9118 -23.5966 -23.2745 -20.5990 -12.1554  -3.2276  -2.6632
    -2.5491  -2.4479  -0.6588   0.4431   3.3958   6.4001   6.7708   7.4050
     8.1464   9.6145   9.9500  11.1465  11.5561  12.3702  13.2697  14.1009
    14.7370  15.1603

          k =-0.5000-0.2154 0.0000 (  5818 PWs)   bands (ev):

   -45.3757 -23.8999 -23.5963 -23.2897 -20.5965 -12.1558  -3.1938  -2.6959
    -2.5499  -2.3770  -0.6648   0.2985   3.4805   6.3998   6.7660   7.3434
     7.9906   9.7256  10.0802  11.1690  11.7383  12.4044  13.1866  14.1758
    14.7594  15.2029

          k =-0.5000-0.1436 0.0000 (  5816 PWs)   bands (ev):

   -45.3757 -23.8687 -23.5952 -23.3292 -20.5906 -12.1568  -3.1158  -2.7369
    -2.5469  -2.2230  -0.6835  -0.0480   3.6818   6.3872   6.6452   7.2558
     7.7716   9.8984  10.3045  11.4327  12.0571  12.5440  13.0940  14.1637
    14.8104  15.5613

          k =-0.5000-0.0718 0.0000 (  5811 PWs)   bands (ev):

   -45.3757 -23.8327 -23.5932 -23.3744 -20.5847 -12.1579  -3.0495  -2.7475
    -2.5428  -2.0366  -0.7295  -0.3982   3.8955   6.1888   6.6242   7.1373
     7.7215   9.9973  10.4510  11.8335  12.2694  12.7729  13.3309  14.0592
    14.8494  15.6378

          k =-0.5000-0.0000 0.0000 (  5842 PWs)   bands (ev):

   -45.3757 -23.8159 -23.5918 -23.3956 -20.5823 -12.1583  -3.0281  -2.7435
    -2.5411  -1.9316  -0.7925  -0.5247   3.9941   6.0486   6.6825   7.0434
     7.7372  10.0230  10.5122  11.8863  12.4242  12.9834  13.6264  14.1350
    14.5805  15.1486

     highest occupied, lowest unoccupied level (ev):     4.2920    5.5176

!    total energy              =    -571.23458215 Ry
     total all-electron energy =    -12610.611993 Ry
     estimated scf accuracy    <          7.5E-11 Ry

     The total energy is the sum of the following terms:
     one-electron contribution =    -278.15065456 Ry
     hartree contribution      =     147.56299676 Ry
     xc contribution           =     -36.34797520 Ry
     ewald contribution        =      -7.44388449 Ry
     one-center paw contrib.   =    -396.85506464 Ry

     convergence has been achieved in   6 iterations

     negative rho (up, down):  3.151E-05 0.000E+00

     Forces acting on atoms (cartesian axes, Ry/au):

     atom    1 type  1   force =     0.00000000   -0.00033932    0.00021693
     atom    2 type  2   force =     0.00000000    0.00027961   -0.00015647
     atom    3 type  3   force =     0.00000000    0.00005971   -0.00006046
     The non-local contrib.  to forces
     atom    1 type  1   force =     0.00000000    0.00069351   -0.02476711
     atom    2 type  2   force =     0.00000000    0.00594326   -0.99310725
     atom    3 type  3   force =     0.00000000    0.00042694    0.21108101
     The ionic contribution  to forces
     atom    1 type  1   force =    -0.00000001    0.04379902   -0.53828410
     atom    2 type  2   force =     0.00000001   -0.03057861   24.50289879
     atom    3 type  3   force =     0.00000000   -0.01322041  -23.96461469
     The local contribution  to forces
     atom    1 type  1   force =    -0.00000000   -0.04479299    0.55911181
     atom    2 type  2   force =     0.00000027    0.02493634  -23.51318197
     atom    3 type  3   force =    -0.00000000    0.01282418   23.75612783
     The core correction contribution to forces
     atom    1 type  1   force =    -0.00000000   -0.00003938    0.00413637
     atom    2 type  2   force =     0.00000000   -0.00002106    0.00322562
     atom    3 type  3   force =    -0.00000000    0.00002851   -0.00265930
     The Hubbard contrib.    to forces
     atom    1 type  1   force =     0.00000000    0.00000000    0.00000000
     atom    2 type  2   force =     0.00000000    0.00000000    0.00000000
     atom    3 type  3   force =     0.00000000    0.00000000    0.00000000
     The SCF correction term to forces
     atom    1 type  1   force =     0.00000000    0.00000078    0.00001477
     atom    2 type  2   force =     0.00000000   -0.00000005    0.00000316
     atom    3 type  3   force =    -0.00000000    0.00000075   -0.00000050

     Total force =     0.000522     Total SCF correction =     0.000015
     Energy error            =      5.0E-06 Ry
     Gradient error          =      3.4E-04 Ry/Bohr

     number of scf cycles    =   4
     number of bfgs steps    =   3

     energy             old  =    -571.2345771884 Ry
     energy             new  =    -571.2345821458 Ry

     CASE: energy            _new < energy            _old

     new trust radius        =       0.0014724376 bohr
     new conv_thr            =            1.0E-10 Ry


ATOMIC_POSITIONS (angstrom)
Zr           -0.0000000000       -0.0056755346       10.1027188803
F            -0.0000000020        1.9335712478       11.4064015158
Br           -0.0000000020        1.9339120501        8.2090583169



     Writing config-only to output data dir ./tmp/ZrFBr.save/
     NEW-OLD atomic charge density approx. for the potential

     Check: negative core charge=   -0.000002

     negative rho (up, down):  3.150E-05 0.000E+00

     total cpu time spent up to now is       45.3 secs

     Self-consistent Calculation

     iteration #  1     ecut=    65.00 Ry     beta= 0.70
     Davidson diagonalization with overlap
     ethr =  1.00E-06,  avg # of iterations =  2.0

     Threshold (ethr) on eigenvalues was too large:
     Diagonalizing with lowered threshold

     Davidson diagonalization with overlap
     ethr =  3.91E-10,  avg # of iterations =  4.0

     negative rho (up, down):  3.153E-05 0.000E+00

     total cpu time spent up to now is       48.5 secs

     total energy              =    -571.23458260 Ry
     estimated scf accuracy    <       0.00000009 Ry

     iteration #  2     ecut=    65.00 Ry     beta= 0.70
     Davidson diagonalization with overlap
     ethr =  3.41E-10,  avg # of iterations =  2.0

     negative rho (up, down):  3.152E-05 0.000E+00

     total cpu time spent up to now is       49.9 secs

     total energy              =    -571.23458261 Ry
     estimated scf accuracy    <          8.7E-09 Ry

     iteration #  3     ecut=    65.00 Ry     beta= 0.70
     Davidson diagonalization with overlap
     ethr =  3.33E-11,  avg # of iterations =  2.0

     negative rho (up, down):  3.152E-05 0.000E+00

     total cpu time spent up to now is       51.3 secs

     total energy              =    -571.23458261 Ry
     estimated scf accuracy    <       0.00000002 Ry

     iteration #  4     ecut=    65.00 Ry     beta= 0.70
     Davidson diagonalization with overlap
     ethr =  3.33E-11,  avg # of iterations =  1.7

     negative rho (up, down):  3.152E-05 0.000E+00

     total cpu time spent up to now is       52.5 secs

     total energy              =    -571.23458261 Ry
     estimated scf accuracy    <          8.0E-10 Ry

     iteration #  5     ecut=    65.00 Ry     beta= 0.70
     Davidson diagonalization with overlap
     ethr =  3.07E-12,  avg # of iterations =  2.0

     negative rho (up, down):  3.152E-05 0.000E+00

     total cpu time spent up to now is       53.9 secs

     End of self-consistent calculation

          k = 0.0000 0.0000 0.0000 (  5811 PWs)   bands (ev):

   -45.4341 -23.9031 -23.1522 -23.1443 -20.6966 -13.0154  -3.1757  -2.4951
    -2.4840  -1.1604   1.3095   1.3452   3.7575   5.7560   5.8158   5.8629
     6.7344   6.7585   7.9027   8.7385  11.1073  13.9609  14.6062  14.6945
    15.2773  17.1889

          k = 0.0000 0.0718 0.0000 (  5772 PWs)   bands (ev):

   -45.4319 -23.8947 -23.1825 -23.1490 -20.6883 -12.9877  -3.1420  -2.5310
    -2.4837  -1.1386   1.0872   1.3054   3.7722   5.6947   5.8592   5.9595
     6.6892   6.8089   8.0265   8.9592  11.2409  14.0180  14.2372  14.8273
    15.1491  17.3908

          k = 0.0000 0.1436 0.0000 (  5780 PWs)   bands (ev):

   -45.4257 -23.8712 -23.2660 -23.1621 -20.6672 -12.9074  -3.0514  -2.6224
    -2.4839  -1.0862   0.5279   1.1960   3.7873   5.6039   5.9968   6.0595
     6.7710   6.9411   8.3606   9.4378  11.6273  13.5755  14.0084  14.9929
    15.2217  17.5986

          k = 0.0000 0.2154 0.0000 (  5814 PWs)   bands (ev):

   -45.4165 -23.8375 -23.3833 -23.1818 -20.6419 -12.7824  -2.9427  -2.7252
    -2.4872  -1.0361  -0.1688   1.0424   3.7461   5.5893   6.1084   6.2380
     7.0903   7.1153   8.8240   9.9300  12.0047  13.2095  13.6376  15.3478
    15.8632  17.2686

          k = 0.0000 0.2872 0.0000 (  5808 PWs)   bands (ev):

   -45.4055 -23.8045 -23.5062 -23.2048 -20.6203 -12.6268  -2.9383  -2.7255
    -2.4953  -1.1412  -0.7202   0.8746   3.6388   5.6875   6.2612   6.5730
     7.2995   7.5147   9.3047  10.3357  11.8691  12.8871  14.0832  15.8318
    16.3818  16.6502

          k = 0.0000 0.3590 0.0000 (  5824 PWs)   bands (ev):

   -45.3945 -23.7982 -23.5947 -23.2277 -20.6064 -12.4612  -3.0325  -2.6457
    -2.5077  -1.6642  -0.7727   0.7195   3.5182   5.8581   6.5219   6.9488
     7.4931   8.0116   9.6603  10.6178  11.7433  12.5695  14.6821  15.1735
    16.3354  16.3463

          k = 0.0000 0.4309 0.0000 (  5838 PWs)   bands (ev):

   -45.3851 -23.8419 -23.6151 -23.2470 -20.6000 -12.3118  -3.1260  -2.5996
    -2.5215  -2.1383  -0.7250   0.5966   3.4320   6.0681   6.7499   7.2428
     7.7439   8.5990   9.8113  10.8233  11.8504  12.4937  13.6857  15.0900
    15.5767  15.8224

          k = 0.0000 0.5027 0.0000 (  5810 PWs)   bands (ev):

   -45.3788 -23.8922 -23.6050 -23.2598 -20.5983 -12.2065  -3.2002  -2.6184
    -2.5322  -2.3958  -0.6843   0.5184   3.3899   6.2844   6.8118   7.3810
     8.0186   9.2390   9.8956  10.9829  11.8701  12.4259  13.0870  14.5434
    14.8762  15.3969

          k = 0.0000-0.5745 0.0000 (  5834 PWs)   bands (ev):

   -45.3766 -23.9119 -23.5990 -23.2643 -20.5981 -12.1685  -3.2316  -2.6577
    -2.5363  -2.4487  -0.6692   0.4916   3.3787   6.4044   6.7771   7.4183
     8.1391   9.5950   9.9476  11.1399  11.5161  12.3429  13.2517  14.0755
    14.6970  15.2275

          k = 0.0625 0.0359 0.0000 (  5791 PWs)   bands (ev):

   -45.4319 -23.8946 -23.1774 -23.1546 -20.6883 -12.9873  -3.1417  -2.5239
    -2.4915  -1.1381   1.1112   1.2786   3.7736   5.7291   5.8219   5.9602
     6.7018   6.7927   8.0287   8.9620  11.2425  14.0179  14.2827  14.7639
    15.1567  17.4119

          k = 0.0625 0.1077 0.0000 (  5776 PWs)   bands (ev):

   -45.4277 -23.8786 -23.2368 -23.1610 -20.6736 -12.9333  -3.0792  -2.5915
    -2.4877  -1.1011   0.7178   1.2073   3.7897   5.6267   5.9398   6.0606
     6.7039   6.9031   8.2571   9.3047  11.5107  13.7470  14.0597  14.9056
    15.1614  17.5038

          k = 0.0625 0.1795 0.0000 (  5782 PWs)   bands (ev):

   -45.4199 -23.8498 -23.3361 -23.1785 -20.6506 -12.8305  -2.9745  -2.6915
    -2.4908  -1.0484   0.1094   1.0550   3.7820   5.5509   6.1205   6.1634
     6.8804   7.0944   8.6567   9.7762  11.9880  13.2176  13.7461  15.0647
    15.7291  17.0975

          k = 0.0625 0.2513 0.0000 (  5795 PWs)   bands (ev):

   -45.4098 -23.8155 -23.4544 -23.2023 -20.6274 -12.6899  -2.8993  -2.7570
    -2.5003  -1.0365  -0.5307   0.8675   3.7169   5.5891   6.1893   6.4951
     7.1411   7.3874   9.1324  10.2261  12.1345  13.0484  13.5545  15.5206
    16.4048  16.6708

          k = 0.0625 0.3231 0.0000 (  5822 PWs)   bands (ev):

   -45.3988 -23.7925 -23.5603 -23.2282 -20.6100 -12.5285  -2.9706  -2.6850
    -2.5165  -1.3827  -0.7812   0.6802   3.6164   5.7508   6.3408   6.8700
     7.3692   7.8284   9.5640  10.5965  11.8901  12.7054  14.3424  15.4079
    16.0488  16.4815

          k = 0.0625 0.3950 0.0000 (  5829 PWs)   bands (ev):

   -45.3886 -23.8122 -23.6107 -23.2521 -20.6003 -12.3698  -3.0656  -2.6142
    -2.5394  -1.8984  -0.7501   0.5191   3.5301   5.9798   6.5542   7.1583
     7.6027   8.4122   9.8298  10.8595  11.8536  12.5162  14.2376  14.9578
    15.5932  16.4018

          k = 0.0625 0.4668 0.0000 (  5819 PWs)   bands (ev):

   -45.3808 -23.8641 -23.6086 -23.2703 -20.5964 -12.2410  -3.1457  -2.6184
    -2.5508  -2.2461  -0.7030   0.4022   3.4825   6.2188   6.7274   7.3036
     7.8292   9.1097   9.9534  11.0325  11.9604  12.5270  13.2536  14.6567
    15.0428  15.7574

          k = 0.0625 0.5386 0.0000 (  5820 PWs)   bands (ev):

   -45.3766 -23.8998 -23.5985 -23.2802 -20.5956 -12.1684  -3.1970  -2.6879
    -2.5448  -2.3729  -0.6746   0.3410   3.4662   6.4035   6.7740   7.3528
     7.9842   9.7023  10.0757  11.1685  11.7067  12.3771  13.1698  14.1583
    14.7323  15.2387

          k = 0.1250 0.0718 0.0000 (  5797 PWs)   bands (ev):

   -45.4255 -23.8707 -23.2614 -23.1686 -20.6672 -12.9058  -3.0506  -2.6161
    -2.4925  -1.0847   0.5490   1.1652   3.7929   5.6329   5.9563   6.0636
     6.7774   6.9259   8.3673   9.4434  11.6332  13.5946  14.0223  15.0023
    15.1612  17.5493

          k = 0.1250 0.1436 0.0000 (  5787 PWs)   bands (ev):

   -45.4198 -23.8495 -23.3339 -23.1820 -20.6505 -12.8293  -2.9739  -2.6888
    -2.4951  -1.0472   0.1207   1.0361   3.7870   5.5573   6.1141   6.1579
     6.8822   7.0879   8.6608   9.7787  11.9916  13.2262  13.7538  15.0674
    15.7047  17.0880

          k = 0.1250 0.2154 0.0000 (  5787 PWs)   bands (ev):

   -45.4112 -23.8195 -23.4307 -23.2076 -20.6299 -12.7106  -2.8774  -2.7709
    -2.5094  -1.0175  -0.4046   0.8062   3.7644   5.5181   6.2176   6.4789
     7.0280   7.3660   9.0756  10.1991  12.5470  12.8126  13.3488  15.3367
    16.3387  16.6347

          k = 0.1250 0.2872 0.0000 (  5800 PWs)   bands (ev):

   -45.4011 -23.7917 -23.5290 -23.2402 -20.6116 -12.5633  -2.9035  -2.7299
    -2.5343  -1.1770  -0.7652   0.5432   3.7246   5.5991   6.3274   6.8196
     7.2669   7.7637   9.5161  10.6319  12.3662  12.8388  13.5101  15.3131
    16.1036  16.5714

          k = 0.1250 0.3590 0.0000 (  5812 PWs)   bands (ev):

   -45.3909 -23.7895 -23.5950 -23.2737 -20.5989 -12.4070  -2.9911  -2.6419
    -2.5693  -1.6356  -0.7735   0.2990   3.6869   5.8141   6.4494   7.0372
     7.5447   8.3540   9.8798  11.0308  12.1281  12.6056  14.2959  14.6794
    15.3794  16.4198

          k = 0.1250 0.4309 0.0000 (  5824 PWs)   bands (ev):

   -45.3822 -23.8269 -23.6071 -23.3024 -20.5922 -12.2666  -3.0657  -2.6424
    -2.5705  -2.0178  -0.7284   0.1046   3.6707   6.1153   6.5583   7.1816
     7.7144   9.1160  10.1056  11.3244  12.0892  12.5657  13.6884  14.4020
    15.1421  16.2410

          k = 0.1250 0.5027 0.0000 (  5816 PWs)   bands (ev):

   -45.3764 -23.8679 -23.5971 -23.3218 -20.5897 -12.1681  -3.1171  -2.7279
    -2.5456  -2.2162  -0.6912  -0.0205   3.6737   6.3904   6.6499   7.2659
     7.7626   9.8741  10.2840  11.4531  12.0483  12.5163  13.0789  14.1634
    14.7895  15.5579

          k = 0.1250 0.5745 0.0000 (  5816 PWs)   bands (ev):

   -45.3744 -23.8839 -23.5915 -23.3287 -20.5891 -12.1326  -3.1363  -2.7741
    -2.5391  -2.2671  -0.6772  -0.0638   3.6782   6.4849   6.7220   7.2719
     7.7708  10.0900  10.6427  11.5518  11.6218  12.3870  13.2187  14.0063
    14.7628  15.0635

          k = 0.1250 0.0000 0.0000 (  5790 PWs)   bands (ev):

   -45.4276 -23.8783 -23.2327 -23.1664 -20.6736 -12.9322  -3.0786  -2.5855
    -2.4953  -1.1000   0.7327   1.1864   3.7928   5.6609   5.9004   6.0612
     6.6985   6.9003   8.2627   9.3091  11.5144  13.7671  14.0663  14.8878
    15.1337  17.5032

          k = 0.1875 0.1077 0.0000 (  5803 PWs)   bands (ev):

   -45.4161 -23.8365 -23.3797 -23.1889 -20.6419 -12.7790  -2.9412  -2.7205
    -2.4963  -1.0328  -0.1524   1.0074   3.7576   5.6034   6.1142   6.2034
     7.0907   7.1056   8.8350   9.9351  12.0102  13.2243  13.6553  15.3614
    15.8094  17.2193

          k = 0.1875 0.1795 0.0000 (  5812 PWs)   bands (ev):

   -45.4095 -23.8146 -23.4519 -23.2080 -20.6274 -12.6868  -2.8975  -2.7547
    -2.5070  -1.0324  -0.5183   0.8366   3.7282   5.5910   6.1885   6.4823
     7.1347   7.3873   9.1407  10.2282  12.1344  13.0608  13.5768  15.5334
    16.3760  16.6591

          k = 0.1875 0.2513 0.0000 (  5800 PWs)   bands (ev):

   -45.4009 -23.7911 -23.5278 -23.2432 -20.6116 -12.5613  -2.9021  -2.7298
    -2.5374  -1.1718  -0.7619   0.5264   3.7312   5.5978   6.3263   6.8169
     7.2616   7.7655   9.5203  10.6316  12.3618  12.8392  13.5342  15.3142
    16.1196  16.5787

          k = 0.1875 0.3231 0.0000 (  5826 PWs)   bands (ev):

   -45.3915 -23.7813 -23.5841 -23.2882 -20.5982 -12.4185  -2.9514  -2.6652
    -2.5802  -1.5032  -0.7859   0.1672   3.7694   5.6910   6.4989   6.9274
     7.5429   8.3410   9.9019  11.0964  12.4648  12.6903  13.7841  14.5831
    15.7179  16.1810

          k = 0.1875 0.3950 0.0000 (  5821 PWs)   bands (ev):

   -45.3829 -23.7997 -23.6017 -23.3335 -20.5889 -12.2791  -3.0054  -2.6672
    -2.5784  -1.8171  -0.7585  -0.1566   3.8305   5.8975   6.6214   6.9952
     7.7189   9.1253  10.2151  11.5505  12.3623  12.6778  13.8738  14.4135
    14.7879  15.8419

          k = 0.1875 0.4668 0.0000 (  5819 PWs)   bands (ev):

   -45.3762 -23.8309 -23.5943 -23.3701 -20.5838 -12.1671  -3.0489  -2.7394
    -2.5424  -2.0254  -0.7318  -0.3924   3.8950   6.1900   6.6221   7.1524
     7.7084   9.9762  10.4194  11.8472  12.2782  12.7816  13.3113  14.0616
    14.8345  15.6661

          k = 0.1875 0.5386 0.0000 (  5818 PWs)   bands (ev):

   -45.3726 -23.8513 -23.5854 -23.3905 -20.5818 -12.1043  -3.0734  -2.7982
    -2.5256  -2.1167  -0.7192  -0.5128   3.9374   6.4431   6.6021   7.2770
     7.5957  10.3028  11.0123  11.8747  12.0729  12.5269  13.2361  14.1114
    14.6583  15.2817

          k = 0.1875-0.0359 0.0000 (  5799 PWs)   bands (ev):

   -45.4196 -23.8490 -23.3330 -23.1846 -20.6506 -12.8275  -2.9732  -2.6868
    -2.4994  -1.0457   0.1204   1.0311   3.7892   5.5736   6.1162   6.1329
     6.8660   7.0984   8.6674   9.7814  11.9940  13.2252  13.7558  15.0609
    15.6954  17.0947

          k = 0.2500 0.1436 0.0000 (  5819 PWs)   bands (ev):

   -45.4048 -23.8029 -23.5039 -23.2127 -20.6205 -12.6210  -2.9358  -2.7231
    -2.5052  -1.1332  -0.7115   0.8355   3.6539   5.6898   6.2686   6.5456
     7.2851   7.5219   9.3186  10.3378  11.8700  12.9012  14.1134  15.8596
    16.4192  16.6023

          k = 0.2500 0.2154 0.0000 (  5824 PWs)   bands (ev):

   -45.3982 -23.7909 -23.5582 -23.2355 -20.6103 -12.5230  -2.9680  -2.6840
    -2.5247  -1.3724  -0.7752   0.6417   3.6315   5.7493   6.3408   6.8580
     7.3569   7.8346   9.5752  10.5951  11.8911  12.7178  14.3822  15.4415
    16.0549  16.4783

          k = 0.2500 0.2872 0.0000 (  5828 PWs)   bands (ev):

   -45.3904 -23.7882 -23.5936 -23.2790 -20.5991 -12.4027  -2.9892  -2.6436
    -2.5730  -1.6277  -0.7697   0.2711   3.6978   5.8122   6.4481   7.0324
     7.5381   8.3578   9.8870  11.0260  12.1270  12.6086  14.3244  14.7089
    15.4002  16.4230

          k = 0.2500 0.3590 0.0000 (  5825 PWs)   bands (ev):

   -45.3826 -23.7991 -23.6011 -23.3362 -20.5891 -12.2766  -3.0046  -2.6702
    -2.5778  -1.8136  -0.7569  -0.1697   3.8355   5.8973   6.6198   6.9938
     7.7170   9.1271  10.2187  11.5461  12.3638  12.6666  13.8781  14.4525
    14.8067  15.8186

          k = 0.2500 0.4309 0.0000 (  5832 PWs)   bands (ev):

   -45.3760 -23.8131 -23.5921 -23.3945 -20.5816 -12.1650  -3.0266  -2.7372
    -2.5406  -1.9143  -0.7938  -0.5352   3.9997   6.0485   6.6750   7.0609
     7.7227  10.0050  10.4813  11.8923  12.4085  13.0223  13.6300  14.1421
    14.5876  15.1587

          k = 0.2500 0.5027 0.0000 (  5799 PWs)   bands (ev):

   -45.3716 -23.8214 -23.5815 -23.4387 -20.5771 -12.0876  -3.0590  -2.7677
    -2.5131  -1.9509  -0.9807  -0.6419   4.1331   6.2630   6.5950   7.2278
     7.5953  10.4241  11.0280  11.8466  12.6896  13.1815  13.3387  13.9516
    14.5617  15.1320

          k = 0.2500 0.5745 0.0000 (  5800 PWs)   bands (ev):

   -45.3700 -23.8236 -23.5772 -23.4553 -20.5756 -12.0599  -3.0758  -2.7722
    -2.5032  -1.9566  -1.0821  -0.6509   4.1846   6.4051   6.5375   7.2743
     7.5257  10.3954  11.7590  11.9850  12.0214  13.1544  13.5490  13.9943
    14.5831  15.1992

          k = 0.2500-0.0718 0.0000 (  5816 PWs)   bands (ev):

   -45.4092 -23.8142 -23.4527 -23.2089 -20.6276 -12.6846  -2.8974  -2.7543
    -2.5095  -1.0318  -0.5246   0.8407   3.7272   5.5979   6.1887   6.4698
     7.1261   7.3952   9.1467  10.2296  12.1316  13.0570  13.5655  15.5261
    16.3984  16.6709

          k = 0.2500 0.0000 0.0000 (  5800 PWs)   bands (ev):

   -45.4108 -23.8185 -23.4307 -23.2112 -20.6302 -12.7065  -2.8763  -2.7695
    -2.5154  -1.0146  -0.4086   0.8000   3.7676   5.5296   6.2125   6.4607
     7.0146   7.3749   9.0870  10.2021  12.5473  12.8016  13.3486  15.3381
    16.3511  16.6371

          k = 0.3125 0.1795 0.0000 (  5829 PWs)   bands (ev):

   -45.3936 -23.7964 -23.5931 -23.2363 -20.6069 -12.4528  -3.0302  -2.6447
    -2.5186  -1.6573  -0.7656   0.6766   3.5344   5.8549   6.5280   6.9311
     7.4790   8.0219   9.6744  10.6152  11.7492  12.5852  14.7353  15.2053
    16.2810  16.3840

          k = 0.3125 0.2513 0.0000 (  5831 PWs)   bands (ev):

   -45.3878 -23.8105 -23.6089 -23.2605 -20.6008 -12.3616  -3.0630  -2.6152
    -2.5481  -1.8912  -0.7431   0.4762   3.5464   5.9765   6.5569   7.1464
     7.5926   8.4209   9.8404  10.8530  11.8619  12.5318  14.2866  14.9816
    15.5963  16.4166

          k = 0.3125 0.3231 0.0000 (  5828 PWs)   bands (ev):

   -45.3815 -23.8256 -23.6055 -23.3093 -20.5928 -12.2595  -3.0636  -2.6498
    -2.5701  -2.0131  -0.7227   0.0711   3.6830   6.1136   6.5587   7.1746
     7.7104   9.1217  10.1134  11.3106  12.0945  12.5751  13.7256  14.4082
    15.1789  16.2575

          k = 0.3125 0.3950 0.0000 (  5825 PWs)   bands (ev):

   -45.3757 -23.8302 -23.5931 -23.3746 -20.5843 -12.1619  -3.0482  -2.7431
    -2.5424  -2.0233  -0.7300  -0.4110   3.9018   6.1924   6.6201   7.1492
     7.7065   9.9829  10.4252  11.8333  12.2702  12.7814  13.3477  14.0589
    14.8710  15.6418

          k = 0.3125 0.4668 0.0000 (  5821 PWs)   bands (ev):

   -45.3713 -23.8213 -23.5808 -23.4406 -20.5774 -12.0850  -3.0596  -2.7688
    -2.5133  -1.9503  -0.9884  -0.6410   4.1350   6.2662   6.5943   7.2262
     7.5939  10.4320  11.0292  11.8413  12.6989  13.1745  13.3467  13.9283
    14.5751  15.1406

          k = 0.3125 0.5386 0.0000 (  5801 PWs)   bands (ev):

   -45.3689 -23.8086 -23.5742 -23.4845 -20.5735 -12.0425  -3.0883  -2.7441
    -2.4915  -1.8111  -1.3579  -0.6561   4.2924   6.3604   6.5260   7.2070
     7.5696  10.4038  11.7597  11.9350  12.7841  12.9910  13.7530  13.8933
    14.6877  15.3088

          k = 0.3125-0.1077 0.0000 (  5822 PWs)   bands (ev):

   -45.3980 -23.7909 -23.5595 -23.2354 -20.6106 -12.5207  -2.9690  -2.6835
    -2.5265  -1.3796  -0.7756   0.6497   3.6276   5.7499   6.3404   6.8562
     7.3572   7.8373   9.5798  10.5959  11.8866  12.7152  14.3602  15.4396
    16.0581  16.4873

          k = 0.3125-0.0359 0.0000 (  5801 PWs)   bands (ev):

   -45.4004 -23.7906 -23.5296 -23.2445 -20.6121 -12.5567  -2.9033  -2.7289
    -2.5415  -1.1797  -0.7647   0.5337   3.7282   5.6032   6.3201   6.8112
     7.2595   7.7710   9.5304  10.6338  12.3509  12.8341  13.5116  15.3242
    16.1336  16.5866

          k = 0.3750 0.2154 0.0000 (  5838 PWs)   bands (ev):

   -45.3840 -23.8409 -23.6130 -23.2562 -20.6009 -12.3008  -3.1235  -2.6006
    -2.5333  -2.1352  -0.7163   0.5509   3.4483   6.0632   6.7523   7.2307
     7.7356   8.6129   9.8228  10.8200  11.8650  12.5156  13.7288  15.1215
    15.6197  15.7664

          k = 0.3750 0.2872 0.0000 (  5825 PWs)   bands (ev):

   -45.3798 -23.8632 -23.6063 -23.2794 -20.5973 -12.2304  -3.1427  -2.6252
    -2.5557  -2.2442  -0.6944   0.3576   3.4985   6.2137   6.7320   7.2903
     7.8272   9.1201   9.9615  11.0259  11.9787  12.5524  13.2878  14.6662
    15.0724  15.7442

          k = 0.3750 0.3590 0.0000 (  5815 PWs)   bands (ev):

   -45.3755 -23.8673 -23.5950 -23.3294 -20.5905 -12.1586  -3.1148  -2.7348
    -2.5468  -2.2172  -0.6839  -0.0550   3.6856   6.3856   6.6557   7.2558
     7.7636   9.8871  10.2881  11.4339  12.0696  12.5414  13.0951  14.1699
    14.8211  15.5639

          k = 0.3750 0.4309 0.0000 (  5803 PWs)   bands (ev):

   -45.3719 -23.8514 -23.5838 -23.3957 -20.5826 -12.0968  -3.0734  -2.8025
    -2.5264  -2.1189  -0.7201  -0.5280   3.9435   6.4439   6.6060   7.2690
     7.5969  10.3214  11.0151  11.8725  12.0774  12.5219  13.2500  14.1214
    14.6723  15.2994

          k = 0.3750 0.5027 0.0000 (  5806 PWs)   bands (ev):

   -45.3695 -23.8244 -23.5762 -23.4578 -20.5762 -12.0550  -3.0772  -2.7748
    -2.5039  -1.9605  -1.0906  -0.6470   4.1850   6.4073   6.5416   7.2718
     7.5238  10.4111  11.7525  12.0011  12.0479  13.1109  13.5419  13.9926
    14.5942  15.2126

          k = 0.3750 0.5745 0.0000 (  5816 PWs)   bands (ev):

   -45.3687 -23.8096 -23.5738 -23.4849 -20.5738 -12.0402  -3.0892  -2.7459
    -2.4919  -1.8191  -1.3543  -0.6539   4.2906   6.3596   6.5300   7.2078
     7.5683  10.4119  11.7539  11.9749  12.7643  12.9873  13.7100  13.9161
    14.6943  15.3145

          k = 0.3750-0.1436 0.0000 (  5833 PWs)   bands (ev):

   -45.3876 -23.8115 -23.6093 -23.2600 -20.6012 -12.3595  -3.0644  -2.6144
    -2.5499  -1.8988  -0.7424   0.4845   3.5417   5.9747   6.5532   7.1504
     7.5960   8.4252   9.8450  10.8532  11.8598  12.5316  14.2808  14.9675
    15.6105  16.4010

          k = 0.3750-0.0718 0.0000 (  5816 PWs)   bands (ev):

   -45.3900 -23.7892 -23.5949 -23.2788 -20.5998 -12.3981  -2.9914  -2.6422
    -2.5769  -1.6426  -0.7683   0.2843   3.6909   5.8127   6.4445   7.0303
     7.5456   8.3646   9.8963  11.0283  12.1179  12.6054  14.3000  14.7039
    15.3926  16.4370

          k = 0.3750 0.0000 0.0000 (  5820 PWs)   bands (ev):

   -45.3908 -23.7817 -23.5855 -23.2899 -20.5991 -12.4115  -2.9534  -2.6649
    -2.5854  -1.5183  -0.7833   0.1732   3.7656   5.6935   6.4915   6.9239
     7.5486   8.3497   9.9159  11.0993  12.4590  12.6664  13.7717  14.5938
    15.7243  16.1999

          k = 0.4375 0.2513 0.0000 (  5814 PWs)   bands (ev):

   -45.3776 -23.8920 -23.6023 -23.2695 -20.5994 -12.1938  -3.1971  -2.6225
    -2.5448  -2.3945  -0.6743   0.4710   3.4063   6.2801   6.8092   7.3683
     8.0209   9.2559   9.9049  10.9843  11.8989  12.4591  13.1081  14.5706
    14.9162  15.3333

          k = 0.4375 0.3231 0.0000 (  5816 PWs)   bands (ev):

   -45.3754 -23.8996 -23.5959 -23.2895 -20.5967 -12.1561  -3.1938  -2.6954
    -2.5500  -2.3755  -0.6649   0.2969   3.4812   6.3987   6.7736   7.3403
     7.9900   9.7195  10.0773  11.1682  11.7451  12.4030  13.1834  14.1808
    14.7675  15.1966

          k = 0.4375 0.3950 0.0000 (  5814 PWs)   bands (ev):

   -45.3734 -23.8842 -23.5892 -23.3362 -20.5903 -12.1215  -3.1345  -2.7817
    -2.5410  -2.2719  -0.6692  -0.0958   3.6882   6.4812   6.7232   7.2619
     7.7768  10.1133  10.6439  11.5431  11.6491  12.4020  13.2296  14.0271
    14.7861  15.0538

          k = 0.4375 0.4668 0.0000 (  5809 PWs)   bands (ev):

   -45.3718 -23.8525 -23.5836 -23.3953 -20.5828 -12.0952  -3.0741  -2.8046
    -2.5267  -2.1235  -0.7202  -0.5224   3.9408   6.4412   6.6075   7.2644
     7.6044  10.3263  11.0449  11.8684  12.0578  12.5201  13.2528  14.1206
    14.6661  15.2896

          k = 0.4375 0.5386 0.0000 (  5810 PWs)   bands (ev):

   -45.3710 -23.8236 -23.5804 -23.4403 -20.5780 -12.0811  -3.0607  -2.7730
    -2.5140  -1.9628  -0.9826  -0.6355   4.1302   6.2635   6.6012   7.2178
     7.6034  10.4423  11.0695  11.8332  12.7034  13.1549  13.3238  13.9422
    14.5680  15.1273

          k = 0.4375-0.1795 0.0000 (  5825 PWs)   bands (ev):

   -45.3796 -23.8642 -23.6063 -23.2790 -20.5976 -12.2289  -3.1440  -2.6252
    -2.5564  -2.2491  -0.6938   0.3636   3.4948   6.2141   6.7229   7.2956
     7.8299   9.1292   9.9674  11.0252  11.9769  12.5550  13.2831  14.6576
    15.0748  15.7404

          k = 0.4375-0.1077 0.0000 (  5825 PWs)   bands (ev):

   -45.3812 -23.8278 -23.6056 -23.3085 -20.5934 -12.2558  -3.0659  -2.6510
    -2.5716  -2.0253  -0.7215   0.0837   3.6759   6.1112   6.5563   7.1716
     7.7213   9.1344  10.1254  11.3111  12.0902  12.5778  13.7147  14.4031
    15.1623  16.2445

          k = 0.4375-0.0359 0.0000 (  5828 PWs)   bands (ev):

   -45.3820 -23.8016 -23.6013 -23.3361 -20.5901 -12.2704  -3.0072  -2.6735
    -2.5793  -1.8321  -0.7546  -0.1558   3.8278   5.8977   6.6211   6.9840
     7.7301   9.1419  10.2355  11.5503  12.3646  12.6489  13.8792  14.4210
    14.7924  15.8309

          k =-0.5000-0.2872 0.0000 (  5826 PWs)   bands (ev):

   -45.3753 -23.9119 -23.5962 -23.2742 -20.5993 -12.1551  -3.2282  -2.6632
    -2.5491  -2.4478  -0.6588   0.4437   3.3952   6.4016   6.7710   7.4050
     8.1464   9.6161   9.9498  11.1463  11.5564  12.3702  13.2700  14.1002
    14.7369  15.1605

          k =-0.5000-0.2154 0.0000 (  5818 PWs)   bands (ev):

   -45.3753 -23.9000 -23.5959 -23.2893 -20.5968 -12.1555  -3.1944  -2.6957
    -2.5501  -2.3769  -0.6647   0.2991   3.4799   6.4010   6.7668   7.3433
     7.9903   9.7272  10.0798  11.1693  11.7383  12.4044  13.1870  14.1750
    14.7595  15.2028

          k =-0.5000-0.1436 0.0000 (  5816 PWs)   bands (ev):

   -45.3753 -23.8688 -23.5948 -23.3288 -20.5909 -12.1566  -3.1164  -2.7366
    -2.5472  -2.2231  -0.6834  -0.0475   3.6813   6.3877   6.6464   7.2560
     7.7711   9.8995  10.3042  11.4335  12.0576  12.5440  13.0946  14.1626
    14.8105  15.5610

          k =-0.5000-0.0718 0.0000 (  5811 PWs)   bands (ev):

   -45.3753 -23.8329 -23.5928 -23.3738 -20.5850 -12.1576  -3.0502  -2.7472
    -2.5432  -2.0367  -0.7292  -0.3977   3.8950   6.1891   6.6254   7.1375
     7.7212   9.9977  10.4514  11.8346  12.2703  12.7735  13.3309  14.0583
    14.8490  15.6382

          k =-0.5000-0.0000 0.0000 (  5842 PWs)   bands (ev):

   -45.3754 -23.8161 -23.5914 -23.3950 -20.5826 -12.1580  -3.0287  -2.7433
    -2.5414  -1.9318  -0.7921  -0.5242   3.9936   6.0488   6.6839   7.0432
     7.7371  10.0232  10.5128  11.8879  12.4243  12.9848  13.6258  14.1349
    14.5801  15.1476

     highest occupied, lowest unoccupied level (ev):     4.2924    5.5181

!    total energy              =    -571.23458261 Ry
     total all-electron energy =    -12610.611994 Ry
     estimated scf accuracy    <          9.6E-11 Ry

     The total energy is the sum of the following terms:
     one-electron contribution =    -278.16690164 Ry
     hartree contribution      =     147.57124207 Ry
     xc contribution           =     -36.34806040 Ry
     ewald contribution        =      -7.43579581 Ry
     one-center paw contrib.   =    -396.85506684 Ry

     convergence has been achieved in   5 iterations

     negative rho (up, down):  3.152E-05 0.000E+00

     Forces acting on atoms (cartesian axes, Ry/au):

     atom    1 type  1   force =     0.00000000   -0.00002426    0.00017245
     atom    2 type  2   force =     0.00000000    0.00015326   -0.00010224
     atom    3 type  3   force =     0.00000000   -0.00012900   -0.00007022
     The non-local contrib.  to forces
     atom    1 type  1   force =     0.00000000    0.00092095   -0.02474744
     atom    2 type  2   force =     0.00000000    0.00664969   -0.99290316
     atom    3 type  3   force =     0.00000000    0.00034305    0.21107065
     The ionic contribution  to forces
     atom    1 type  1   force =    -0.00000001    0.05048451   -0.53791938
     atom    2 type  2   force =     0.00000001   -0.03567351   24.50323829
     atom    3 type  3   force =     0.00000000   -0.01481099  -23.96531891
     The local contribution  to forces
     atom    1 type  1   force =    -0.00000000   -0.05138907    0.55875359
     atom    2 type  2   force =     0.00000027    0.02920053  -23.51365000
     atom    3 type  3   force =    -0.00000000    0.01429897   23.75682491
     The core correction contribution to forces
     atom    1 type  1   force =    -0.00000000   -0.00003929    0.00413618
     atom    2 type  2   force =     0.00000000   -0.00002278    0.00322466
     atom    3 type  3   force =    -0.00000000    0.00004083   -0.00265871
     The Hubbard contrib.    to forces
     atom    1 type  1   force =     0.00000000    0.00000000    0.00000000
     atom    2 type  2   force =     0.00000000    0.00000000    0.00000000
     atom    3 type  3   force =     0.00000000    0.00000000    0.00000000
     The SCF correction term to forces
     atom    1 type  1   force =     0.00000000   -0.00000047   -0.00005161
     atom    2 type  2   force =    -0.00000000    0.00000022   -0.00001313
     atom    3 type  3   force =     0.00000000    0.00000004    0.00001074

     Total force =     0.000293     Total SCF correction =     0.000054
     SCF correction compared to forces is large: reduce conv_thr to get better values
     Energy error            =      4.7E-07 Ry
     Gradient error          =      1.7E-04 Ry/Bohr

     number of scf cycles    =   5
     number of bfgs steps    =   4

     energy             old  =    -571.2345821458 Ry
     energy             new  =    -571.2345826135 Ry

     CASE: energy            _new < energy            _old

     new trust radius        =       0.0003166187 bohr
     new conv_thr            =            1.0E-10 Ry


ATOMIC_POSITIONS (angstrom)
Zr           -0.0000000000       -0.0057990150       10.1028166330
F            -0.0000000020        1.9337234637       11.4063314984
Br           -0.0000000020        1.9338833144        8.2090305817



     Writing config-only to output data dir ./tmp/ZrFBr.save/
     NEW-OLD atomic charge density approx. for the potential

     Check: negative core charge=   -0.000002

     negative rho (up, down):  3.148E-05 0.000E+00

     total cpu time spent up to now is       54.3 secs

     Self-consistent Calculation

     iteration #  1     ecut=    65.00 Ry     beta= 0.70
     Davidson diagonalization with overlap
     ethr =  1.00E-06,  avg # of iterations =  2.0

     Threshold (ethr) on eigenvalues was too large:
     Diagonalizing with lowered threshold

     Davidson diagonalization with overlap
     ethr =  5.82E-11,  avg # of iterations =  4.0

     negative rho (up, down):  3.152E-05 0.000E+00

     total cpu time spent up to now is       57.4 secs

     total energy              =    -571.23458269 Ry
     estimated scf accuracy    <       0.00000001 Ry

     iteration #  2     ecut=    65.00 Ry     beta= 0.70
     Davidson diagonalization with overlap
     ethr =  4.95E-11,  avg # of iterations =  2.0

     negative rho (up, down):  3.152E-05 0.000E+00

     total cpu time spent up to now is       58.8 secs

     total energy              =    -571.23458269 Ry
     estimated scf accuracy    <       0.00000002 Ry

     iteration #  3     ecut=    65.00 Ry     beta= 0.70
     Davidson diagonalization with overlap
     ethr =  4.95E-11,  avg # of iterations =  1.9

     negative rho (up, down):  3.152E-05 0.000E+00

     total cpu time spent up to now is       60.1 secs

     total energy              =    -571.23458269 Ry
     estimated scf accuracy    <          3.5E-09 Ry

     iteration #  4     ecut=    65.00 Ry     beta= 0.70
     Davidson diagonalization with overlap
     ethr =  1.34E-11,  avg # of iterations =  1.0

     negative rho (up, down):  3.152E-05 0.000E+00

     total cpu time spent up to now is       61.3 secs

     total energy              =    -571.23458269 Ry
     estimated scf accuracy    <          3.7E-10 Ry

     iteration #  5     ecut=    65.00 Ry     beta= 0.70
     Davidson diagonalization with overlap
     ethr =  1.43E-12,  avg # of iterations =  2.0

     negative rho (up, down):  3.152E-05 0.000E+00

     total cpu time spent up to now is       62.6 secs

     End of self-consistent calculation

          k = 0.0000 0.0000 0.0000 (  5811 PWs)   bands (ev):

   -45.4340 -23.9031 -23.1520 -23.1442 -20.6971 -13.0149  -3.1760  -2.4957
    -2.4850  -1.1602   1.3103   1.3458   3.7579   5.7565   5.8160   5.8628
     6.7342   6.7592   7.9027   8.7385  11.1075  13.9609  14.6064  14.6950
    15.2767  17.1896

          k = 0.0000 0.0718 0.0000 (  5772 PWs)   bands (ev):

   -45.4318 -23.8947 -23.1823 -23.1488 -20.6888 -12.9872  -3.1423  -2.5316
    -2.4847  -1.1384   1.0880   1.3060   3.7726   5.6951   5.8594   5.9595
     6.6891   6.8096   8.0265   8.9591  11.2411  14.0181  14.2374  14.8277
    15.1487  17.3914

          k = 0.0000 0.1436 0.0000 (  5780 PWs)   bands (ev):

   -45.4256 -23.8712 -23.2658 -23.1620 -20.6677 -12.9069  -3.0518  -2.6230
    -2.4849  -1.0860   0.5287   1.1967   3.7877   5.6043   5.9969   6.0594
     6.7709   6.9418   8.3606   9.4377  11.6276  13.5756  14.0085  14.9927
    15.2222  17.5986

          k = 0.0000 0.2154 0.0000 (  5814 PWs)   bands (ev):

   -45.4163 -23.8374 -23.3831 -23.1816 -20.6423 -12.7819  -2.9432  -2.7258
    -2.4882  -1.0358  -0.1681   1.0430   3.7467   5.5896   6.1083   6.2381
     7.0901   7.1160   8.8240   9.9299  12.0048  13.2096  13.6379  15.3478
    15.8637  17.2684

          k = 0.0000 0.2872 0.0000 (  5808 PWs)   bands (ev):

   -45.4053 -23.8045 -23.5060 -23.2046 -20.6207 -12.6263  -2.9388  -2.7259
    -2.4963  -1.1406  -0.7198   0.8753   3.6395   5.6876   6.2613   6.5731
     7.3002   7.5145   9.3047  10.3355  11.8691  12.8871  14.0837  15.8317
    16.3817  16.6506

          k = 0.0000 0.3590 0.0000 (  5824 PWs)   bands (ev):

   -45.3943 -23.7982 -23.5945 -23.2275 -20.6069 -12.4607  -3.0331  -2.6462
    -2.5087  -1.6635  -0.7724   0.7202   3.5190   5.8580   6.5221   6.9488
     7.4938   8.0114   9.6603  10.6176  11.7433  12.5696  14.6820  15.1737
    16.3357  16.3464

          k = 0.0000 0.4309 0.0000 (  5838 PWs)   bands (ev):

   -45.3849 -23.8419 -23.6149 -23.2468 -20.6005 -12.3112  -3.1265  -2.6000
    -2.5225  -2.1378  -0.7246   0.5972   3.4328   6.0679   6.7500   7.2429
     7.7446   8.5989   9.8114  10.8231  11.8504  12.4938  13.6854  15.0901
    15.5769  15.8228

          k = 0.0000 0.5027 0.0000 (  5810 PWs)   bands (ev):

   -45.3787 -23.8922 -23.6049 -23.2597 -20.5987 -12.2060  -3.2006  -2.6187
    -2.5332  -2.3957  -0.6838   0.5190   3.3906   6.2842   6.8119   7.3812
     8.0192   9.2390   9.8958  10.9827  11.8701  12.4259  13.0867  14.5434
    14.8762  15.3973

          k = 0.0000-0.5745 0.0000 (  5834 PWs)   bands (ev):

   -45.3765 -23.9118 -23.5989 -23.2642 -20.5985 -12.1679  -3.2319  -2.6578
    -2.5373  -2.4489  -0.6687   0.4922   3.3795   6.4040   6.7772   7.4185
     8.1396   9.5950   9.9478  11.1400  11.5157  12.3428  13.2516  14.0755
    14.6970  15.2280

          k = 0.0625 0.0359 0.0000 (  5791 PWs)   bands (ev):

   -45.4317 -23.8946 -23.1772 -23.1544 -20.6887 -12.9868  -3.1420  -2.5248
    -2.4922  -1.1379   1.1119   1.2793   3.7739   5.7295   5.8222   5.9601
     6.7022   6.7929   8.0287   8.9620  11.2427  14.0179  14.2830  14.7641
    15.1561  17.4124

          k = 0.0625 0.1077 0.0000 (  5776 PWs)   bands (ev):

   -45.4275 -23.8786 -23.2366 -23.1608 -20.6741 -12.9328  -3.0795  -2.5922
    -2.4886  -1.1009   0.7185   1.2080   3.7901   5.6271   5.9399   6.0606
     6.7040   6.9036   8.2571   9.3046  11.5110  13.7472  14.0598  14.9055
    15.1615  17.5039

          k = 0.0625 0.1795 0.0000 (  5782 PWs)   bands (ev):

   -45.4198 -23.8498 -23.3359 -23.1783 -20.6510 -12.8300  -2.9749  -2.6921
    -2.4918  -1.0481   0.1101   1.0557   3.7825   5.5513   6.1204   6.1635
     6.8806   7.0947   8.6566   9.7760  11.9882  13.2177  13.7462  15.0647
    15.7295  17.0975

          k = 0.0625 0.2513 0.0000 (  5795 PWs)   bands (ev):

   -45.4097 -23.8155 -23.4542 -23.2021 -20.6278 -12.6893  -2.8998  -2.7575
    -2.5012  -1.0360  -0.5301   0.8681   3.7176   5.5894   6.1893   6.4952
     7.1417   7.3873   9.1323  10.2259  12.1346  13.0484  13.5550  15.5207
    16.4050  16.6710

          k = 0.0625 0.3231 0.0000 (  5822 PWs)   bands (ev):

   -45.3987 -23.7925 -23.5601 -23.2280 -20.6105 -12.5280  -2.9711  -2.6855
    -2.5174  -1.3821  -0.7809   0.6808   3.6171   5.7509   6.3408   6.8700
     7.3699   7.8281   9.5640  10.5963  11.8902  12.7054  14.3428  15.4078
    16.0489  16.4816

          k = 0.0625 0.3950 0.0000 (  5829 PWs)   bands (ev):

   -45.3885 -23.8122 -23.6105 -23.2519 -20.6007 -12.3692  -3.0662  -2.6147
    -2.5403  -1.8979  -0.7496   0.5197   3.5309   5.9797   6.5543   7.1583
     7.6033   8.4120   9.8298  10.8593  11.8536  12.5163  14.2373  14.9581
    15.5934  16.4021

          k = 0.0625 0.4668 0.0000 (  5819 PWs)   bands (ev):

   -45.3807 -23.8640 -23.6085 -23.2702 -20.5969 -12.2405  -3.1461  -2.6189
    -2.5516  -2.2459  -0.7025   0.4028   3.4832   6.2186   6.7275   7.3038
     7.8297   9.1097   9.9535  11.0324  11.9604  12.5271  13.2533  14.6569
    15.0428  15.7577

          k = 0.0625 0.5386 0.0000 (  5820 PWs)   bands (ev):

   -45.3764 -23.8997 -23.5984 -23.2801 -20.5960 -12.1679  -3.1974  -2.6882
    -2.5456  -2.3730  -0.6741   0.3416   3.4669   6.4032   6.7740   7.3530
     7.9847   9.7024  10.0759  11.1684  11.7065  12.3770  13.1697  14.1583
    14.7323  15.2391

          k = 0.1250 0.0718 0.0000 (  5797 PWs)   bands (ev):

   -45.4254 -23.8707 -23.2613 -23.1684 -20.6676 -12.9053  -3.0509  -2.6169
    -2.4932  -1.0845   0.5497   1.1660   3.7932   5.6331   5.9566   6.0637
     6.7777   6.9260   8.3673   9.4434  11.6335  13.5948  14.0224  15.0020
    15.1615  17.5490

          k = 0.1250 0.1436 0.0000 (  5787 PWs)   bands (ev):

   -45.4197 -23.8494 -23.3337 -23.1818 -20.6510 -12.8288  -2.9742  -2.6895
    -2.4959  -1.0469   0.1213   1.0368   3.7874   5.5576   6.1142   6.1581
     6.8823   7.0882   8.6608   9.7786  11.9919  13.2263  13.7539  15.0674
    15.7051  17.0881

          k = 0.1250 0.2154 0.0000 (  5787 PWs)   bands (ev):

   -45.4111 -23.8195 -23.4305 -23.2075 -20.6304 -12.7101  -2.8778  -2.7715
    -2.5103  -1.0171  -0.4040   0.8069   3.7648   5.5184   6.2177   6.4791
     7.0284   7.3660   9.0755  10.1990  12.5472  12.8128  13.3489  15.3367
    16.3389  16.6351

          k = 0.1250 0.2872 0.0000 (  5800 PWs)   bands (ev):

   -45.4009 -23.7917 -23.5288 -23.2401 -20.6120 -12.5627  -2.9042  -2.7304
    -2.5352  -1.1763  -0.7649   0.5438   3.7252   5.5993   6.3274   6.8198
     7.2675   7.7634   9.5159  10.6318  12.3662  12.8389  13.5105  15.3131
    16.1037  16.5713

          k = 0.1250 0.3590 0.0000 (  5812 PWs)   bands (ev):

   -45.3907 -23.7895 -23.5948 -23.2735 -20.5993 -12.4065  -2.9916  -2.6425
    -2.5701  -1.6350  -0.7732   0.2996   3.6875   5.8143   6.4494   7.0375
     7.5452   8.3538   9.8797  11.0306  12.1282  12.6057  14.2962  14.6794
    15.3794  16.4198

          k = 0.1250 0.4309 0.0000 (  5824 PWs)   bands (ev):

   -45.3821 -23.8269 -23.6070 -23.3023 -20.5926 -12.2660  -3.0662  -2.6431
    -2.5711  -2.0174  -0.7279   0.1052   3.6713   6.1153   6.5583   7.1820
     7.7147   9.1159  10.1056  11.3243  12.0893  12.5658  13.6883  14.4021
    15.1422  16.2412

          k = 0.1250 0.5027 0.0000 (  5816 PWs)   bands (ev):

   -45.3763 -23.8678 -23.5969 -23.3217 -20.5901 -12.1675  -3.1175  -2.7284
    -2.5462  -2.2161  -0.6907  -0.0199   3.6744   6.3902   6.6499   7.2661
     7.7629   9.8741  10.2841  11.4530  12.0484  12.5164  13.0786  14.1635
    14.7895  15.5581

          k = 0.1250 0.5745 0.0000 (  5816 PWs)   bands (ev):

   -45.3743 -23.8838 -23.5914 -23.3286 -20.5895 -12.1320  -3.1367  -2.7744
    -2.5396  -2.2671  -0.6767  -0.0632   3.6788   6.4847   6.7220   7.2720
     7.7712  10.0901  10.6429  11.5520  11.6215  12.3871  13.2185  14.0063
    14.7628  15.0637

          k = 0.1250 0.0000 0.0000 (  5790 PWs)   bands (ev):

   -45.4274 -23.8783 -23.2326 -23.1662 -20.6740 -12.9316  -3.0789  -2.5865
    -2.4959  -1.0998   0.7333   1.1872   3.7931   5.6611   5.9010   6.0611
     6.6991   6.9001   8.2627   9.3091  11.5147  13.7674  14.0664  14.8878
    15.1335  17.5034

          k = 0.1875 0.1077 0.0000 (  5803 PWs)   bands (ev):

   -45.4159 -23.8364 -23.3796 -23.1887 -20.6423 -12.7784  -2.9415  -2.7213
    -2.4970  -1.0325  -0.1519   1.0082   3.7578   5.6036   6.1146   6.2037
     7.0908   7.1056   8.8349   9.9350  12.0105  13.2244  13.6555  15.3613
    15.8098  17.2190

          k = 0.1875 0.1795 0.0000 (  5812 PWs)   bands (ev):

   -45.4093 -23.8146 -23.4517 -23.2078 -20.6279 -12.6863  -2.8980  -2.7553
    -2.5078  -1.0320  -0.5178   0.8373   3.7285   5.5912   6.1889   6.4825
     7.1349   7.3872   9.1407  10.2281  12.1347  13.0607  13.5772  15.5334
    16.3763  16.6594

          k = 0.1875 0.2513 0.0000 (  5800 PWs)   bands (ev):

   -45.4007 -23.7911 -23.5277 -23.2431 -20.6120 -12.5608  -2.9028  -2.7302
    -2.5381  -1.1712  -0.7615   0.5271   3.7315   5.5980   6.3266   6.8171
     7.2621   7.7652   9.5202  10.6315  12.3621  12.8392  13.5345  15.3143
    16.1196  16.5785

          k = 0.1875 0.3231 0.0000 (  5826 PWs)   bands (ev):

   -45.3914 -23.7813 -23.5840 -23.2880 -20.5986 -12.4179  -2.9521  -2.6658
    -2.5808  -1.5026  -0.7855   0.1678   3.7699   5.6912   6.4989   6.9278
     7.5433   8.3408   9.9018  11.0963  12.4648  12.6905  13.7843  14.5833
    15.7177  16.1811

          k = 0.1875 0.3950 0.0000 (  5821 PWs)   bands (ev):

   -45.3827 -23.7997 -23.6016 -23.3334 -20.5894 -12.2785  -3.0059  -2.6679
    -2.5789  -1.8166  -0.7581  -0.1560   3.8310   5.8977   6.6212   6.9957
     7.7191   9.1252  10.2151  11.5505  12.3623  12.6779  13.8741  14.4137
    14.7878  15.8418

          k = 0.1875 0.4668 0.0000 (  5819 PWs)   bands (ev):

   -45.3761 -23.8308 -23.5942 -23.3700 -20.5843 -12.1665  -3.0495  -2.7400
    -2.5429  -2.0250  -0.7313  -0.3918   3.8955   6.1901   6.6219   7.1528
     7.7085   9.9762  10.4194  11.8473  12.2783  12.7817  13.3111  14.0616
    14.8346  15.6659

          k = 0.1875 0.5386 0.0000 (  5818 PWs)   bands (ev):

   -45.3725 -23.8512 -23.5853 -23.3904 -20.5822 -12.1037  -3.0739  -2.7986
    -2.5262  -2.1166  -0.7187  -0.5123   3.9380   6.4432   6.6021   7.2773
     7.5958  10.3029  11.0123  11.8747  12.0732  12.5271  13.2358  14.1113
    14.6583  15.2818

          k = 0.1875-0.0359 0.0000 (  5799 PWs)   bands (ev):

   -45.4195 -23.8490 -23.3329 -23.1845 -20.6510 -12.8270  -2.9735  -2.6877
    -2.5000  -1.0454   0.1209   1.0318   3.7893   5.5738   6.1163   6.1336
     6.8663   7.0982   8.6674   9.7813  11.9943  13.2255  13.7557  15.0608
    15.6955  17.0946

          k = 0.2500 0.1436 0.0000 (  5819 PWs)   bands (ev):

   -45.4047 -23.8029 -23.5038 -23.2125 -20.6209 -12.6205  -2.9364  -2.7236
    -2.5059  -1.1326  -0.7112   0.8362   3.6541   5.6899   6.2693   6.5459
     7.2852   7.5217   9.3186  10.3378  11.8702  12.9010  14.1138  15.8595
    16.4190  16.6027

          k = 0.2500 0.2154 0.0000 (  5824 PWs)   bands (ev):

   -45.3981 -23.7909 -23.5581 -23.2353 -20.6107 -12.5225  -2.9687  -2.6844
    -2.5254  -1.3718  -0.7749   0.6424   3.6317   5.7493   6.3415   6.8582
     7.3573   7.8343   9.5751  10.5950  11.8913  12.7177  14.3826  15.4414
    16.0547  16.4785

          k = 0.2500 0.2872 0.0000 (  5828 PWs)   bands (ev):

   -45.3903 -23.7883 -23.5935 -23.2789 -20.5996 -12.4021  -2.9898  -2.6440
    -2.5737  -1.6271  -0.7693   0.2718   3.6981   5.8123   6.4485   7.0325
     7.5385   8.3575   9.8869  11.0259  12.1273  12.6086  14.3246  14.7090
    15.4001  16.4232

          k = 0.2500 0.3590 0.0000 (  5825 PWs)   bands (ev):

   -45.3825 -23.7991 -23.6009 -23.3361 -20.5895 -12.2761  -3.0052  -2.6708
    -2.5783  -1.8130  -0.7565  -0.1691   3.8358   5.8976   6.6200   6.9941
     7.7172   9.1269  10.2187  11.5461  12.3638  12.6668  13.8782  14.4527
    14.8066  15.8186

          k = 0.2500 0.4309 0.0000 (  5832 PWs)   bands (ev):

   -45.3758 -23.8131 -23.5919 -23.3943 -20.5820 -12.1644  -3.0273  -2.7377
    -2.5410  -1.9139  -0.7933  -0.5347   4.0000   6.0487   6.6749   7.0613
     7.7227  10.0049  10.4814  11.8925  12.4083  13.0224  13.6302  14.1418
    14.5879  15.1587

          k = 0.2500 0.5027 0.0000 (  5799 PWs)   bands (ev):

   -45.3714 -23.8213 -23.5813 -23.4386 -20.5775 -12.0871  -3.0596  -2.7682
    -2.5136  -1.9505  -0.9802  -0.6415   4.1335   6.2632   6.5950   7.2283
     7.5952  10.4242  11.0279  11.8470  12.6895  13.1815  13.3386  13.9514
    14.5618  15.1320

          k = 0.2500 0.5745 0.0000 (  5800 PWs)   bands (ev):

   -45.3698 -23.8236 -23.5771 -23.4552 -20.5760 -12.0594  -3.0764  -2.7726
    -2.5037  -1.9562  -1.0816  -0.6505   4.1849   6.4052   6.5375   7.2750
     7.5254  10.3955  11.7593  11.9848  12.0213  13.1545  13.5488  13.9941
    14.5831  15.1994

          k = 0.2500-0.0718 0.0000 (  5816 PWs)   bands (ev):

   -45.4091 -23.8142 -23.4527 -23.2087 -20.6280 -12.6840  -2.8979  -2.7550
    -2.5101  -1.0314  -0.5241   0.8415   3.7273   5.5981   6.1890   6.4703
     7.1263   7.3951   9.1467  10.2295  12.1319  13.0570  13.5659  15.5260
    16.3988  16.6706

          k = 0.2500 0.0000 0.0000 (  5800 PWs)   bands (ev):

   -45.4106 -23.8185 -23.4306 -23.2110 -20.6306 -12.7060  -2.8767  -2.7702
    -2.5160  -1.0142  -0.4081   0.8007   3.7677   5.5298   6.2127   6.4613
     7.0148   7.3747   9.0870  10.2020  12.5476  12.8020  13.3486  15.3380
    16.3515  16.6368

          k = 0.3125 0.1795 0.0000 (  5829 PWs)   bands (ev):

   -45.3934 -23.7965 -23.5929 -23.2361 -20.6073 -12.4523  -3.0308  -2.6451
    -2.5192  -1.6567  -0.7653   0.6774   3.5346   5.8548   6.5288   6.9312
     7.4792   8.0217   9.6744  10.6152  11.7494  12.5851  14.7354  15.2052
    16.2811  16.3840

          k = 0.3125 0.2513 0.0000 (  5831 PWs)   bands (ev):

   -45.3876 -23.8106 -23.6087 -23.2603 -20.6012 -12.3611  -3.0636  -2.6156
    -2.5488  -1.8907  -0.7427   0.4769   3.5466   5.9764   6.5576   7.1464
     7.5930   8.4207   9.8404  10.8530  11.8620  12.5316  14.2864  14.9817
    15.5966  16.4167

          k = 0.3125 0.3231 0.0000 (  5828 PWs)   bands (ev):

   -45.3814 -23.8257 -23.6053 -23.3091 -20.5932 -12.2590  -3.0642  -2.6503
    -2.5706  -2.0127  -0.7223   0.0718   3.6833   6.1136   6.5592   7.1747
     7.7107   9.1215  10.1135  11.3106  12.0946  12.5750  13.7255  14.4083
    15.1791  16.2575

          k = 0.3125 0.3950 0.0000 (  5825 PWs)   bands (ev):

   -45.3756 -23.8303 -23.5930 -23.3745 -20.5847 -12.1614  -3.0489  -2.7435
    -2.5429  -2.0229  -0.7295  -0.4105   3.9020   6.1925   6.6204   7.1494
     7.7066   9.9828  10.4254  11.8334  12.2701  12.7814  13.3475  14.0590
    14.8712  15.6416

          k = 0.3125 0.4668 0.0000 (  5821 PWs)   bands (ev):

   -45.3712 -23.8214 -23.5807 -23.4405 -20.5778 -12.0844  -3.0602  -2.7692
    -2.5138  -1.9499  -0.9878  -0.6406   4.1352   6.2663   6.5944   7.2267
     7.5938  10.4323  11.0291  11.8416  12.6988  13.1743  13.3469  13.9283
    14.5751  15.1407

          k = 0.3125 0.5386 0.0000 (  5801 PWs)   bands (ev):

   -45.3688 -23.8086 -23.5741 -23.4844 -20.5739 -12.0419  -3.0889  -2.7446
    -2.4919  -1.8106  -1.3575  -0.6556   4.2926   6.3605   6.5261   7.2077
     7.5693  10.4041  11.7601  11.9348  12.7839  12.9908  13.7531  13.8933
    14.6877  15.3087

          k = 0.3125-0.1077 0.0000 (  5822 PWs)   bands (ev):

   -45.3978 -23.7909 -23.5594 -23.2352 -20.6110 -12.5201  -2.9697  -2.6840
    -2.5270  -1.3790  -0.7753   0.6504   3.6278   5.7500   6.3409   6.8565
     7.3574   7.8372   9.5799  10.5959  11.8868  12.7151  14.3606  15.4394
    16.0582  16.4873

          k = 0.3125-0.0359 0.0000 (  5801 PWs)   bands (ev):

   -45.4002 -23.7906 -23.5296 -23.2443 -20.6125 -12.5562  -2.9040  -2.7293
    -2.5420  -1.1791  -0.7644   0.5344   3.7282   5.6034   6.3203   6.8114
     7.2599   7.7709   9.5305  10.6338  12.3511  12.8340  13.5120  15.3242
    16.1338  16.5864

          k = 0.3750 0.2154 0.0000 (  5838 PWs)   bands (ev):

   -45.3838 -23.8410 -23.6128 -23.2561 -20.6013 -12.3003  -3.1241  -2.6009
    -2.5339  -2.1347  -0.7159   0.5516   3.4485   6.0632   6.7528   7.2307
     7.7359   8.6128   9.8229  10.8201  11.8651  12.5155  13.7286  15.1215
    15.6197  15.7667

          k = 0.3750 0.2872 0.0000 (  5825 PWs)   bands (ev):

   -45.3796 -23.8632 -23.6062 -23.2792 -20.5977 -12.2299  -3.1432  -2.6255
    -2.5562  -2.2438  -0.6940   0.3583   3.4987   6.2136   6.7324   7.2903
     7.8276   9.1201   9.9617  11.0260  11.9786  12.5522  13.2876  14.6662
    15.0726  15.7442

          k = 0.3750 0.3590 0.0000 (  5815 PWs)   bands (ev):

   -45.3754 -23.8674 -23.5948 -23.3292 -20.5909 -12.1581  -3.1154  -2.7350
    -2.5472  -2.2170  -0.6835  -0.0544   3.6858   6.3856   6.6561   7.2558
     7.7639   9.8872  10.2882  11.4340  12.0695  12.5412  13.0951  14.1700
    14.8213  15.5637

          k = 0.3750 0.4309 0.0000 (  5803 PWs)   bands (ev):

   -45.3718 -23.8514 -23.5836 -23.3955 -20.5830 -12.0962  -3.0740  -2.8027
    -2.5269  -2.1187  -0.7195  -0.5275   3.9436   6.4438   6.6063   7.2691
     7.5971  10.3217  11.0150  11.8726  12.0776  12.5219  13.2501  14.1213
    14.6724  15.2992

          k = 0.3750 0.5027 0.0000 (  5806 PWs)   bands (ev):

   -45.3694 -23.8245 -23.5760 -23.4576 -20.5766 -12.0544  -3.0778  -2.7752
    -2.5043  -1.9602  -1.0900  -0.6466   4.1852   6.4072   6.5419   7.2723
     7.5236  10.4114  11.7528  12.0010  12.0478  13.1110  13.5419  13.9926
    14.5940  15.2125

          k = 0.3750 0.5745 0.0000 (  5816 PWs)   bands (ev):

   -45.3685 -23.8097 -23.5737 -23.4847 -20.5742 -12.0396  -3.0897  -2.7464
    -2.4924  -1.8187  -1.3538  -0.6534   4.2907   6.3595   6.5302   7.2083
     7.5681  10.4121  11.7543  11.9747  12.7642  12.9870  13.7104  13.9162
    14.6941  15.3142

          k = 0.3750-0.1436 0.0000 (  5833 PWs)   bands (ev):

   -45.3874 -23.8115 -23.6091 -23.2598 -20.6016 -12.3589  -3.0650  -2.6148
    -2.5504  -1.8983  -0.7420   0.4852   3.5418   5.9746   6.5538   7.1505
     7.5962   8.4253   9.8450  10.8533  11.8599  12.5315  14.2807  14.9677
    15.6106  16.4011

          k = 0.3750-0.0718 0.0000 (  5816 PWs)   bands (ev):

   -45.3898 -23.7893 -23.5948 -23.2786 -20.6002 -12.3976  -2.9921  -2.6427
    -2.5774  -1.6420  -0.7680   0.2849   3.6909   5.8129   6.4448   7.0304
     7.5458   8.3646   9.8964  11.0283  12.1181  12.6054  14.3004  14.7040
    15.3924  16.4372

          k = 0.3750 0.0000 0.0000 (  5820 PWs)   bands (ev):

   -45.3907 -23.7818 -23.5854 -23.2897 -20.5994 -12.4110  -2.9540  -2.6654
    -2.5858  -1.5178  -0.7829   0.1738   3.7657   5.6938   6.4918   6.9239
     7.5488   8.3497   9.9160  11.0993  12.4590  12.6665  13.7721  14.5939
    15.7241  16.1999

          k = 0.4375 0.2513 0.0000 (  5814 PWs)   bands (ev):

   -45.3774 -23.8921 -23.6022 -23.2693 -20.5998 -12.1933  -3.1976  -2.6226
    -2.5454  -2.3943  -0.6740   0.4717   3.4064   6.2801   6.8094   7.3684
     8.0212   9.2562   9.9050  10.9844  11.8989  12.4589  13.1081  14.5703
    14.9163  15.3337

          k = 0.4375 0.3231 0.0000 (  5816 PWs)   bands (ev):

   -45.3752 -23.8997 -23.5958 -23.2893 -20.5971 -12.1555  -3.1942  -2.6955
    -2.5505  -2.3754  -0.6645   0.2976   3.4814   6.3988   6.7737   7.3404
     7.9903   9.7199  10.0774  11.1682  11.7450  12.4029  13.1834  14.1806
    14.7677  15.1967

          k = 0.4375 0.3950 0.0000 (  5814 PWs)   bands (ev):

   -45.3732 -23.8843 -23.5890 -23.3360 -20.5907 -12.1209  -3.1351  -2.7818
    -2.5415  -2.2719  -0.6688  -0.0951   3.6883   6.4813   6.7233   7.2619
     7.7770  10.1137  10.6440  11.5432  11.6490  12.4021  13.2297  14.0268
    14.7862  15.0537

          k = 0.4375 0.4668 0.0000 (  5809 PWs)   bands (ev):

   -45.3716 -23.8526 -23.5835 -23.3951 -20.5832 -12.0947  -3.0747  -2.8047
    -2.5271  -2.1233  -0.7197  -0.5219   3.9409   6.4411   6.6078   7.2646
     7.6044  10.3266  11.0449  11.8687  12.0579  12.5202  13.2529  14.1203
    14.6659  15.2895

          k = 0.4375 0.5386 0.0000 (  5810 PWs)   bands (ev):

   -45.3708 -23.8237 -23.5802 -23.4401 -20.5784 -12.0806  -3.0613  -2.7733
    -2.5144  -1.9625  -0.9820  -0.6350   4.1303   6.2635   6.6015   7.2180
     7.6033  10.4425  11.0695  11.8338  12.7033  13.1550  13.3240  13.9420
    14.5677  15.1271

          k = 0.4375-0.1795 0.0000 (  5825 PWs)   bands (ev):

   -45.3795 -23.8643 -23.6061 -23.2788 -20.5980 -12.2283  -3.1445  -2.6255
    -2.5569  -2.2488  -0.6934   0.3643   3.4950   6.2140   6.7233   7.2957
     7.8299   9.1294   9.9675  11.0254  11.9770  12.5549  13.2830  14.6575
    15.0750  15.7406

          k = 0.4375-0.1077 0.0000 (  5825 PWs)   bands (ev):

   -45.3810 -23.8279 -23.6054 -23.3083 -20.5938 -12.2553  -3.0665  -2.6513
    -2.5720  -2.0250  -0.7210   0.0844   3.6760   6.1112   6.5567   7.1717
     7.7213   9.1345  10.1256  11.3112  12.0903  12.5778  13.7146  14.4030
    15.1624  16.2446

          k = 0.4375-0.0359 0.0000 (  5828 PWs)   bands (ev):

   -45.3819 -23.8017 -23.6012 -23.3359 -20.5905 -12.2699  -3.0079  -2.6739
    -2.5797  -1.8317  -0.7542  -0.1552   3.8279   5.8979   6.6214   6.9840
     7.7301   9.1420  10.2358  11.5504  12.3646  12.6492  13.8793  14.4213
    14.7921  15.8307

          k =-0.5000-0.2872 0.0000 (  5826 PWs)   bands (ev):

   -45.3752 -23.9120 -23.5960 -23.2740 -20.5997 -12.1545  -3.2286  -2.6632
    -2.5497  -2.4478  -0.6584   0.4444   3.3953   6.4017   6.7710   7.4051
     8.1466   9.6166   9.9499  11.1462  11.5563  12.3701  13.2700  14.0999
    14.7369  15.1610

          k =-0.5000-0.2154 0.0000 (  5818 PWs)   bands (ev):

   -45.3752 -23.9001 -23.5957 -23.2892 -20.5972 -12.1550  -3.1948  -2.6958
    -2.5506  -2.3769  -0.6643   0.2998   3.4800   6.4010   6.7669   7.3434
     7.9904   9.7277  10.0799  11.1693  11.7382  12.4044  13.1870  14.1747
    14.7595  15.2031

          k =-0.5000-0.1436 0.0000 (  5816 PWs)   bands (ev):

   -45.3752 -23.8689 -23.5947 -23.3286 -20.5913 -12.1560  -3.1170  -2.7368
    -2.5477  -2.2229  -0.6830  -0.0468   3.6814   6.3876   6.6467   7.2561
     7.7710   9.8998  10.3043  11.4337  12.0577  12.5440  13.0947  14.1623
    14.8105  15.5611

          k =-0.5000-0.0718 0.0000 (  5811 PWs)   bands (ev):

   -45.3752 -23.8331 -23.5927 -23.3736 -20.5854 -12.1570  -3.0508  -2.7474
    -2.5436  -2.0364  -0.7287  -0.3971   3.8951   6.1891   6.6257   7.1377
     7.7210   9.9978  10.4516  11.8349  12.2704  12.7737  13.3307  14.0580
    14.8490  15.6381

          k =-0.5000-0.0000 0.0000 (  5842 PWs)   bands (ev):

   -45.3752 -23.8163 -23.5913 -23.3948 -20.5830 -12.1575  -3.0293  -2.7436
    -2.5418  -1.9315  -0.7915  -0.5237   3.9937   6.0489   6.6841   7.0434
     7.7370  10.0231  10.5131  11.8885  12.4241  12.9852  13.6257  14.1346
    14.5802  15.1473

     highest occupied, lowest unoccupied level (ev):     4.2926    5.5184

!    total energy              =    -571.23458269 Ry
     total all-electron energy =    -12610.611994 Ry
     estimated scf accuracy    <          3.3E-11 Ry

     The total energy is the sum of the following terms:
     one-electron contribution =    -278.17124082 Ry
     hartree contribution      =     147.57347776 Ry
     xc contribution           =     -36.34806541 Ry
     ewald contribution        =      -7.43368885 Ry
     one-center paw contrib.   =    -396.85506538 Ry

     convergence has been achieved in   5 iterations

     negative rho (up, down):  3.152E-05 0.000E+00

     Forces acting on atoms (cartesian axes, Ry/au):

     atom    1 type  1   force =     0.00000000    0.00001922    0.00006534
     atom    2 type  2   force =     0.00000000    0.00012396   -0.00004198
     atom    3 type  3   force =     0.00000000   -0.00014318   -0.00002336
     The non-local contrib.  to forces
     atom    1 type  1   force =     0.00000000    0.00095766   -0.02472231
     atom    2 type  2   force =     0.00000000    0.00680397   -0.99270083
     atom    3 type  3   force =     0.00000000    0.00033630    0.21107857
     The ionic contribution  to forces
     atom    1 type  1   force =    -0.00000001    0.05177250   -0.53796153
     atom    2 type  2   force =     0.00000001   -0.03680910   24.50303571
     atom    3 type  3   force =     0.00000000   -0.01496339  -23.96507417
     The local contribution  to forces
     atom    1 type  1   force =    -0.00000000   -0.05267128    0.55861375
     atom    2 type  2   force =     0.00000027    0.03015230  -23.51360226
     atom    3 type  3   force =    -0.00000000    0.01444238   23.75662242
     The core correction contribution to forces
     atom    1 type  1   force =    -0.00000000   -0.00003921    0.00413345
     atom    2 type  2   force =     0.00000000   -0.00002316    0.00322375
     atom    3 type  3   force =    -0.00000000    0.00004193   -0.00266082
     The Hubbard contrib.    to forces
     atom    1 type  1   force =     0.00000000    0.00000000    0.00000000
     atom    2 type  2   force =     0.00000000    0.00000000    0.00000000
     atom    3 type  3   force =     0.00000000    0.00000000    0.00000000
     The SCF correction term to forces
     atom    1 type  1   force =     0.00000000   -0.00000025   -0.00000245
     atom    2 type  2   force =    -0.00000000    0.00000015   -0.00000277
     atom    3 type  3   force =    -0.00000000   -0.00000021    0.00000620

     Total force =     0.000207     Total SCF correction =     0.000007
     Energy error            =      8.1E-08 Ry
     Gradient error          =      1.4E-04 Ry/Bohr

     number of scf cycles    =   6
     number of bfgs steps    =   5

     energy             old  =    -571.2345826135 Ry
     energy             new  =    -571.2345826945 Ry

     CASE: energy            _new < energy            _old

     new trust radius        =       0.0003482806 bohr
     new conv_thr            =            1.0E-10 Ry


ATOMIC_POSITIONS (angstrom)
Zr           -0.0000000000       -0.0058512207       10.1029107035
F            -0.0000000020        1.9338959005       11.4062664382
Br           -0.0000000020        1.9337630834        8.2090015713



     Writing config-only to output data dir ./tmp/ZrFBr.save/
     NEW-OLD atomic charge density approx. for the potential

     Check: negative core charge=   -0.000002

     negative rho (up, down):  3.148E-05 0.000E+00

     total cpu time spent up to now is       63.0 secs

     Self-consistent Calculation

     iteration #  1     ecut=    65.00 Ry     beta= 0.70
     Davidson diagonalization with overlap
     ethr =  1.00E-06,  avg # of iterations =  2.0

     Threshold (ethr) on eigenvalues was too large:
     Diagonalizing with lowered threshold

     Davidson diagonalization with overlap
     ethr =  4.83E-11,  avg # of iterations =  4.0

     negative rho (up, down):  3.152E-05 0.000E+00

     total cpu time spent up to now is       66.2 secs

     total energy              =    -571.23458276 Ry
     estimated scf accuracy    <       0.00000001 Ry

     iteration #  2     ecut=    65.00 Ry     beta= 0.70
     Davidson diagonalization with overlap
     ethr =  4.29E-11,  avg # of iterations =  2.0

     negative rho (up, down):  3.152E-05 0.000E+00

     total cpu time spent up to now is       67.6 secs

     total energy              =    -571.23458276 Ry
     estimated scf accuracy    <          8.2E-09 Ry

     iteration #  3     ecut=    65.00 Ry     beta= 0.70
     Davidson diagonalization with overlap
     ethr =  3.16E-11,  avg # of iterations =  2.0

     negative rho (up, down):  3.152E-05 0.000E+00

     total cpu time spent up to now is       68.9 secs

     total energy              =    -571.23458276 Ry
     estimated scf accuracy    <          4.4E-09 Ry

     iteration #  4     ecut=    65.00 Ry     beta= 0.70
     Davidson diagonalization with overlap
     ethr =  1.68E-11,  avg # of iterations =  1.0

     negative rho (up, down):  3.152E-05 0.000E+00

     total cpu time spent up to now is       70.1 secs

     total energy              =    -571.23458276 Ry
     estimated scf accuracy    <          2.5E-10 Ry

     iteration #  5     ecut=    65.00 Ry     beta= 0.70
     Davidson diagonalization with overlap
     ethr =  9.45E-13,  avg # of iterations =  2.0

     negative rho (up, down):  3.152E-05 0.000E+00

     total cpu time spent up to now is       71.4 secs

     End of self-consistent calculation

          k = 0.0000 0.0000 0.0000 (  5811 PWs)   bands (ev):

   -45.4338 -23.9031 -23.1518 -23.1441 -20.6975 -13.0144  -3.1763  -2.4964
    -2.4860  -1.1600   1.3111   1.3466   3.7582   5.7569   5.8162   5.8628
     6.7343   6.7597   7.9028   8.7385  11.1077  13.9610  14.6066  14.6954
    15.2761  17.1904

          k = 0.0000 0.0718 0.0000 (  5772 PWs)   bands (ev):

   -45.4316 -23.8947 -23.1821 -23.1487 -20.6892 -12.9867  -3.1426  -2.5322
    -2.4856  -1.1382   1.0888   1.3068   3.7730   5.6955   5.8596   5.9594
     6.6892   6.8101   8.0265   8.9591  11.2413  14.0181  14.2376  14.8282
    15.1482  17.3919

          k = 0.0000 0.1436 0.0000 (  5780 PWs)   bands (ev):

   -45.4254 -23.8711 -23.2657 -23.1618 -20.6681 -12.9063  -3.0521  -2.6236
    -2.4858  -1.0858   0.5294   1.1975   3.7882   5.6047   5.9971   6.0592
     6.7709   6.9423   8.3606   9.4376  11.6278  13.5758  14.0086  14.9924
    15.2226  17.5984

          k = 0.0000 0.2154 0.0000 (  5814 PWs)   bands (ev):

   -45.4162 -23.8374 -23.3829 -23.1815 -20.6428 -12.7813  -2.9436  -2.7263
    -2.4891  -1.0355  -0.1675   1.0438   3.7472   5.5899   6.1083   6.2383
     7.0900   7.1165   8.8240   9.9298  12.0049  13.2097  13.6381  15.3477
    15.8642  17.2681

          k = 0.0000 0.2872 0.0000 (  5808 PWs)   bands (ev):

   -45.4052 -23.8045 -23.5059 -23.2045 -20.6212 -12.6258  -2.9394  -2.7264
    -2.4972  -1.1400  -0.7194   0.8761   3.6401   5.6878   6.2614   6.5732
     7.3008   7.5143   9.3047  10.3354  11.8692  12.8870  14.0842  15.8316
    16.3815  16.6510

          k = 0.0000 0.3590 0.0000 (  5824 PWs)   bands (ev):

   -45.3942 -23.7982 -23.5943 -23.2274 -20.6073 -12.4601  -3.0336  -2.6466
    -2.5096  -1.6629  -0.7720   0.7209   3.5196   5.8581   6.5223   6.9488
     7.4944   8.0112   9.6603  10.6175  11.7433  12.5695  14.6821  15.1737
    16.3359  16.3464

          k = 0.0000 0.4309 0.0000 (  5838 PWs)   bands (ev):

   -45.3848 -23.8419 -23.6148 -23.2467 -20.6009 -12.3106  -3.1270  -2.6005
    -2.5233  -2.1373  -0.7242   0.5980   3.4334   6.0679   6.7501   7.2429
     7.7452   8.5988   9.8115  10.8231  11.8503  12.4937  13.6851  15.0901
    15.5770  15.8231

          k = 0.0000 0.5027 0.0000 (  5810 PWs)   bands (ev):

   -45.3785 -23.8921 -23.6047 -23.2595 -20.5991 -12.2054  -3.2011  -2.6189
    -2.5341  -2.3955  -0.6834   0.5197   3.3913   6.2841   6.8119   7.3813
     8.0197   9.2392   9.8959  10.9827  11.8699  12.4257  13.0865  14.5433
    14.8763  15.3977

          k = 0.0000-0.5745 0.0000 (  5834 PWs)   bands (ev):

   -45.3763 -23.9118 -23.5988 -23.2640 -20.5990 -12.1673  -3.2323  -2.6578
    -2.5382  -2.4489  -0.6683   0.4930   3.3801   6.4040   6.7772   7.4186
     8.1401   9.5953   9.9480  11.1400  11.5153  12.3425  13.2515  14.0753
    14.6970  15.2284

          k = 0.0625 0.0359 0.0000 (  5791 PWs)   bands (ev):

   -45.4316 -23.8946 -23.1771 -23.1542 -20.6892 -12.9863  -3.1423  -2.5256
    -2.4930  -1.1377   1.1127   1.2801   3.7743   5.7298   5.8225   5.9600
     6.7025   6.7931   8.0287   8.9620  11.2429  14.0180  14.2833  14.7644
    15.1556  17.4129

          k = 0.0625 0.1077 0.0000 (  5776 PWs)   bands (ev):

   -45.4274 -23.8786 -23.2364 -23.1607 -20.6745 -12.9323  -3.0798  -2.5928
    -2.4894  -1.1007   0.7192   1.2087   3.7905   5.6275   5.9401   6.0605
     6.7041   6.9040   8.2572   9.3045  11.5112  13.7474  14.0599  14.9054
    15.1617  17.5041

          k = 0.0625 0.1795 0.0000 (  5782 PWs)   bands (ev):

   -45.4196 -23.8498 -23.3357 -23.1782 -20.6515 -12.8295  -2.9752  -2.6927
    -2.4926  -1.0478   0.1107   1.0565   3.7830   5.5516   6.1204   6.1637
     6.8807   7.0950   8.6567   9.7760  11.9884  13.2179  13.7462  15.0647
    15.7299  17.0976

          k = 0.0625 0.2513 0.0000 (  5795 PWs)   bands (ev):

   -45.4095 -23.8155 -23.4540 -23.2020 -20.6283 -12.6888  -2.9003  -2.7580
    -2.5021  -1.0356  -0.5296   0.8689   3.7181   5.5896   6.1893   6.4953
     7.1422   7.3872   9.1323  10.2258  12.1347  13.0483  13.5554  15.5207
    16.4053  16.6713

          k = 0.0625 0.3231 0.0000 (  5822 PWs)   bands (ev):

   -45.3985 -23.7925 -23.5599 -23.2279 -20.6109 -12.5274  -2.9717  -2.6859
    -2.5183  -1.3814  -0.7806   0.6816   3.6176   5.7510   6.3410   6.8701
     7.3705   7.8279   9.5639  10.5962  11.8902  12.7053  14.3432  15.4077
    16.0490  16.4817

          k = 0.0625 0.3950 0.0000 (  5829 PWs)   bands (ev):

   -45.3883 -23.8122 -23.6104 -23.2518 -20.6011 -12.3687  -3.0667  -2.6152
    -2.5412  -1.8973  -0.7493   0.5204   3.5315   5.9798   6.5545   7.1584
     7.6039   8.4119   9.8299  10.8593  11.8536  12.5162  14.2371  14.9582
    15.5936  16.4022

          k = 0.0625 0.4668 0.0000 (  5819 PWs)   bands (ev):

   -45.3805 -23.8640 -23.6083 -23.2701 -20.5973 -12.2399  -3.1466  -2.6194
    -2.5523  -2.2456  -0.7021   0.4035   3.4838   6.2186   6.7276   7.3039
     7.8302   9.1097   9.9536  11.0323  11.9603  12.5271  13.2529  14.6570
    15.0428  15.7580

          k = 0.0625 0.5386 0.0000 (  5820 PWs)   bands (ev):

   -45.3763 -23.8997 -23.5983 -23.2800 -20.5965 -12.1673  -3.1978  -2.6884
    -2.5462  -2.3731  -0.6736   0.3423   3.4675   6.4032   6.7741   7.3531
     7.9852   9.7026  10.0760  11.1684  11.7063  12.3769  13.1695  14.1582
    14.7324  15.2393

          k = 0.1250 0.0718 0.0000 (  5797 PWs)   bands (ev):

   -45.4252 -23.8707 -23.2611 -23.1682 -20.6681 -12.9048  -3.0512  -2.6177
    -2.4939  -1.0842   0.5504   1.1667   3.7935   5.6334   5.9570   6.0637
     6.7779   6.9262   8.3673   9.4433  11.6338  13.5950  14.0224  15.0017
    15.1618  17.5486

          k = 0.1250 0.1436 0.0000 (  5787 PWs)   bands (ev):

   -45.4195 -23.8494 -23.3336 -23.1817 -20.6514 -12.8283  -2.9746  -2.6902
    -2.4967  -1.0467   0.1220   1.0375   3.7877   5.5580   6.1142   6.1584
     6.8824   7.0884   8.6608   9.7785  11.9922  13.2265  13.7540  15.0673
    15.7055  17.0882

          k = 0.1250 0.2154 0.0000 (  5787 PWs)   bands (ev):

   -45.4109 -23.8195 -23.4304 -23.2073 -20.6308 -12.7095  -2.8783  -2.7721
    -2.5111  -1.0167  -0.4034   0.8076   3.7652   5.5187   6.2178   6.4792
     7.0287   7.3660   9.0755  10.1989  12.5475  12.8130  13.3490  15.3368
    16.3391  16.6354

          k = 0.1250 0.2872 0.0000 (  5800 PWs)   bands (ev):

   -45.4008 -23.7917 -23.5286 -23.2399 -20.6124 -12.5622  -2.9048  -2.7308
    -2.5359  -1.1757  -0.7645   0.5445   3.7257   5.5996   6.3275   6.8199
     7.2681   7.7632   9.5159  10.6317  12.3663  12.8389  13.5109  15.3132
    16.1039  16.5711

          k = 0.1250 0.3590 0.0000 (  5812 PWs)   bands (ev):

   -45.3906 -23.7895 -23.5946 -23.2734 -20.5997 -12.4059  -2.9922  -2.6430
    -2.5708  -1.6344  -0.7728   0.3003   3.6881   5.8144   6.4494   7.0377
     7.5456   8.3536   9.8797  11.0306  12.1283  12.6057  14.2965  14.6795
    15.3793  16.4199

          k = 0.1250 0.4309 0.0000 (  5824 PWs)   bands (ev):

   -45.3819 -23.8269 -23.6068 -23.3022 -20.5930 -12.2654  -3.0667  -2.6437
    -2.5716  -2.0170  -0.7275   0.1058   3.6719   6.1153   6.5583   7.1822
     7.7150   9.1158  10.1057  11.3243  12.0893  12.5657  13.6881  14.4022
    15.1423  16.2413

          k = 0.1250 0.5027 0.0000 (  5816 PWs)   bands (ev):

   -45.3761 -23.8678 -23.5968 -23.3216 -20.5905 -12.1670  -3.1180  -2.7288
    -2.5467  -2.2160  -0.6903  -0.0193   3.6750   6.3902   6.6500   7.2663
     7.7633   9.8742  10.2842  11.4531  12.0484  12.5164  13.0783  14.1636
    14.7895  15.5582

          k = 0.1250 0.5745 0.0000 (  5816 PWs)   bands (ev):

   -45.3741 -23.8838 -23.5913 -23.3284 -20.5900 -12.1314  -3.1372  -2.7748
    -2.5402  -2.2671  -0.6763  -0.0625   3.6794   6.4847   6.7221   7.2721
     7.7716  10.0903  10.6430  11.5522  11.6212  12.3871  13.2182  14.0062
    14.7628  15.0638

          k = 0.1250 0.0000 0.0000 (  5790 PWs)   bands (ev):

   -45.4273 -23.8783 -23.2325 -23.1660 -20.6745 -12.9311  -3.0792  -2.5873
    -2.4965  -1.0995   0.7341   1.1879   3.7933   5.6613   5.9015   6.0610
     6.6995   6.9002   8.2627   9.3091  11.5150  13.7677  14.0665  14.8878
    15.1333  17.5036

          k = 0.1875 0.1077 0.0000 (  5803 PWs)   bands (ev):

   -45.4158 -23.8364 -23.3795 -23.1885 -20.6427 -12.7779  -2.9419  -2.7220
    -2.4977  -1.0321  -0.1513   1.0089   3.7580   5.6038   6.1149   6.2041
     7.0909   7.1057   8.8349   9.9349  12.0108  13.2245  13.6557  15.3611
    15.8102  17.2189

          k = 0.1875 0.1795 0.0000 (  5812 PWs)   bands (ev):

   -45.4092 -23.8146 -23.4516 -23.2077 -20.6283 -12.6857  -2.8985  -2.7558
    -2.5085  -1.0315  -0.5173   0.8380   3.7288   5.5915   6.1893   6.4827
     7.1350   7.3872   9.1406  10.2280  12.1350  13.0607  13.5775  15.5334
    16.3765  16.6596

          k = 0.1875 0.2513 0.0000 (  5800 PWs)   bands (ev):

   -45.4006 -23.7911 -23.5275 -23.2430 -20.6125 -12.5603  -2.9034  -2.7307
    -2.5389  -1.1706  -0.7612   0.5278   3.7319   5.5983   6.3268   6.8172
     7.2625   7.7650   9.5201  10.6314  12.3622  12.8393  13.5348  15.3144
    16.1197  16.5783

          k = 0.1875 0.3231 0.0000 (  5826 PWs)   bands (ev):

   -45.3912 -23.7813 -23.5838 -23.2879 -20.5990 -12.4174  -2.9527  -2.6663
    -2.5815  -1.5019  -0.7852   0.1685   3.7703   5.6915   6.4990   6.9281
     7.5437   8.3406   9.9017  11.0962  12.4648  12.6908  13.7846  14.5835
    15.7175  16.1811

          k = 0.1875 0.3950 0.0000 (  5821 PWs)   bands (ev):

   -45.3826 -23.7997 -23.6014 -23.3333 -20.5898 -12.2780  -3.0065  -2.6686
    -2.5794  -1.8160  -0.7576  -0.1554   3.8315   5.8979   6.6212   6.9961
     7.7192   9.1251  10.2150  11.5505  12.3623  12.6781  13.8743  14.4139
    14.7876  15.8417

          k = 0.1875 0.4668 0.0000 (  5819 PWs)   bands (ev):

   -45.3759 -23.8308 -23.5941 -23.3699 -20.5847 -12.1659  -3.0500  -2.7405
    -2.5434  -2.0247  -0.7308  -0.3913   3.8959   6.1903   6.6219   7.1532
     7.7086   9.9761  10.4194  11.8475  12.2784  12.7818  13.3110  14.0615
    14.8346  15.6657

          k = 0.1875 0.5386 0.0000 (  5818 PWs)   bands (ev):

   -45.3723 -23.8512 -23.5852 -23.3903 -20.5826 -12.1031  -3.0745  -2.7990
    -2.5267  -2.1163  -0.7181  -0.5118   3.9384   6.4433   6.6021   7.2775
     7.5960  10.3031  11.0123  11.8747  12.0734  12.5272  13.2355  14.1113
    14.6583  15.2818

          k = 0.1875-0.0359 0.0000 (  5799 PWs)   bands (ev):

   -45.4193 -23.8489 -23.3328 -23.1843 -20.6514 -12.8265  -2.9738  -2.6885
    -2.5006  -1.0451   0.1216   1.0325   3.7896   5.5740   6.1163   6.1341
     6.8666   7.0982   8.6674   9.7812  11.9947  13.2258  13.7558  15.0608
    15.6955  17.0946

          k = 0.2500 0.1436 0.0000 (  5819 PWs)   bands (ev):

   -45.4045 -23.8029 -23.5037 -23.2123 -20.6213 -12.6199  -2.9370  -2.7241
    -2.5065  -1.1320  -0.7108   0.8369   3.6543   5.6899   6.2699   6.5461
     7.2854   7.5215   9.3186  10.3377  11.8705  12.9010  14.1143  15.8594
    16.4188  16.6031

          k = 0.2500 0.2154 0.0000 (  5824 PWs)   bands (ev):

   -45.3979 -23.7910 -23.5580 -23.2352 -20.6111 -12.5219  -2.9693  -2.6848
    -2.5261  -1.3712  -0.7746   0.6431   3.6320   5.7493   6.3422   6.8583
     7.3576   7.8340   9.5751  10.5949  11.8915  12.7177  14.3830  15.4413
    16.0546  16.4787

          k = 0.2500 0.2872 0.0000 (  5828 PWs)   bands (ev):

   -45.3901 -23.7883 -23.5933 -23.2787 -20.6000 -12.4016  -2.9905  -2.6445
    -2.5743  -1.6265  -0.7690   0.2724   3.6983   5.8124   6.4489   7.0326
     7.5388   8.3573   9.8868  11.0259  12.1274  12.6087  14.3250  14.7091
    15.3999  16.4234

          k = 0.2500 0.3590 0.0000 (  5825 PWs)   bands (ev):

   -45.3823 -23.7991 -23.6008 -23.3359 -20.5899 -12.2755  -3.0058  -2.6714
    -2.5787  -1.8125  -0.7561  -0.1685   3.8361   5.8978   6.6201   6.9944
     7.7174   9.1268  10.2187  11.5461  12.3638  12.6670  13.8784  14.4529
    14.8064  15.8185

          k = 0.2500 0.4309 0.0000 (  5832 PWs)   bands (ev):

   -45.3757 -23.8131 -23.5918 -23.3942 -20.5824 -12.1638  -3.0279  -2.7382
    -2.5415  -1.9134  -0.7927  -0.5342   4.0003   6.0489   6.6750   7.0617
     7.7227  10.0048  10.4814  11.8928  12.4082  13.0226  13.6304  14.1416
    14.5881  15.1586

          k = 0.2500 0.5027 0.0000 (  5799 PWs)   bands (ev):

   -45.3712 -23.8213 -23.5812 -23.4384 -20.5779 -12.0865  -3.0602  -2.7687
    -2.5141  -1.9501  -0.9796  -0.6411   4.1338   6.2633   6.5951   7.2288
     7.5950  10.4243  11.0278  11.8473  12.6894  13.1816  13.3384  13.9513
    14.5619  15.1320

          k = 0.2500 0.5745 0.0000 (  5800 PWs)   bands (ev):

   -45.3697 -23.8235 -23.5770 -23.4551 -20.5764 -12.0588  -3.0769  -2.7731
    -2.5042  -1.9558  -1.0810  -0.6500   4.1852   6.4053   6.5376   7.2756
     7.5252  10.3957  11.7597  11.9846  12.0213  13.1546  13.5486  13.9941
    14.5830  15.1997

          k = 0.2500-0.0718 0.0000 (  5816 PWs)   bands (ev):

   -45.4089 -23.8142 -23.4526 -23.2086 -20.6285 -12.6835  -2.8984  -2.7556
    -2.5107  -1.0309  -0.5236   0.8421   3.7275   5.5982   6.1892   6.4708
     7.1266   7.3949   9.1466  10.2294  12.1322  13.0570  13.5663  15.5261
    16.3991  16.6703

          k = 0.2500 0.0000 0.0000 (  5800 PWs)   bands (ev):

   -45.4105 -23.8185 -23.4305 -23.2109 -20.6310 -12.7055  -2.8772  -2.7709
    -2.5166  -1.0138  -0.4076   0.8014   3.7678   5.5300   6.2127   6.4619
     7.0152   7.3745   9.0870  10.2019  12.5479  12.8023  13.3487  15.3381
    16.3518  16.6365

          k = 0.3125 0.1795 0.0000 (  5829 PWs)   bands (ev):

   -45.3933 -23.7965 -23.5928 -23.2360 -20.6077 -12.4517  -3.0314  -2.6455
    -2.5199  -1.6561  -0.7649   0.6780   3.5348   5.8547   6.5295   6.9314
     7.4795   8.0215   9.6744  10.6151  11.7496  12.5851  14.7355  15.2053
    16.2813  16.3841

          k = 0.3125 0.2513 0.0000 (  5831 PWs)   bands (ev):

   -45.3875 -23.8106 -23.6086 -23.2602 -20.6016 -12.3605  -3.0642  -2.6160
    -2.5494  -1.8901  -0.7424   0.4776   3.5468   5.9762   6.5583   7.1464
     7.5934   8.4204   9.8404  10.8530  11.8622  12.5317  14.2862  14.9819
    15.5968  16.4168

          k = 0.3125 0.3231 0.0000 (  5828 PWs)   bands (ev):

   -45.3812 -23.8257 -23.6052 -23.3090 -20.5935 -12.2584  -3.0648  -2.6508
    -2.5710  -2.0123  -0.7219   0.0724   3.6835   6.1135   6.5597   7.1747
     7.7110   9.1214  10.1136  11.3107  12.0946  12.5750  13.7253  14.4085
    15.1794  16.2575

          k = 0.3125 0.3950 0.0000 (  5825 PWs)   bands (ev):

   -45.3754 -23.8303 -23.5928 -23.3743 -20.5851 -12.1608  -3.0495  -2.7438
    -2.5433  -2.0226  -0.7291  -0.4099   3.9023   6.1926   6.6207   7.1496
     7.7067   9.9826  10.4255  11.8336  12.2701  12.7815  13.3474  14.0591
    14.8713  15.6415

          k = 0.3125 0.4668 0.0000 (  5821 PWs)   bands (ev):

   -45.3710 -23.8214 -23.5806 -23.4403 -20.5782 -12.0839  -3.0608  -2.7696
    -2.5142  -1.9495  -0.9872  -0.6401   4.1355   6.2665   6.5946   7.2271
     7.5937  10.4324  11.0290  11.8419  12.6987  13.1742  13.3470  13.9282
    14.5751  15.1408

          k = 0.3125 0.5386 0.0000 (  5801 PWs)   bands (ev):

   -45.3686 -23.8086 -23.5739 -23.4842 -20.5743 -12.0414  -3.0894  -2.7451
    -2.4924  -1.8101  -1.3570  -0.6552   4.2928   6.3605   6.5262   7.2084
     7.5691  10.4043  11.7605  11.9346  12.7836  12.9906  13.7533  13.8934
    14.6877  15.3087

          k = 0.3125-0.1077 0.0000 (  5822 PWs)   bands (ev):

   -45.3977 -23.7910 -23.5593 -23.2351 -20.6114 -12.5196  -2.9703  -2.6844
    -2.5276  -1.3784  -0.7750   0.6511   3.6279   5.7500   6.3413   6.8568
     7.3577   7.8369   9.5799  10.5958  11.8871  12.7151  14.3611  15.4393
    16.0583  16.4873

          k = 0.3125-0.0359 0.0000 (  5801 PWs)   bands (ev):

   -45.4001 -23.7906 -23.5295 -23.2441 -20.6129 -12.5556  -2.9047  -2.7297
    -2.5425  -1.1784  -0.7641   0.5351   3.7284   5.6036   6.3204   6.8117
     7.2603   7.7706   9.5305  10.6337  12.3513  12.8341  13.5124  15.3243
    16.1340  16.5862

          k = 0.3750 0.2154 0.0000 (  5838 PWs)   bands (ev):

   -45.3837 -23.8411 -23.6127 -23.2559 -20.6017 -12.2997  -3.1246  -2.6013
    -2.5345  -2.1343  -0.7155   0.5523   3.4487   6.0630   6.7533   7.2307
     7.7362   8.6127   9.8230  10.8201  11.8651  12.5154  13.7284  15.1216
    15.6197  15.7670

          k = 0.3750 0.2872 0.0000 (  5825 PWs)   bands (ev):

   -45.3795 -23.8633 -23.6060 -23.2791 -20.5981 -12.2293  -3.1437  -2.6259
    -2.5567  -2.2435  -0.6936   0.3589   3.4989   6.2134   6.7328   7.2902
     7.8280   9.1200   9.9618  11.0261  11.9787  12.5521  13.2874  14.6663
    15.0729  15.7442

          k = 0.3750 0.3590 0.0000 (  5815 PWs)   bands (ev):

   -45.3752 -23.8674 -23.5947 -23.3291 -20.5913 -12.1575  -3.1159  -2.7352
    -2.5477  -2.2168  -0.6830  -0.0538   3.6860   6.3854   6.6565   7.2557
     7.7642   9.8872  10.2883  11.4341  12.0696  12.5410  13.0951  14.1700
    14.8215  15.5636

          k = 0.3750 0.4309 0.0000 (  5803 PWs)   bands (ev):

   -45.3716 -23.8515 -23.5835 -23.3954 -20.5833 -12.0957  -3.0746  -2.8029
    -2.5273  -2.1185  -0.7190  -0.5270   3.9438   6.4437   6.6066   7.2692
     7.5972  10.3219  11.0150  11.8727  12.0777  12.5219  13.2502  14.1212
    14.6724  15.2990

          k = 0.3750 0.5027 0.0000 (  5806 PWs)   bands (ev):

   -45.3692 -23.8245 -23.5759 -23.4574 -20.5770 -12.0538  -3.0784  -2.7755
    -2.5048  -1.9599  -1.0894  -0.6461   4.1853   6.4071   6.5421   7.2728
     7.5234  10.4118  11.7530  12.0010  12.0477  13.1112  13.5420  13.9924
    14.5939  15.2124

          k = 0.3750 0.5745 0.0000 (  5816 PWs)   bands (ev):

   -45.3684 -23.8097 -23.5735 -23.4845 -20.5746 -12.0390  -3.0902  -2.7468
    -2.4928  -1.8183  -1.3533  -0.6529   4.2909   6.3595   6.5304   7.2088
     7.5678  10.4125  11.7547  11.9745  12.7642  12.9867  13.7107  13.9162
    14.6941  15.3139

          k = 0.3750-0.1436 0.0000 (  5833 PWs)   bands (ev):

   -45.3873 -23.8116 -23.6090 -23.2597 -20.6019 -12.3584  -3.0656  -2.6152
    -2.5509  -1.8978  -0.7416   0.4858   3.5420   5.9745   6.5542   7.1507
     7.5964   8.4252   9.8451  10.8533  11.8601  12.5315  14.2805  14.9679
    15.6107  16.4013

          k = 0.3750-0.0718 0.0000 (  5816 PWs)   bands (ev):

   -45.3897 -23.7894 -23.5947 -23.2784 -20.6006 -12.3970  -2.9927  -2.6431
    -2.5778  -1.6415  -0.7676   0.2856   3.6911   5.8130   6.4450   7.0305
     7.5460   8.3646   9.8965  11.0282  12.1183  12.6054  14.3007  14.7041
    15.3923  16.4374

          k = 0.3750 0.0000 0.0000 (  5820 PWs)   bands (ev):

   -45.3905 -23.7818 -23.5853 -23.2895 -20.5998 -12.4104  -2.9547  -2.6658
    -2.5862  -1.5172  -0.7826   0.1744   3.7658   5.6940   6.4920   6.9240
     7.5491   8.3497   9.9161  11.0992  12.4590  12.6668  13.7726  14.5940
    15.7239  16.2000

          k = 0.4375 0.2513 0.0000 (  5814 PWs)   bands (ev):

   -45.3773 -23.8921 -23.6020 -23.2692 -20.6002 -12.1927  -3.1980  -2.6228
    -2.5459  -2.3941  -0.6735   0.4724   3.4067   6.2800   6.8096   7.3684
     8.0214   9.2564   9.9051  10.9845  11.8988  12.4588  13.1080  14.5701
    14.9164  15.3342

          k = 0.4375 0.3231 0.0000 (  5816 PWs)   bands (ev):

   -45.3751 -23.8997 -23.5956 -23.2892 -20.5975 -12.1549  -3.1947  -2.6956
    -2.5509  -2.3754  -0.6641   0.2982   3.4817   6.3987   6.7738   7.3404
     7.9906   9.7201  10.0775  11.1683  11.7448  12.4028  13.1834  14.1804
    14.7680  15.1969

          k = 0.4375 0.3950 0.0000 (  5814 PWs)   bands (ev):

   -45.3730 -23.8844 -23.5889 -23.3359 -20.5910 -12.1203  -3.1356  -2.7819
    -2.5419  -2.2719  -0.6683  -0.0945   3.6885   6.4812   6.7235   7.2619
     7.7773  10.1141  10.6441  11.5432  11.6488  12.4022  13.2298  14.0265
    14.7863  15.0537

          k = 0.4375 0.4668 0.0000 (  5809 PWs)   bands (ev):

   -45.3715 -23.8527 -23.5833 -23.3949 -20.5836 -12.0941  -3.0753  -2.8049
    -2.5276  -2.1231  -0.7191  -0.5213   3.9411   6.4410   6.6080   7.2647
     7.6044  10.3269  11.0450  11.8689  12.0579  12.5203  13.2529  14.1200
    14.6658  15.2895

          k = 0.4375 0.5386 0.0000 (  5810 PWs)   bands (ev):

   -45.3707 -23.8238 -23.5801 -23.4399 -20.5788 -12.0800  -3.0619  -2.7736
    -2.5149  -1.9622  -0.9814  -0.6345   4.1305   6.2635   6.6016   7.2182
     7.6032  10.4428  11.0696  11.8342  12.7032  13.1550  13.3241  13.9418
    14.5676  15.1270

          k = 0.4375-0.1795 0.0000 (  5825 PWs)   bands (ev):

   -45.3793 -23.8644 -23.6060 -23.2786 -20.5984 -12.2278  -3.1450  -2.6257
    -2.5574  -2.2486  -0.6930   0.3650   3.4952   6.2138   6.7236   7.2958
     7.8299   9.1296   9.9676  11.0255  11.9771  12.5548  13.2829  14.6574
    15.0751  15.7408

          k = 0.4375-0.1077 0.0000 (  5825 PWs)   bands (ev):

   -45.3809 -23.8280 -23.6053 -23.3081 -20.5942 -12.2547  -3.0670  -2.6517
    -2.5724  -2.0246  -0.7206   0.0850   3.6762   6.1111   6.5569   7.1719
     7.7212   9.1346  10.1258  11.3113  12.0906  12.5778  13.7145  14.4030
    15.1626  16.2449

          k = 0.4375-0.0359 0.0000 (  5828 PWs)   bands (ev):

   -45.3817 -23.8018 -23.6011 -23.3357 -20.5908 -12.2693  -3.0085  -2.6743
    -2.5801  -1.8313  -0.7537  -0.1546   3.8280   5.8980   6.6215   6.9841
     7.7301   9.1421  10.2360  11.5504  12.3646  12.6494  13.8794  14.4215
    14.7920  15.8305

          k =-0.5000-0.2872 0.0000 (  5826 PWs)   bands (ev):

   -45.3750 -23.9120 -23.5959 -23.2738 -20.6001 -12.1539  -3.2289  -2.6632
    -2.5503  -2.4479  -0.6579   0.4450   3.3956   6.4016   6.7710   7.4051
     8.1468   9.6170   9.9501  11.1461  11.5561  12.3701  13.2700  14.0996
    14.7369  15.1616

          k =-0.5000-0.2154 0.0000 (  5818 PWs)   bands (ev):

   -45.3750 -23.9002 -23.5956 -23.2890 -20.5976 -12.1544  -3.1952  -2.6959
    -2.5511  -2.3769  -0.6639   0.3004   3.4803   6.4009   6.7670   7.3435
     7.9906   9.7281  10.0800  11.1694  11.7381  12.4044  13.1870  14.1745
    14.7595  15.2035

          k =-0.5000-0.1436 0.0000 (  5816 PWs)   bands (ev):

   -45.3750 -23.8690 -23.5945 -23.3284 -20.5917 -12.1554  -3.1175  -2.7369
    -2.5481  -2.2228  -0.6825  -0.0462   3.6816   6.3875   6.6470   7.2563
     7.7710   9.9001  10.3045  11.4338  12.0578  12.5439  13.0947  14.1621
    14.8105  15.5613

          k =-0.5000-0.0718 0.0000 (  5811 PWs)   bands (ev):

   -45.3750 -23.8331 -23.5925 -23.3734 -20.5858 -12.1565  -3.0514  -2.7477
    -2.5440  -2.0362  -0.7282  -0.3965   3.8952   6.1892   6.6258   7.1378
     7.7209   9.9978  10.4520  11.8352  12.2705  12.7738  13.3306  14.0578
    14.8490  15.6380

          k =-0.5000-0.0000 0.0000 (  5842 PWs)   bands (ev):

   -45.3751 -23.8164 -23.5911 -23.3946 -20.5834 -12.1569  -3.0299  -2.7439
    -2.5422  -1.9311  -0.7910  -0.5232   3.9938   6.0490   6.6843   7.0435
     7.7369  10.0231  10.5135  11.8890  12.4239  12.9855  13.6256  14.1344
    14.5805  15.1471

     highest occupied, lowest unoccupied level (ev):     4.2928    5.5187

!    total energy              =    -571.23458276 Ry
     total all-electron energy =    -12610.611994 Ry
     estimated scf accuracy    <          3.2E-11 Ry

     The total energy is the sum of the following terms:
     one-electron contribution =    -278.17497448 Ry
     hartree contribution      =     147.57540154 Ry
     xc contribution           =     -36.34806607 Ry
     ewald contribution        =      -7.43188058 Ry
     one-center paw contrib.   =    -396.85506318 Ry

     convergence has been achieved in   5 iterations

     negative rho (up, down):  3.152E-05 0.000E+00

     Forces acting on atoms (cartesian axes, Ry/au):

     atom    1 type  1   force =     0.00000000    0.00003025   -0.00002937
     atom    2 type  2   force =     0.00000000    0.00009892    0.00001092
     atom    3 type  3   force =     0.00000000   -0.00012917    0.00001845
     The non-local contrib.  to forces
     atom    1 type  1   force =     0.00000000    0.00097628   -0.02469478
     atom    2 type  2   force =     0.00000000    0.00692548   -0.99250387
     atom    3 type  3   force =     0.00000000    0.00034194    0.21108817
     The ionic contribution  to forces
     atom    1 type  1   force =    -0.00000001    0.05261641   -0.53801681
     atom    2 type  2   force =     0.00000001   -0.03771874   24.50282640
     atom    3 type  3   force =     0.00000000   -0.01489766  -23.96480959
     The local contribution  to forces
     atom    1 type  1   force =    -0.00000000   -0.05352368    0.55855229
     atom    2 type  2   force =     0.00000027    0.03091513  -23.51353464
     atom    3 type  3   force =    -0.00000000    0.01438498   23.75639117
     The core correction contribution to forces
     atom    1 type  1   force =    -0.00000000   -0.00003907    0.00413139
     atom    2 type  2   force =     0.00000000   -0.00002347    0.00322288
     atom    3 type  3   force =    -0.00000000    0.00004128   -0.00266331
     The Hubbard contrib.    to forces
     atom    1 type  1   force =     0.00000000    0.00000000    0.00000000
     atom    2 type  2   force =     0.00000000    0.00000000    0.00000000
     atom    3 type  3   force =     0.00000000    0.00000000    0.00000000
     The SCF correction term to forces
     atom    1 type  1   force =     0.00000000    0.00000020   -0.00000560
     atom    2 type  2   force =    -0.00000000    0.00000042   -0.00000399
     atom    3 type  3   force =    -0.00000000    0.00000019    0.00000787

     Total force =     0.000169     Total SCF correction =     0.000010
     Energy error            =      7.0E-08 Ry
     Gradient error          =      1.3E-04 Ry/Bohr

     number of scf cycles    =   7
     number of bfgs steps    =   6

     energy             old  =    -571.2345826945 Ry
     energy             new  =    -571.2345827650 Ry

     CASE: energy            _new < energy            _old

     new trust radius        =       0.0005224209 bohr
     new conv_thr            =            1.0E-10 Ry


ATOMIC_POSITIONS (angstrom)
Zr           -0.0000000000       -0.0058840065       10.1029980442
F            -0.0000000020        1.9341643055       11.4062002176
Br           -0.0000000020        1.9335274643        8.2089804511



     Writing config-only to output data dir ./tmp/ZrFBr.save/
     NEW-OLD atomic charge density approx. for the potential

     Check: negative core charge=   -0.000002

     negative rho (up, down):  3.149E-05 0.000E+00

     total cpu time spent up to now is       71.8 secs

     Self-consistent Calculation

     iteration #  1     ecut=    65.00 Ry     beta= 0.70
     Davidson diagonalization with overlap
     ethr =  1.00E-06,  avg # of iterations =  2.0

     Threshold (ethr) on eigenvalues was too large:
     Diagonalizing with lowered threshold

     Davidson diagonalization with overlap
     ethr =  7.64E-11,  avg # of iterations =  4.0

     negative rho (up, down):  3.152E-05 0.000E+00

     total cpu time spent up to now is       75.0 secs

     total energy              =    -571.23458283 Ry
     estimated scf accuracy    <       0.00000002 Ry

     iteration #  2     ecut=    65.00 Ry     beta= 0.70
     Davidson diagonalization with overlap
     ethr =  6.98E-11,  avg # of iterations =  2.0

     negative rho (up, down):  3.152E-05 0.000E+00

     total cpu time spent up to now is       76.4 secs

     total energy              =    -571.23458283 Ry
     estimated scf accuracy    <          6.5E-09 Ry

     iteration #  3     ecut=    65.00 Ry     beta= 0.70
     Davidson diagonalization with overlap
     ethr =  2.48E-11,  avg # of iterations =  2.0

     negative rho (up, down):  3.152E-05 0.000E+00

     total cpu time spent up to now is       77.7 secs

     total energy              =    -571.23458283 Ry
     estimated scf accuracy    <          8.2E-09 Ry

     iteration #  4     ecut=    65.00 Ry     beta= 0.70
     Davidson diagonalization with overlap
     ethr =  2.48E-11,  avg # of iterations =  1.0

     negative rho (up, down):  3.152E-05 0.000E+00

     total cpu time spent up to now is       78.9 secs

     total energy              =    -571.23458283 Ry
     estimated scf accuracy    <          3.0E-10 Ry

     iteration #  5     ecut=    65.00 Ry     beta= 0.70
     Davidson diagonalization with overlap
     ethr =  1.17E-12,  avg # of iterations =  2.0

     negative rho (up, down):  3.152E-05 0.000E+00

     total cpu time spent up to now is       80.3 secs

     End of self-consistent calculation

          k = 0.0000 0.0000 0.0000 (  5811 PWs)   bands (ev):

   -45.4336 -23.9030 -23.1516 -23.1439 -20.6980 -13.0139  -3.1766  -2.4969
    -2.4869  -1.1598   1.3116   1.3474   3.7585   5.7572   5.8164   5.8627
     6.7345   6.7602   7.9028   8.7384  11.1079  13.9610  14.6067  14.6959
    15.2756  17.1911

          k = 0.0000 0.0718 0.0000 (  5772 PWs)   bands (ev):

   -45.4315 -23.8947 -23.1819 -23.1485 -20.6897 -12.9862  -3.1429  -2.5328
    -2.4866  -1.1380   1.0894   1.3076   3.7734   5.6958   5.8598   5.9593
     6.6893   6.8106   8.0265   8.9591  11.2415  14.0181  14.2378  14.8287
    15.1477  17.3925

          k = 0.0000 0.1436 0.0000 (  5780 PWs)   bands (ev):

   -45.4253 -23.8711 -23.2655 -23.1617 -20.6686 -12.9058  -3.0525  -2.6241
    -2.4868  -1.0856   0.5300   1.1983   3.7886   5.6050   5.9973   6.0591
     6.7709   6.9428   8.3607   9.4376  11.6280  13.5759  14.0087  14.9921
    15.2231  17.5982

          k = 0.0000 0.2154 0.0000 (  5814 PWs)   bands (ev):

   -45.4160 -23.8374 -23.3827 -23.1813 -20.6432 -12.7808  -2.9440  -2.7268
    -2.4900  -1.0353  -0.1669   1.0446   3.7478   5.5903   6.1082   6.2384
     7.0899   7.1171   8.8241   9.9298  12.0050  13.2098  13.6383  15.3475
    15.8647  17.2676

          k = 0.0000 0.2872 0.0000 (  5808 PWs)   bands (ev):

   -45.4050 -23.8045 -23.5057 -23.2043 -20.6216 -12.6252  -2.9399  -2.7268
    -2.4981  -1.1396  -0.7190   0.8769   3.6407   5.6881   6.2613   6.5733
     7.3014   7.5141   9.3048  10.3354  11.8692  12.8867  14.0847  15.8315
    16.3814  16.6514

          k = 0.0000 0.3590 0.0000 (  5824 PWs)   bands (ev):

   -45.3940 -23.7982 -23.5941 -23.2272 -20.6077 -12.4596  -3.0341  -2.6471
    -2.5105  -1.6624  -0.7717   0.7217   3.5202   5.8583   6.5224   6.9488
     7.4951   8.0111   9.6605  10.6176  11.7432  12.5692  14.6823  15.1735
    16.3362  16.3465

          k = 0.0000 0.4309 0.0000 (  5838 PWs)   bands (ev):

   -45.3846 -23.8418 -23.6146 -23.2465 -20.6013 -12.3101  -3.1274  -2.6010
    -2.5243  -2.1368  -0.7239   0.5987   3.4340   6.0680   6.7503   7.2429
     7.7459   8.5988   9.8116  10.8231  11.8501  12.4935  13.6848  15.0901
    15.5771  15.8234

          k = 0.0000 0.5027 0.0000 (  5810 PWs)   bands (ev):

   -45.3784 -23.8921 -23.6046 -23.2594 -20.5996 -12.2049  -3.2015  -2.6192
    -2.5350  -2.3953  -0.6830   0.5205   3.3919   6.2843   6.8120   7.3814
     8.0203   9.2394   9.8960  10.9826  11.8697  12.4255  13.0862  14.5432
    14.8763  15.3980

          k = 0.0000-0.5745 0.0000 (  5834 PWs)   bands (ev):

   -45.3762 -23.9117 -23.5987 -23.2639 -20.5994 -12.1668  -3.2327  -2.6579
    -2.5391  -2.4490  -0.6679   0.4937   3.3807   6.4041   6.7773   7.4187
     8.1406   9.5956   9.9482  11.1400  11.5150  12.3421  13.2515  14.0752
    14.6970  15.2286

          k = 0.0625 0.0359 0.0000 (  5791 PWs)   bands (ev):

   -45.4314 -23.8945 -23.1769 -23.1541 -20.6896 -12.9858  -3.1426  -2.5264
    -2.4936  -1.1375   1.1134   1.2807   3.7746   5.7301   5.8229   5.9600
     6.7029   6.7933   8.0287   8.9620  11.2432  14.0180  14.2836  14.7647
    15.1552  17.4134

          k = 0.0625 0.1077 0.0000 (  5776 PWs)   bands (ev):

   -45.4272 -23.8785 -23.2363 -23.1605 -20.6750 -12.9318  -3.0802  -2.5935
    -2.4903  -1.1005   0.7198   1.2095   3.7908   5.6278   5.9403   6.0605
     6.7042   6.9044   8.2572   9.3045  11.5114  13.7475  14.0599  14.9053
    15.1620  17.5042

          k = 0.0625 0.1795 0.0000 (  5782 PWs)   bands (ev):

   -45.4195 -23.8497 -23.3355 -23.1780 -20.6519 -12.8290  -2.9756  -2.6933
    -2.4935  -1.0476   0.1113   1.0572   3.7834   5.5520   6.1204   6.1638
     6.8809   7.0953   8.6567   9.7759  11.9886  13.2181  13.7463  15.0646
    15.7303  17.0977

          k = 0.0625 0.2513 0.0000 (  5795 PWs)   bands (ev):

   -45.4094 -23.8155 -23.4538 -23.2018 -20.6287 -12.6883  -2.9008  -2.7584
    -2.5030  -1.0353  -0.5290   0.8697   3.7186   5.5900   6.1894   6.4954
     7.1426   7.3872   9.1324  10.2258  12.1347  13.0482  13.5558  15.5206
    16.4057  16.6715

          k = 0.0625 0.3231 0.0000 (  5822 PWs)   bands (ev):

   -45.3984 -23.7925 -23.5597 -23.2277 -20.6113 -12.5269  -2.9722  -2.6864
    -2.5192  -1.3809  -0.7802   0.6823   3.6182   5.7513   6.3410   6.8701
     7.3712   7.8278   9.5640  10.5963  11.8902  12.7050  14.3436  15.4075
    16.0490  16.4818

          k = 0.0625 0.3950 0.0000 (  5829 PWs)   bands (ev):

   -45.3882 -23.8121 -23.6102 -23.2516 -20.6016 -12.3682  -3.0672  -2.6157
    -2.5420  -1.8968  -0.7489   0.5212   3.5321   5.9800   6.5546   7.1584
     7.6046   8.4118   9.8300  10.8593  11.8534  12.5160  14.2370  14.9583
    15.5937  16.4023

          k = 0.0625 0.4668 0.0000 (  5819 PWs)   bands (ev):

   -45.3804 -23.8639 -23.6082 -23.2699 -20.5977 -12.2394  -3.1470  -2.6199
    -2.5530  -2.2453  -0.7017   0.4042   3.4845   6.2187   6.7277   7.3040
     7.8307   9.1098   9.9537  11.0323  11.9601  12.5270  13.2526  14.6571
    15.0428  15.7581

          k = 0.0625 0.5386 0.0000 (  5820 PWs)   bands (ev):

   -45.3761 -23.8996 -23.5982 -23.2798 -20.5969 -12.1668  -3.1982  -2.6887
    -2.5469  -2.3731  -0.6732   0.3430   3.4681   6.4033   6.7741   7.3532
     7.9857   9.7029  10.0761  11.1684  11.7060  12.3766  13.1694  14.1582
    14.7324  15.2395

          k = 0.1250 0.0718 0.0000 (  5797 PWs)   bands (ev):

   -45.4251 -23.8706 -23.2610 -23.1680 -20.6685 -12.9043  -3.0515  -2.6185
    -2.4945  -1.0840   0.5510   1.1673   3.7938   5.6337   5.9573   6.0638
     6.7782   6.9264   8.3673   9.4432  11.6341  13.5953  14.0225  15.0014
    15.1621  17.5483

          k = 0.1250 0.1436 0.0000 (  5787 PWs)   bands (ev):

   -45.4193 -23.8494 -23.3334 -23.1815 -20.6518 -12.8278  -2.9749  -2.6909
    -2.4974  -1.0464   0.1226   1.0382   3.7881   5.5583   6.1142   6.1588
     6.8825   7.0887   8.6608   9.7785  11.9925  13.2267  13.7540  15.0672
    15.7059  17.0882

          k = 0.1250 0.2154 0.0000 (  5787 PWs)   bands (ev):

   -45.4108 -23.8194 -23.4302 -23.2072 -20.6312 -12.7090  -2.8787  -2.7726
    -2.5119  -1.0164  -0.4029   0.8083   3.7657   5.5191   6.2179   6.4793
     7.0290   7.3660   9.0755  10.1989  12.5476  12.8132  13.3491  15.3367
    16.3394  16.6358

          k = 0.1250 0.2872 0.0000 (  5800 PWs)   bands (ev):

   -45.4006 -23.7917 -23.5284 -23.2398 -20.6128 -12.5617  -2.9053  -2.7313
    -2.5368  -1.1752  -0.7641   0.5452   3.7262   5.5999   6.3276   6.8200
     7.2686   7.7630   9.5159  10.6317  12.3664  12.8387  13.5112  15.3133
    16.1041  16.5709

          k = 0.1250 0.3590 0.0000 (  5812 PWs)   bands (ev):

   -45.3904 -23.7895 -23.5944 -23.2733 -20.6002 -12.4054  -2.9927  -2.6435
    -2.5715  -1.6339  -0.7724   0.3009   3.6886   5.8147   6.4495   7.0379
     7.5461   8.3535   9.8797  11.0306  12.1283  12.6055  14.2967  14.6796
    15.3793  16.4199

          k = 0.1250 0.4309 0.0000 (  5824 PWs)   bands (ev):

   -45.3818 -23.8268 -23.6067 -23.3020 -20.5935 -12.2649  -3.0672  -2.6444
    -2.5721  -2.0166  -0.7271   0.1065   3.6725   6.1156   6.5584   7.1825
     7.7153   9.1158  10.1057  11.3244  12.0893  12.5655  13.6880  14.4023
    15.1423  16.2413

          k = 0.1250 0.5027 0.0000 (  5816 PWs)   bands (ev):

   -45.3760 -23.8677 -23.5967 -23.3214 -20.5909 -12.1664  -3.1185  -2.7293
    -2.5473  -2.2158  -0.6899  -0.0186   3.6756   6.3904   6.6500   7.2665
     7.7637   9.8744  10.2841  11.4531  12.0484  12.5164  13.0779  14.1637
    14.7894  15.5582

          k = 0.1250 0.5745 0.0000 (  5816 PWs)   bands (ev):

   -45.3739 -23.8837 -23.5912 -23.3283 -20.5904 -12.1309  -3.1376  -2.7751
    -2.5408  -2.2670  -0.6759  -0.0619   3.6800   6.4849   6.7221   7.2722
     7.7721  10.0905  10.6430  11.5525  11.6208  12.3870  13.2179  14.0063
    14.7629  15.0638

          k = 0.1250 0.0000 0.0000 (  5790 PWs)   bands (ev):

   -45.4271 -23.8782 -23.2323 -23.1658 -20.6749 -12.9306  -3.0795  -2.5882
    -2.4971  -1.0993   0.7348   1.1885   3.7936   5.6615   5.9021   6.0609
     6.7000   6.9002   8.2627   9.3090  11.5153  13.7680  14.0666  14.8879
    15.1330  17.5040

          k = 0.1875 0.1077 0.0000 (  5803 PWs)   bands (ev):

   -45.4156 -23.8364 -23.3794 -23.1883 -20.6431 -12.7774  -2.9423  -2.7227
    -2.4983  -1.0318  -0.1507   1.0095   3.7583   5.6040   6.1152   6.2044
     7.0910   7.1057   8.8349   9.9348  12.0112  13.2246  13.6559  15.3610
    15.8105  17.2188

          k = 0.1875 0.1795 0.0000 (  5812 PWs)   bands (ev):

   -45.4090 -23.8146 -23.4515 -23.2075 -20.6287 -12.6852  -2.8990  -2.7564
    -2.5091  -1.0311  -0.5169   0.8387   3.7291   5.5917   6.1898   6.4829
     7.1351   7.3872   9.1406  10.2279  12.1352  13.0608  13.5777  15.5333
    16.3768  16.6599

          k = 0.1875 0.2513 0.0000 (  5800 PWs)   bands (ev):

   -45.4004 -23.7911 -23.5273 -23.2428 -20.6128 -12.5598  -2.9040  -2.7311
    -2.5396  -1.1700  -0.7609   0.5284   3.7322   5.5986   6.3272   6.8173
     7.2629   7.7648   9.5200  10.6313  12.3624  12.8395  13.5350  15.3144
    16.1197  16.5781

          k = 0.1875 0.3231 0.0000 (  5826 PWs)   bands (ev):

   -45.3911 -23.7813 -23.5836 -23.2878 -20.5994 -12.4169  -2.9533  -2.6667
    -2.5822  -1.5014  -0.7848   0.1691   3.7707   5.6918   6.4991   6.9283
     7.5440   8.3404   9.9016  11.0962  12.4648  12.6910  13.7849  14.5836
    15.7172  16.1812

          k = 0.1875 0.3950 0.0000 (  5821 PWs)   bands (ev):

   -45.3824 -23.7997 -23.6013 -23.3331 -20.5902 -12.2775  -3.0071  -2.6692
    -2.5798  -1.8155  -0.7572  -0.1549   3.8319   5.8982   6.6212   6.9966
     7.7194   9.1250  10.2150  11.5505  12.3623  12.6781  13.8745  14.4141
    14.7874  15.8416

          k = 0.1875 0.4668 0.0000 (  5819 PWs)   bands (ev):

   -45.3758 -23.8307 -23.5939 -23.3697 -20.5850 -12.1654  -3.0505  -2.7411
    -2.5439  -2.0243  -0.7303  -0.3908   3.8964   6.1905   6.6219   7.1536
     7.7087   9.9761  10.4194  11.8475  12.2785  12.7818  13.3108  14.0616
    14.8346  15.6655

          k = 0.1875 0.5386 0.0000 (  5818 PWs)   bands (ev):

   -45.3722 -23.8511 -23.5851 -23.3902 -20.5830 -12.1026  -3.0750  -2.7994
    -2.5272  -2.1161  -0.7176  -0.5114   3.9389   6.4436   6.6021   7.2778
     7.5962  10.3031  11.0122  11.8746  12.0737  12.5274  13.2350  14.1114
    14.6582  15.2817

          k = 0.1875-0.0359 0.0000 (  5799 PWs)   bands (ev):

   -45.4191 -23.8489 -23.3327 -23.1841 -20.6518 -12.8260  -2.9741  -2.6893
    -2.5012  -1.0447   0.1222   1.0331   3.7898   5.5742   6.1163   6.1348
     6.8670   7.0981   8.6673   9.7811  11.9950  13.2261  13.7559  15.0609
    15.6955  17.0946

          k = 0.2500 0.1436 0.0000 (  5819 PWs)   bands (ev):

   -45.4044 -23.8029 -23.5036 -23.2121 -20.6217 -12.6194  -2.9375  -2.7245
    -2.5071  -1.1314  -0.7105   0.8375   3.6545   5.6898   6.2706   6.5464
     7.2856   7.5213   9.3185  10.3375  11.8708  12.9011  14.1147  15.8593
    16.4187  16.6035

          k = 0.2500 0.2154 0.0000 (  5824 PWs)   bands (ev):

   -45.3978 -23.7910 -23.5578 -23.2350 -20.6115 -12.5214  -2.9699  -2.6852
    -2.5267  -1.3706  -0.7743   0.6437   3.6322   5.7493   6.3429   6.8584
     7.3579   7.8338   9.5749  10.5948  11.8917  12.7178  14.3833  15.4412
    16.0543  16.4789

          k = 0.2500 0.2872 0.0000 (  5828 PWs)   bands (ev):

   -45.3900 -23.7883 -23.5931 -23.2786 -20.6003 -12.4010  -2.9911  -2.6449
    -2.5749  -1.6260  -0.7687   0.2730   3.6986   5.8125   6.4495   7.0327
     7.5392   8.3570   9.8867  11.0258  12.1276  12.6088  14.3253  14.7090
    15.3998  16.4236

          k = 0.2500 0.3590 0.0000 (  5825 PWs)   bands (ev):

   -45.3822 -23.7991 -23.6006 -23.3358 -20.5903 -12.2750  -3.0064  -2.6720
    -2.5792  -1.8120  -0.7558  -0.1679   3.8364   5.8980   6.6204   6.9947
     7.7175   9.1266  10.2186  11.5461  12.3638  12.6672  13.8786  14.4530
    14.8063  15.8184

          k = 0.2500 0.4309 0.0000 (  5832 PWs)   bands (ev):

   -45.3755 -23.8131 -23.5916 -23.3941 -20.5828 -12.1633  -3.0284  -2.7387
    -2.5419  -1.9130  -0.7923  -0.5338   4.0007   6.0492   6.6750   7.0622
     7.7227  10.0047  10.4814  11.8930  12.4081  13.0227  13.6306  14.1413
    14.5882  15.1585

          k = 0.2500 0.5027 0.0000 (  5799 PWs)   bands (ev):

   -45.3711 -23.8213 -23.5811 -23.4383 -20.5783 -12.0860  -3.0607  -2.7691
    -2.5145  -1.9497  -0.9790  -0.6407   4.1341   6.2636   6.5952   7.2293
     7.5950  10.4243  11.0277  11.8477  12.6893  13.1817  13.3383  13.9513
    14.5619  15.1319

          k = 0.2500 0.5745 0.0000 (  5800 PWs)   bands (ev):

   -45.3695 -23.8235 -23.5768 -23.4550 -20.5768 -12.0583  -3.0775  -2.7736
    -2.5046  -1.9554  -1.0805  -0.6496   4.1856   6.4056   6.5376   7.2762
     7.5250  10.3957  11.7601  11.9842  12.0214  13.1547  13.5484  13.9942
    14.5830  15.2002

          k = 0.2500-0.0718 0.0000 (  5816 PWs)   bands (ev):

   -45.4088 -23.8141 -23.4525 -23.2084 -20.6288 -12.6830  -2.8989  -2.7562
    -2.5112  -1.0304  -0.5232   0.8427   3.7277   5.5983   6.1894   6.4715
     7.1270   7.3946   9.1466  10.2292  12.1325  13.0571  13.5666  15.5262
    16.3993  16.6700

          k = 0.2500 0.0000 0.0000 (  5800 PWs)   bands (ev):

   -45.4103 -23.8185 -23.4305 -23.2106 -20.6314 -12.7050  -2.8775  -2.7716
    -2.5171  -1.0133  -0.4071   0.8019   3.7680   5.5302   6.2126   6.4626
     7.0156   7.3743   9.0869  10.2017  12.5482  12.8027  13.3488  15.3383
    16.3520  16.6361

          k = 0.3125 0.1795 0.0000 (  5829 PWs)   bands (ev):

   -45.3931 -23.7965 -23.5927 -23.2358 -20.6081 -12.4512  -3.0320  -2.6459
    -2.5204  -1.6556  -0.7646   0.6786   3.5350   5.8546   6.5302   6.9315
     7.4798   8.0212   9.6744  10.6150  11.7498  12.5852  14.7355  15.2054
    16.2815  16.3842

          k = 0.3125 0.2513 0.0000 (  5831 PWs)   bands (ev):

   -45.3873 -23.8107 -23.6084 -23.2600 -20.6020 -12.3600  -3.0648  -2.6163
    -2.5500  -1.8896  -0.7420   0.4782   3.5471   5.9761   6.5591   7.1463
     7.5938   8.4201   9.8404  10.8530  11.8623  12.5318  14.2860  14.9822
    15.5971  16.4168

          k = 0.3125 0.3231 0.0000 (  5828 PWs)   bands (ev):

   -45.3811 -23.8258 -23.6050 -23.3088 -20.5939 -12.2579  -3.0653  -2.6512
    -2.5714  -2.0119  -0.7215   0.0730   3.6837   6.1134   6.5604   7.1748
     7.7113   9.1212  10.1136  11.3107  12.0947  12.5751  13.7252  14.4086
    15.1797  16.2574

          k = 0.3125 0.3950 0.0000 (  5825 PWs)   bands (ev):

   -45.3753 -23.8303 -23.5927 -23.3742 -20.5855 -12.1603  -3.0501  -2.7442
    -2.5437  -2.0222  -0.7286  -0.4094   3.9025   6.1927   6.6210   7.1499
     7.7068   9.9825  10.4256  11.8338  12.2701  12.7816  13.3473  14.0591
    14.8715  15.6414

          k = 0.3125 0.4668 0.0000 (  5821 PWs)   bands (ev):

   -45.3708 -23.8214 -23.5804 -23.4402 -20.5785 -12.0833  -3.0613  -2.7700
    -2.5146  -1.9492  -0.9867  -0.6397   4.1357   6.2666   6.5947   7.2276
     7.5936  10.4326  11.0288  11.8422  12.6986  13.1740  13.3473  13.9282
    14.5750  15.1409

          k = 0.3125 0.5386 0.0000 (  5801 PWs)   bands (ev):

   -45.3684 -23.8086 -23.5738 -23.4841 -20.5746 -12.0408  -3.0899  -2.7456
    -2.4928  -1.8096  -1.3565  -0.6547   4.2930   6.3606   6.5263   7.2090
     7.5689  10.4045  11.7609  11.9344  12.7834  12.9904  13.7534  13.8936
    14.6877  15.3088

          k = 0.3125-0.1077 0.0000 (  5822 PWs)   bands (ev):

   -45.3975 -23.7910 -23.5592 -23.2349 -20.6118 -12.5191  -2.9709  -2.6848
    -2.5281  -1.3778  -0.7747   0.6516   3.6281   5.7500   6.3416   6.8573
     7.3580   7.8367   9.5799  10.5957  11.8873  12.7152  14.3614  15.4392
    16.0585  16.4873

          k = 0.3125-0.0359 0.0000 (  5801 PWs)   bands (ev):

   -45.3999 -23.7906 -23.5294 -23.2439 -20.6133 -12.5551  -2.9053  -2.7301
    -2.5430  -1.1778  -0.7638   0.5356   3.7285   5.6038   6.3204   6.8122
     7.2608   7.7704   9.5305  10.6335  12.3516  12.8343  13.5128  15.3243
    16.1341  16.5861

          k = 0.3750 0.2154 0.0000 (  5838 PWs)   bands (ev):

   -45.3835 -23.8411 -23.6125 -23.2557 -20.6020 -12.2992  -3.1251  -2.6016
    -2.5351  -2.1338  -0.7151   0.5529   3.4489   6.0628   6.7538   7.2308
     7.7364   8.6126   9.8230  10.8202  11.8653  12.5155  13.7282  15.1217
    15.6198  15.7674

          k = 0.3750 0.2872 0.0000 (  5825 PWs)   bands (ev):

   -45.3793 -23.8633 -23.6059 -23.2789 -20.5985 -12.2288  -3.1442  -2.6262
    -2.5571  -2.2432  -0.6932   0.3595   3.4992   6.2132   6.7333   7.2901
     7.8284   9.1199   9.9618  11.0262  11.9787  12.5520  13.2873  14.6663
    15.0732  15.7442

          k = 0.3750 0.3590 0.0000 (  5815 PWs)   bands (ev):

   -45.3751 -23.8675 -23.5945 -23.3289 -20.5917 -12.1570  -3.1164  -2.7355
    -2.5481  -2.2167  -0.6826  -0.0532   3.6862   6.3851   6.6570   7.2557
     7.7646   9.8872  10.2884  11.4343  12.0696  12.5409  13.0952  14.1701
    14.8218  15.5633

          k = 0.3750 0.4309 0.0000 (  5803 PWs)   bands (ev):

   -45.3715 -23.8515 -23.5833 -23.3952 -20.5837 -12.0951  -3.0752  -2.8031
    -2.5277  -2.1183  -0.7186  -0.5264   3.9440   6.4435   6.6070   7.2693
     7.5974  10.3222  11.0149  11.8728  12.0778  12.5218  13.2503  14.1210
    14.6726  15.2988

          k = 0.3750 0.5027 0.0000 (  5806 PWs)   bands (ev):

   -45.3691 -23.8246 -23.5758 -23.4572 -20.5774 -12.0533  -3.0789  -2.7758
    -2.5052  -1.9596  -1.0889  -0.6457   4.1855   6.4070   6.5424   7.2732
     7.5232  10.4122  11.7532  12.0009  12.0476  13.1114  13.5421  13.9923
    14.5938  15.2122

          k = 0.3750 0.5745 0.0000 (  5816 PWs)   bands (ev):

   -45.3682 -23.8098 -23.5734 -23.4843 -20.5750 -12.0385  -3.0908  -2.7472
    -2.4932  -1.8179  -1.3528  -0.6525   4.2910   6.3594   6.5307   7.2093
     7.5677  10.4129  11.7550  11.9743  12.7642  12.9864  13.7109  13.9162
    14.6941  15.3135

          k = 0.3750-0.1436 0.0000 (  5833 PWs)   bands (ev):

   -45.3871 -23.8117 -23.6088 -23.2595 -20.6023 -12.3578  -3.0661  -2.6156
    -2.5514  -1.8973  -0.7412   0.4864   3.5422   5.9744   6.5545   7.1509
     7.5965   8.4251   9.8453  10.8532  11.8603  12.5316  14.2803  14.9681
    15.6108  16.4016

          k = 0.3750-0.0718 0.0000 (  5816 PWs)   bands (ev):

   -45.3895 -23.7894 -23.5945 -23.2782 -20.6010 -12.3965  -2.9933  -2.6436
    -2.5782  -1.6410  -0.7672   0.2861   3.6912   5.8130   6.4452   7.0307
     7.5462   8.3646   9.8967  11.0281  12.1185  12.6055  14.3009  14.7043
    15.3922  16.4377

          k = 0.3750 0.0000 0.0000 (  5820 PWs)   bands (ev):

   -45.3903 -23.7819 -23.5852 -23.2893 -20.6002 -12.4099  -2.9553  -2.6663
    -2.5866  -1.5167  -0.7822   0.1749   3.7659   5.6941   6.4920   6.9242
     7.5494   8.3497   9.9163  11.0991  12.4590  12.6671  13.7730  14.5942
    15.7238  16.2001

          k = 0.4375 0.2513 0.0000 (  5814 PWs)   bands (ev):

   -45.3771 -23.8922 -23.6019 -23.2690 -20.6005 -12.1921  -3.1984  -2.6229
    -2.5465  -2.3940  -0.6731   0.4729   3.4069   6.2798   6.8097   7.3685
     8.0216   9.2566   9.9053  10.9846  11.8988  12.4587  13.1080  14.5699
    14.9165  15.3347

          k = 0.4375 0.3231 0.0000 (  5816 PWs)   bands (ev):

   -45.3749 -23.8998 -23.5955 -23.2890 -20.5979 -12.1544  -3.1951  -2.6957
    -2.5514  -2.3755  -0.6636   0.2988   3.4819   6.3986   6.7739   7.3404
     7.9910   9.7204  10.0777  11.1684  11.7447  12.4029  13.1835  14.1801
    14.7683  15.1970

          k = 0.4375 0.3950 0.0000 (  5814 PWs)   bands (ev):

   -45.3729 -23.8844 -23.5887 -23.3357 -20.5914 -12.1198  -3.1360  -2.7820
    -2.5423  -2.2719  -0.6679  -0.0940   3.6887   6.4810   6.7236   7.2620
     7.7775  10.1144  10.6443  11.5433  11.6487  12.4023  13.2299  14.0262
    14.7864  15.0537

          k = 0.4375 0.4668 0.0000 (  5809 PWs)   bands (ev):

   -45.3713 -23.8527 -23.5832 -23.3947 -20.5840 -12.0935  -3.0758  -2.8050
    -2.5280  -2.1230  -0.7187  -0.5208   3.9412   6.4408   6.6083   7.2649
     7.6045  10.3274  11.0451  11.8691  12.0579  12.5204  13.2531  14.1197
    14.6657  15.2896

          k = 0.4375 0.5386 0.0000 (  5810 PWs)   bands (ev):

   -45.3705 -23.8239 -23.5800 -23.4397 -20.5791 -12.0794  -3.0624  -2.7738
    -2.5153  -1.9619  -0.9809  -0.6341   4.1305   6.2635   6.6018   7.2184
     7.6031  10.4432  11.0697  11.8346  12.7031  13.1550  13.3243  13.9415
    14.5675  15.1268

          k = 0.4375-0.1795 0.0000 (  5825 PWs)   bands (ev):

   -45.3792 -23.8645 -23.6058 -23.2784 -20.5987 -12.2272  -3.1454  -2.6260
    -2.5579  -2.2483  -0.6925   0.3655   3.4954   6.2137   6.7238   7.2961
     7.8298   9.1298   9.9678  11.0255  11.9773  12.5547  13.2828  14.6573
    15.0751  15.7412

          k = 0.4375-0.1077 0.0000 (  5825 PWs)   bands (ev):

   -45.3807 -23.8281 -23.6051 -23.3079 -20.5945 -12.2542  -3.0676  -2.6520
    -2.5728  -2.0243  -0.7201   0.0855   3.6764   6.1111   6.5571   7.1721
     7.7211   9.1348  10.1262  11.3113  12.0908  12.5779  13.7144  14.4030
    15.1627  16.2453

          k = 0.4375-0.0359 0.0000 (  5828 PWs)   bands (ev):

   -45.3816 -23.8019 -23.6009 -23.3355 -20.5912 -12.2688  -3.0091  -2.6747
    -2.5805  -1.8309  -0.7533  -0.1541   3.8281   5.8982   6.6216   6.9843
     7.7300   9.1421  10.2364  11.5504  12.3647  12.6496  13.8795  14.4218
    14.7919  15.8304

          k =-0.5000-0.2872 0.0000 (  5826 PWs)   bands (ev):

   -45.3749 -23.9121 -23.5957 -23.2736 -20.6005 -12.1534  -3.2293  -2.6632
    -2.5508  -2.4480  -0.6575   0.4456   3.3958   6.4015   6.7710   7.4052
     8.1469   9.6174   9.9503  11.1461  11.5560  12.3702  13.2699  14.0993
    14.7369  15.1621

          k =-0.5000-0.2154 0.0000 (  5818 PWs)   bands (ev):

   -45.3749 -23.9002 -23.5954 -23.2888 -20.5980 -12.1538  -3.1956  -2.6959
    -2.5516  -2.3770  -0.6634   0.3010   3.4805   6.4008   6.7670   7.3436
     7.9906   9.7285  10.0802  11.1694  11.7380  12.4045  13.1870  14.1742
    14.7594  15.2040

          k =-0.5000-0.1436 0.0000 (  5816 PWs)   bands (ev):

   -45.3749 -23.8691 -23.5944 -23.3282 -20.5921 -12.1549  -3.1180  -2.7371
    -2.5485  -2.2227  -0.6820  -0.0457   3.6818   6.3873   6.6471   7.2565
     7.7709   9.9004  10.3048  11.4340  12.0580  12.5439  13.0947  14.1619
    14.8104  15.5616

          k =-0.5000-0.0718 0.0000 (  5811 PWs)   bands (ev):

   -45.3749 -23.8332 -23.5924 -23.3732 -20.5862 -12.1559  -3.0519  -2.7479
    -2.5444  -2.0359  -0.7277  -0.3960   3.8953   6.1892   6.6259   7.1380
     7.7208   9.9979  10.4525  11.8356  12.2706  12.7740  13.3305  14.0575
    14.8491  15.6380

          k =-0.5000-0.0000 0.0000 (  5842 PWs)   bands (ev):

   -45.3749 -23.8165 -23.5910 -23.3944 -20.5838 -12.1564  -3.0305  -2.7442
    -2.5426  -1.9308  -0.7905  -0.5227   3.9939   6.0491   6.6844   7.0435
     7.7368  10.0231  10.5141  11.8895  12.4237  12.9858  13.6254  14.1343
    14.5807  15.1469

     highest occupied, lowest unoccupied level (ev):     4.2930    5.5191

!    total energy              =    -571.23458283 Ry
     total all-electron energy =    -12610.611994 Ry
     estimated scf accuracy    <          6.1E-11 Ry

     The total energy is the sum of the following terms:
     one-electron contribution =    -278.17950056 Ry
     hartree contribution      =     147.57771853 Ry
     xc contribution           =     -36.34807346 Ry
     ewald contribution        =      -7.42966585 Ry
     one-center paw contrib.   =    -396.85506149 Ry

     convergence has been achieved in   5 iterations

     negative rho (up, down):  3.152E-05 0.000E+00

     Forces acting on atoms (cartesian axes, Ry/au):

     atom    1 type  1   force =     0.00000000    0.00002643   -0.00011792
     atom    2 type  2   force =     0.00000000    0.00006440    0.00006246
     atom    3 type  3   force =     0.00000000   -0.00009083    0.00005546
     The non-local contrib.  to forces
     atom    1 type  1   force =     0.00000000    0.00099278   -0.02466943
     atom    2 type  2   force =     0.00000000    0.00708498   -0.99231341
     atom    3 type  3   force =     0.00000000    0.00035825    0.21109561
     The ionic contribution  to forces
     atom    1 type  1   force =    -0.00000001    0.05358756   -0.53804479
     atom    2 type  2   force =     0.00000001   -0.03892214   24.50266794
     atom    3 type  3   force =     0.00000000   -0.01466542  -23.96462315
     The local contribution  to forces
     atom    1 type  1   force =    -0.00000000   -0.05451569    0.55846898
     atom    2 type  2   force =     0.00000027    0.03192447  -23.51351012
     atom    3 type  3   force =    -0.00000000    0.01417645   23.75623079
     The core correction contribution to forces
     atom    1 type  1   force =    -0.00000000   -0.00003892    0.00412951
     atom    2 type  2   force =     0.00000000   -0.00002384    0.00322201
     atom    3 type  3   force =    -0.00000000    0.00003923   -0.00266551
     The Hubbard contrib.    to forces
     atom    1 type  1   force =     0.00000000    0.00000000    0.00000000
     atom    2 type  2   force =     0.00000000    0.00000000    0.00000000
     atom    3 type  3   force =     0.00000000    0.00000000    0.00000000
     The SCF correction term to forces
     atom    1 type  1   force =     0.00000000    0.00000051   -0.00000662
     atom    2 type  2   force =    -0.00000000    0.00000073   -0.00000837
     atom    3 type  3   force =    -0.00000000    0.00000046    0.00001332

     Total force =     0.000184     Total SCF correction =     0.000017
     Energy error            =      7.0E-08 Ry
     Gradient error          =      1.2E-04 Ry/Bohr

     number of scf cycles    =   8
     number of bfgs steps    =   7

     energy             old  =    -571.2345827650 Ry
     energy             new  =    -571.2345828346 Ry

     CASE: energy            _new < energy            _old

     new trust radius        =       0.0005278024 bohr
     new conv_thr            =            1.0E-10 Ry


ATOMIC_POSITIONS (angstrom)
Zr           -0.0000000000       -0.0058982872       10.1030153879
F            -0.0000000020        1.9344423873       11.4061741487
Br           -0.0000000020        1.9332636631        8.2089891764



     Writing config-only to output data dir ./tmp/ZrFBr.save/
     NEW-OLD atomic charge density approx. for the potential

     Check: negative core charge=   -0.000002

     negative rho (up, down):  3.152E-05 0.000E+00

     total cpu time spent up to now is       80.7 secs

     Self-consistent Calculation

     iteration #  1     ecut=    65.00 Ry     beta= 0.70
     Davidson diagonalization with overlap
     ethr =  1.00E-06,  avg # of iterations =  2.0

     Threshold (ethr) on eigenvalues was too large:
     Diagonalizing with lowered threshold

     Davidson diagonalization with overlap
     ethr =  5.85E-11,  avg # of iterations =  4.0

     negative rho (up, down):  3.153E-05 0.000E+00

     total cpu time spent up to now is       83.8 secs

     total energy              =    -571.23458288 Ry
     estimated scf accuracy    <       0.00000002 Ry

     iteration #  2     ecut=    65.00 Ry     beta= 0.70
     Davidson diagonalization with overlap
     ethr =  5.83E-11,  avg # of iterations =  2.0

     negative rho (up, down):  3.152E-05 0.000E+00

     total cpu time spent up to now is       85.2 secs

     total energy              =    -571.23458288 Ry
     estimated scf accuracy    <          2.7E-09 Ry

     iteration #  3     ecut=    65.00 Ry     beta= 0.70
     Davidson diagonalization with overlap
     ethr =  1.03E-11,  avg # of iterations =  2.0

     negative rho (up, down):  3.152E-05 0.000E+00

     total cpu time spent up to now is       86.6 secs

     total energy              =    -571.23458288 Ry
     estimated scf accuracy    <          4.7E-09 Ry

     iteration #  4     ecut=    65.00 Ry     beta= 0.70
     Davidson diagonalization with overlap
     ethr =  1.03E-11,  avg # of iterations =  1.3

     negative rho (up, down):  3.152E-05 0.000E+00

     total cpu time spent up to now is       87.9 secs

     total energy              =    -571.23458289 Ry
     estimated scf accuracy    <          1.9E-10 Ry

     iteration #  5     ecut=    65.00 Ry     beta= 0.70
     Davidson diagonalization with overlap
     ethr =  7.13E-13,  avg # of iterations =  2.0

     negative rho (up, down):  3.152E-05 0.000E+00

     total cpu time spent up to now is       89.2 secs

     End of self-consistent calculation

          k = 0.0000 0.0000 0.0000 (  5811 PWs)   bands (ev):

   -45.4336 -23.9030 -23.1515 -23.1439 -20.6981 -13.0138  -3.1767  -2.4969
    -2.4873  -1.1598   1.3116   1.3477   3.7587   5.7574   5.8165   5.8627
     6.7345   6.7603   7.9028   8.7384  11.1079  13.9610  14.6066  14.6962
    15.2755  17.1912

          k = 0.0000 0.0718 0.0000 (  5772 PWs)   bands (ev):

   -45.4314 -23.8946 -23.1818 -23.1485 -20.6898 -12.9861  -3.1430  -2.5328
    -2.4870  -1.1379   1.0894   1.3079   3.7735   5.6960   5.8599   5.9593
     6.6892   6.8107   8.0266   8.9591  11.2415  14.0181  14.2377  14.8290
    15.1476  17.3927

          k = 0.0000 0.1436 0.0000 (  5780 PWs)   bands (ev):

   -45.4252 -23.8711 -23.2654 -23.1617 -20.6687 -12.9057  -3.0526  -2.6241
    -2.4872  -1.0855   0.5300   1.1985   3.7888   5.6052   5.9973   6.0591
     6.7708   6.9431   8.3607   9.4377  11.6279  13.5760  14.0087  14.9920
    15.2234  17.5977

          k = 0.0000 0.2154 0.0000 (  5814 PWs)   bands (ev):

   -45.4159 -23.8374 -23.3826 -23.1813 -20.6434 -12.7807  -2.9442  -2.7268
    -2.4905  -1.0353  -0.1668   1.0449   3.7481   5.5905   6.1080   6.2384
     7.0898   7.1174   8.8241   9.9299  12.0049  13.2098  13.6384  15.3475
    15.8649  17.2668

          k = 0.0000 0.2872 0.0000 (  5808 PWs)   bands (ev):

   -45.4050 -23.8045 -23.5056 -23.2043 -20.6217 -12.6251  -2.9401  -2.7269
    -2.4985  -1.1396  -0.7188   0.8772   3.6410   5.6884   6.2610   6.5732
     7.3017   7.5141   9.3049  10.3355  11.8691  12.8865  14.0848  15.8314
    16.3814  16.6516

          k = 0.0000 0.3590 0.0000 (  5824 PWs)   bands (ev):

   -45.3939 -23.7982 -23.5941 -23.2272 -20.6079 -12.4595  -3.0343  -2.6472
    -2.5110  -1.6623  -0.7716   0.7220   3.5205   5.8586   6.5221   6.9488
     7.4955   8.0111   9.6606  10.6177  11.7430  12.5689  14.6825  15.1732
    16.3362  16.3465

          k = 0.0000 0.4309 0.0000 (  5838 PWs)   bands (ev):

   -45.3846 -23.8418 -23.6146 -23.2465 -20.6015 -12.3100  -3.1276  -2.6012
    -2.5247  -2.1367  -0.7238   0.5990   3.4344   6.0683   6.7501   7.2429
     7.7463   8.5990   9.8117  10.8231  11.8499  12.4933  13.6847  15.0900
    15.5772  15.8233

          k = 0.0000 0.5027 0.0000 (  5810 PWs)   bands (ev):

   -45.3783 -23.8920 -23.6046 -23.2593 -20.5997 -12.2048  -3.2016  -2.6194
    -2.5354  -2.3952  -0.6830   0.5208   3.3922   6.2845   6.8121   7.3815
     8.0206   9.2396   9.8960  10.9825  11.8696  12.4254  13.0860  14.5433
    14.8763  15.3979

          k = 0.0000-0.5745 0.0000 (  5834 PWs)   bands (ev):

   -45.3761 -23.9116 -23.5986 -23.2639 -20.5995 -12.1667  -3.2328  -2.6580
    -2.5395  -2.4490  -0.6678   0.4940   3.3810   6.4044   6.7773   7.4188
     8.1409   9.5958   9.9481  11.1400  11.5148  12.3417  13.2515  14.0752
    14.6969  15.2286

          k = 0.0625 0.0359 0.0000 (  5791 PWs)   bands (ev):

   -45.4314 -23.8945 -23.1769 -23.1540 -20.6898 -12.9857  -3.1427  -2.5266
    -2.4938  -1.1375   1.1135   1.2808   3.7747   5.7302   5.8229   5.9599
     6.7030   6.7934   8.0287   8.9620  11.2432  14.0180  14.2837  14.7647
    15.1553  17.4135

          k = 0.0625 0.1077 0.0000 (  5776 PWs)   bands (ev):

   -45.4272 -23.8785 -23.2362 -23.1605 -20.6751 -12.9317  -3.0803  -2.5936
    -2.4906  -1.1005   0.7199   1.2097   3.7910   5.6280   5.9402   6.0605
     6.7042   6.9045   8.2572   9.3045  11.5115  13.7475  14.0599  14.9052
    15.1622  17.5041

          k = 0.0625 0.1795 0.0000 (  5782 PWs)   bands (ev):

   -45.4194 -23.8497 -23.3355 -23.1780 -20.6520 -12.8288  -2.9757  -2.6933
    -2.4939  -1.0476   0.1114   1.0575   3.7836   5.5522   6.1203   6.1637
     6.8809   7.0955   8.6568   9.7760  11.9885  13.2182  13.7463  15.0645
    15.7305  17.0978

          k = 0.0625 0.2513 0.0000 (  5795 PWs)   bands (ev):

   -45.4093 -23.8155 -23.4538 -23.2018 -20.6288 -12.6882  -2.9010  -2.7585
    -2.5034  -1.0353  -0.5289   0.8699   3.7189   5.5902   6.1892   6.4952
     7.1429   7.3872   9.1325  10.2259  12.1346  13.0480  13.5560  15.5206
    16.4058  16.6717

          k = 0.0625 0.3231 0.0000 (  5822 PWs)   bands (ev):

   -45.3983 -23.7925 -23.5596 -23.2277 -20.6115 -12.5268  -2.9724  -2.6865
    -2.5196  -1.3808  -0.7801   0.6826   3.6186   5.7515   6.3408   6.8700
     7.3715   7.8278   9.5641  10.5964  11.8901  12.7048  14.3437  15.4074
    16.0491  16.4818

          k = 0.0625 0.3950 0.0000 (  5829 PWs)   bands (ev):

   -45.3881 -23.8121 -23.6101 -23.2516 -20.6017 -12.3681  -3.0673  -2.6159
    -2.5424  -1.8967  -0.7489   0.5214   3.5324   5.9802   6.5544   7.1584
     7.6049   8.4119   9.8301  10.8594  11.8533  12.5157  14.2370  14.9582
    15.5938  16.4023

          k = 0.0625 0.4668 0.0000 (  5819 PWs)   bands (ev):

   -45.3803 -23.8639 -23.6082 -23.2699 -20.5979 -12.2393  -3.1472  -2.6201
    -2.5534  -2.2452  -0.7017   0.4045   3.4848   6.2190   6.7276   7.3040
     7.8310   9.1099   9.9537  11.0323  11.9599  12.5270  13.2524  14.6572
    15.0427  15.7581

          k = 0.0625 0.5386 0.0000 (  5820 PWs)   bands (ev):

   -45.3761 -23.8995 -23.5982 -23.2798 -20.5970 -12.1667  -3.1983  -2.6888
    -2.5472  -2.3731  -0.6732   0.3433   3.4684   6.4036   6.7742   7.3533
     7.9860   9.7030  10.0760  11.1684  11.7059  12.3763  13.1692  14.1583
    14.7323  15.2394

          k = 0.1250 0.0718 0.0000 (  5797 PWs)   bands (ev):

   -45.4250 -23.8706 -23.2610 -23.1680 -20.6686 -12.9042  -3.0516  -2.6188
    -2.4946  -1.0839   0.5512   1.1674   3.7938   5.6338   5.9574   6.0639
     6.7783   6.9264   8.3673   9.4432  11.6342  13.5954  14.0226  15.0015
    15.1622  17.5479

          k = 0.1250 0.1436 0.0000 (  5787 PWs)   bands (ev):

   -45.4193 -23.8494 -23.3334 -23.1815 -20.6520 -12.8277  -2.9750  -2.6911
    -2.4977  -1.0463   0.1227   1.0384   3.7881   5.5585   6.1141   6.1590
     6.8824   7.0888   8.6608   9.7784  11.9926  13.2267  13.7540  15.0671
    15.7062  17.0883

          k = 0.1250 0.2154 0.0000 (  5787 PWs)   bands (ev):

   -45.4107 -23.8194 -23.4301 -23.2071 -20.6313 -12.7089  -2.8789  -2.7728
    -2.5122  -1.0164  -0.4028   0.8085   3.7658   5.5193   6.2180   6.4792
     7.0291   7.3661   9.0755  10.1989  12.5476  12.8132  13.3491  15.3367
    16.3395  16.6361

          k = 0.1250 0.2872 0.0000 (  5800 PWs)   bands (ev):

   -45.4006 -23.7917 -23.5283 -23.2397 -20.6130 -12.5616  -2.9054  -2.7314
    -2.5371  -1.1752  -0.7640   0.5454   3.7264   5.6001   6.3276   6.8199
     7.2689   7.7630   9.5159  10.6318  12.3664  12.8385  13.5114  15.3133
    16.1042  16.5708

          k = 0.1250 0.3590 0.0000 (  5812 PWs)   bands (ev):

   -45.3904 -23.7895 -23.5944 -23.2732 -20.6003 -12.4053  -2.9929  -2.6437
    -2.5719  -1.6338  -0.7724   0.3011   3.6889   5.8149   6.4494   7.0380
     7.5463   8.3535   9.8798  11.0307  12.1283  12.6052  14.2968  14.6797
    15.3793  16.4198

          k = 0.1250 0.4309 0.0000 (  5824 PWs)   bands (ev):

   -45.3817 -23.8267 -23.6066 -23.3020 -20.5936 -12.2648  -3.0674  -2.6448
    -2.5723  -2.0165  -0.7271   0.1067   3.6728   6.1158   6.5582   7.1826
     7.7156   9.1158  10.1057  11.3244  12.0892  12.5654  13.6880  14.4024
    15.1422  16.2412

          k = 0.1250 0.5027 0.0000 (  5816 PWs)   bands (ev):

   -45.3759 -23.8676 -23.5967 -23.3214 -20.5910 -12.1663  -3.1186  -2.7296
    -2.5475  -2.2158  -0.6898  -0.0184   3.6759   6.3908   6.6499   7.2666
     7.7640   9.8745  10.2840  11.4530  12.0484  12.5164  13.0775  14.1639
    14.7893  15.5582

          k = 0.1250 0.5745 0.0000 (  5816 PWs)   bands (ev):

   -45.3739 -23.8836 -23.5911 -23.3283 -20.5905 -12.1308  -3.1377  -2.7754
    -2.5410  -2.2670  -0.6758  -0.0617   3.6803   6.4853   6.7220   7.2723
     7.7724  10.0905  10.6430  11.5527  11.6205  12.3869  13.2176  14.0066
    14.7629  15.0637

          k = 0.1250 0.0000 0.0000 (  5790 PWs)   bands (ev):

   -45.4270 -23.8782 -23.2323 -23.1657 -20.6750 -12.9305  -3.0796  -2.5886
    -2.4971  -1.0992   0.7350   1.1884   3.7937   5.6615   5.9024   6.0608
     6.7003   6.9002   8.2626   9.3089  11.5154  13.7681  14.0667  14.8881
    15.1328  17.5044

          k = 0.1875 0.1077 0.0000 (  5803 PWs)   bands (ev):

   -45.4155 -23.8364 -23.3794 -23.1883 -20.6432 -12.7773  -2.9424  -2.7230
    -2.4984  -1.0317  -0.1506   1.0095   3.7583   5.6040   6.1153   6.2046
     7.0912   7.1056   8.8349   9.9347  12.0113  13.2247  13.6560  15.3610
    15.8105  17.2186

          k = 0.1875 0.1795 0.0000 (  5812 PWs)   bands (ev):

   -45.4090 -23.8146 -23.4514 -23.2075 -20.6288 -12.6851  -2.8992  -2.7565
    -2.5093  -1.0310  -0.5168   0.8388   3.7291   5.5918   6.1901   6.4829
     7.1350   7.3873   9.1406  10.2279  12.1354  13.0609  13.5777  15.5332
    16.3769  16.6602

          k = 0.1875 0.2513 0.0000 (  5800 PWs)   bands (ev):

   -45.4003 -23.7911 -23.5273 -23.2428 -20.6130 -12.5596  -2.9042  -2.7312
    -2.5398  -1.1699  -0.7608   0.5286   3.7323   5.5987   6.3274   6.8172
     7.2629   7.7648   9.5200  10.6313  12.3624  12.8396  13.5350  15.3144
    16.1196  16.5780

          k = 0.1875 0.3231 0.0000 (  5826 PWs)   bands (ev):

   -45.3910 -23.7813 -23.5836 -23.2878 -20.5995 -12.4168  -2.9534  -2.6669
    -2.5824  -1.5013  -0.7848   0.1693   3.7708   5.6919   6.4993   6.9284
     7.5441   8.3403   9.9015  11.0963  12.4648  12.6911  13.7849  14.5837
    15.7171  16.1812

          k = 0.1875 0.3950 0.0000 (  5821 PWs)   bands (ev):

   -45.3824 -23.7996 -23.6012 -23.3331 -20.5903 -12.2774  -3.0072  -2.6696
    -2.5800  -1.8154  -0.7571  -0.1547   3.8322   5.8983   6.6211   6.9968
     7.7196   9.1249  10.2149  11.5505  12.3624  12.6780  13.8746  14.4142
    14.7873  15.8416

          k = 0.1875 0.4668 0.0000 (  5819 PWs)   bands (ev):

   -45.3757 -23.8307 -23.5939 -23.3697 -20.5852 -12.1653  -3.0507  -2.7414
    -2.5441  -2.0242  -0.7302  -0.3907   3.8967   6.1907   6.6219   7.1538
     7.7089   9.9761  10.4193  11.8475  12.2786  12.7817  13.3107  14.0617
    14.8345  15.6654

          k = 0.1875 0.5386 0.0000 (  5818 PWs)   bands (ev):

   -45.3721 -23.8511 -23.5850 -23.3902 -20.5831 -12.1025  -3.0751  -2.7997
    -2.5274  -2.1160  -0.7174  -0.5113   3.9392   6.4439   6.6020   7.2779
     7.5964  10.3030  11.0122  11.8745  12.0739  12.5275  13.2346  14.1117
    14.6582  15.2817

          k = 0.1875-0.0359 0.0000 (  5799 PWs)   bands (ev):

   -45.4191 -23.8489 -23.3327 -23.1840 -20.6520 -12.8259  -2.9742  -2.6896
    -2.5012  -1.0446   0.1224   1.0330   3.7898   5.5742   6.1162   6.1352
     6.8673   7.0980   8.6673   9.7810  11.9952  13.2262  13.7560  15.0611
    15.6952  17.0946

          k = 0.2500 0.1436 0.0000 (  5819 PWs)   bands (ev):

   -45.4043 -23.8029 -23.5036 -23.2121 -20.6218 -12.6193  -2.9377  -2.7247
    -2.5072  -1.1312  -0.7104   0.8375   3.6545   5.6898   6.2709   6.5466
     7.2856   7.5213   9.3184  10.3374  11.8709  12.9013  14.1147  15.8593
    16.4186  16.6036

          k = 0.2500 0.2154 0.0000 (  5824 PWs)   bands (ev):

   -45.3977 -23.7910 -23.5578 -23.2349 -20.6116 -12.5213  -2.9701  -2.6853
    -2.5268  -1.3704  -0.7742   0.6438   3.6322   5.7493   6.3434   6.8583
     7.3578   7.8338   9.5749  10.5948  11.8918  12.7180  14.3834  15.4412
    16.0541  16.4791

          k = 0.2500 0.2872 0.0000 (  5828 PWs)   bands (ev):

   -45.3899 -23.7883 -23.5931 -23.2786 -20.6004 -12.4009  -2.9913  -2.6449
    -2.5751  -1.6258  -0.7686   0.2732   3.6986   5.8126   6.4498   7.0326
     7.5393   8.3569   9.8866  11.0258  12.1276  12.6090  14.3255  14.7090
    15.3997  16.4237

          k = 0.2500 0.3590 0.0000 (  5825 PWs)   bands (ev):

   -45.3821 -23.7991 -23.6006 -23.3358 -20.5904 -12.2749  -3.0066  -2.6721
    -2.5793  -1.8119  -0.7557  -0.1678   3.8365   5.8981   6.6205   6.9948
     7.7176   9.1265  10.2185  11.5461  12.3637  12.6674  13.8788  14.4530
    14.8063  15.8184

          k = 0.2500 0.4309 0.0000 (  5832 PWs)   bands (ev):

   -45.3755 -23.8131 -23.5916 -23.3941 -20.5829 -12.1632  -3.0286  -2.7389
    -2.5420  -1.9129  -0.7921  -0.5337   4.0008   6.0493   6.6751   7.0624
     7.7228  10.0046  10.4813  11.8930  12.4081  13.0228  13.6308  14.1412
    14.5882  15.1585

          k = 0.2500 0.5027 0.0000 (  5799 PWs)   bands (ev):

   -45.3710 -23.8213 -23.5810 -23.4383 -20.5784 -12.0859  -3.0609  -2.7694
    -2.5147  -1.9496  -0.9789  -0.6406   4.1343   6.2637   6.5952   7.2296
     7.5950  10.4242  11.0276  11.8478  12.6893  13.1819  13.3380  13.9514
    14.5620  15.1318

          k = 0.2500 0.5745 0.0000 (  5800 PWs)   bands (ev):

   -45.3695 -23.8235 -23.5768 -23.4550 -20.5769 -12.0582  -3.0776  -2.7738
    -2.5048  -1.9553  -1.0803  -0.6496   4.1858   6.4058   6.5375   7.2765
     7.5250  10.3955  11.7603  11.9840  12.0215  13.1547  13.5481  13.9943
    14.5830  15.2007

          k = 0.2500-0.0718 0.0000 (  5816 PWs)   bands (ev):

   -45.4087 -23.8141 -23.4525 -23.2083 -20.6289 -12.6829  -2.8991  -2.7564
    -2.5112  -1.0302  -0.5231   0.8427   3.7276   5.5983   6.1893   6.4719
     7.1271   7.3944   9.1465  10.2291  12.1327  13.0573  13.5668  15.5264
    16.3993  16.6697

          k = 0.2500 0.0000 0.0000 (  5800 PWs)   bands (ev):

   -45.4103 -23.8185 -23.4305 -23.2106 -20.6315 -12.7048  -2.8777  -2.7719
    -2.5171  -1.0131  -0.4070   0.8018   3.7679   5.5302   6.2124   6.4632
     7.0158   7.3741   9.0869  10.2016  12.5484  12.8029  13.3490  15.3384
    16.3520  16.6357

          k = 0.3125 0.1795 0.0000 (  5829 PWs)   bands (ev):

   -45.3931 -23.7965 -23.5926 -23.2357 -20.6082 -12.4511  -3.0322  -2.6460
    -2.5205  -1.6554  -0.7645   0.6786   3.5349   5.8545   6.5305   6.9316
     7.4797   8.0211   9.6744  10.6150  11.7499  12.5854  14.7354  15.2055
    16.2816  16.3842

          k = 0.3125 0.2513 0.0000 (  5831 PWs)   bands (ev):

   -45.3873 -23.8107 -23.6084 -23.2599 -20.6021 -12.3599  -3.0650  -2.6164
    -2.5501  -1.8895  -0.7419   0.4782   3.5470   5.9759   6.5597   7.1462
     7.5940   8.4200   9.8403  10.8530  11.8624  12.5319  14.2859  14.9823
    15.5973  16.4168

          k = 0.3125 0.3231 0.0000 (  5828 PWs)   bands (ev):

   -45.3810 -23.8258 -23.6050 -23.3088 -20.5940 -12.2578  -3.0655  -2.6513
    -2.5715  -2.0118  -0.7215   0.0731   3.6837   6.1133   6.5608   7.1747
     7.7115   9.1210  10.1135  11.3108  12.0947  12.5752  13.7252  14.4087
    15.1799  16.2573

          k = 0.3125 0.3950 0.0000 (  5825 PWs)   bands (ev):

   -45.3752 -23.8303 -23.5926 -23.3741 -20.5856 -12.1602  -3.0502  -2.7443
    -2.5438  -2.0222  -0.7286  -0.4093   3.9025   6.1927   6.6212   7.1499
     7.7069   9.9824  10.4255  11.8339  12.2701  12.7817  13.3473  14.0592
    14.8717  15.6414

          k = 0.3125 0.4668 0.0000 (  5821 PWs)   bands (ev):

   -45.3708 -23.8214 -23.5804 -23.4402 -20.5786 -12.0832  -3.0615  -2.7702
    -2.5147  -1.9491  -0.9866  -0.6396   4.1357   6.2667   6.5948   7.2278
     7.5936  10.4325  11.0287  11.8423  12.6986  13.1738  13.3475  13.9283
    14.5749  15.1411

          k = 0.3125 0.5386 0.0000 (  5801 PWs)   bands (ev):

   -45.3684 -23.8086 -23.5737 -23.4840 -20.5747 -12.0407  -3.0901  -2.7457
    -2.4930  -1.8095  -1.3564  -0.6546   4.2931   6.3607   6.5263   7.2092
     7.5689  10.4045  11.7610  11.9344  12.7832  12.9904  13.7535  13.8937
    14.6878  15.3089

          k = 0.3125-0.1077 0.0000 (  5822 PWs)   bands (ev):

   -45.3975 -23.7910 -23.5592 -23.2348 -20.6119 -12.5189  -2.9711  -2.6850
    -2.5282  -1.3776  -0.7745   0.6516   3.6280   5.7499   6.3416   6.8576
     7.3580   7.8366   9.5799  10.5956  11.8875  12.7154  14.3615  15.4392
    16.0587  16.4873

          k = 0.3125-0.0359 0.0000 (  5801 PWs)   bands (ev):

   -45.3998 -23.7906 -23.5294 -23.2438 -20.6134 -12.5550  -2.9055  -2.7303
    -2.5430  -1.1776  -0.7637   0.5355   3.7284   5.6038   6.3203   6.8126
     7.2609   7.7703   9.5305  10.6334  12.3518  12.8345  13.5130  15.3244
    16.1342  16.5862

          k = 0.3750 0.2154 0.0000 (  5838 PWs)   bands (ev):

   -45.3835 -23.8412 -23.6125 -23.2557 -20.6021 -12.2991  -3.1252  -2.6017
    -2.5351  -2.1338  -0.7150   0.5529   3.4489   6.0627   6.7540   7.2309
     7.7364   8.6126   9.8231  10.8202  11.8654  12.5156  13.7282  15.1218
    15.6198  15.7675

          k = 0.3750 0.2872 0.0000 (  5825 PWs)   bands (ev):

   -45.3792 -23.8634 -23.6058 -23.2789 -20.5986 -12.2286  -3.1443  -2.6263
    -2.5572  -2.2432  -0.6931   0.3596   3.4991   6.2131   6.7337   7.2900
     7.8287   9.1197   9.9618  11.0263  11.9788  12.5521  13.2873  14.6664
    15.0735  15.7441

          k = 0.3750 0.3590 0.0000 (  5815 PWs)   bands (ev):

   -45.3750 -23.8675 -23.5945 -23.3288 -20.5918 -12.1569  -3.1166  -2.7355
    -2.5481  -2.2167  -0.6825  -0.0531   3.6862   6.3849   6.6574   7.2555
     7.7648   9.8871  10.2885  11.4344  12.0696  12.5409  13.0953  14.1701
    14.8220  15.5631

          k = 0.3750 0.4309 0.0000 (  5803 PWs)   bands (ev):

   -45.3714 -23.8516 -23.5833 -23.3951 -20.5838 -12.0950  -3.0754  -2.8031
    -2.5278  -2.1183  -0.7185  -0.5263   3.9440   6.4434   6.6072   7.2693
     7.5975  10.3223  11.0149  11.8729  12.0778  12.5218  13.2505  14.1209
    14.6727  15.2987

          k = 0.3750 0.5027 0.0000 (  5806 PWs)   bands (ev):

   -45.3690 -23.8246 -23.5757 -23.4572 -20.5775 -12.0532  -3.0791  -2.7759
    -2.5053  -1.9596  -1.0888  -0.6455   4.1854   6.4069   6.5426   7.2733
     7.5233  10.4124  11.7532  12.0010  12.0475  13.1114  13.5423  13.9922
    14.5938  15.2120

          k = 0.3750 0.5745 0.0000 (  5816 PWs)   bands (ev):

   -45.3682 -23.8098 -23.5734 -23.4842 -20.5751 -12.0384  -3.0909  -2.7473
    -2.4934  -1.8178  -1.3527  -0.6523   4.2910   6.3592   6.5309   7.2094
     7.5677  10.4132  11.7551  11.9742  12.7644  12.9862  13.7110  13.9161
    14.6941  15.3131

          k = 0.3750-0.1436 0.0000 (  5833 PWs)   bands (ev):

   -45.3871 -23.8117 -23.6088 -23.2594 -20.6024 -12.3577  -3.0663  -2.6157
    -2.5514  -1.8972  -0.7411   0.4864   3.5421   5.9743   6.5546   7.1512
     7.5963   8.4252   9.8454  10.8531  11.8605  12.5317  14.2802  14.9682
    15.6108  16.4018

          k = 0.3750-0.0718 0.0000 (  5816 PWs)   bands (ev):

   -45.3895 -23.7895 -23.5945 -23.2781 -20.6011 -12.3963  -2.9935  -2.6437
    -2.5782  -1.6409  -0.7670   0.2861   3.6911   5.8130   6.4451   7.0309
     7.5462   8.3646   9.8969  11.0280  12.1187  12.6057  14.3010  14.7044
    15.3923  16.4378

          k = 0.3750 0.0000 0.0000 (  5820 PWs)   bands (ev):

   -45.3903 -23.7819 -23.5852 -23.2892 -20.6003 -12.4098  -2.9555  -2.6664
    -2.5866  -1.5165  -0.7820   0.1749   3.7658   5.6941   6.4918   6.9243
     7.5494   8.3497   9.9165  11.0989  12.4591  12.6672  13.7732  14.5942
    15.7239  16.2001

          k = 0.4375 0.2513 0.0000 (  5814 PWs)   bands (ev):

   -45.3771 -23.8922 -23.6018 -23.2689 -20.6006 -12.1920  -3.1986  -2.6230
    -2.5465  -2.3940  -0.6730   0.4730   3.4069   6.2797   6.8098   7.3686
     8.0216   9.2566   9.9053  10.9847  11.8989  12.4587  13.1081  14.5698
    14.9166  15.3350

          k = 0.4375 0.3231 0.0000 (  5816 PWs)   bands (ev):

   -45.3749 -23.8998 -23.5954 -23.2889 -20.5980 -12.1543  -3.1952  -2.6957
    -2.5514  -2.3755  -0.6635   0.2988   3.4819   6.3984   6.7740   7.3403
     7.9910   9.7204  10.0778  11.1684  11.7448  12.4030  13.1835  14.1801
    14.7686  15.1969

          k = 0.4375 0.3950 0.0000 (  5814 PWs)   bands (ev):

   -45.3728 -23.8845 -23.5887 -23.3356 -20.5915 -12.1197  -3.1362  -2.7820
    -2.5424  -2.2719  -0.6677  -0.0939   3.6887   6.4809   6.7237   7.2620
     7.7775  10.1145  10.6444  11.5433  11.6488  12.4024  13.2301  14.0260
    14.7865  15.0538

          k = 0.4375 0.4668 0.0000 (  5809 PWs)   bands (ev):

   -45.3713 -23.8528 -23.5831 -23.3947 -20.5841 -12.0934  -3.0760  -2.8050
    -2.5281  -2.1230  -0.7186  -0.5207   3.9412   6.4407   6.6084   7.2649
     7.6044  10.3276  11.0452  11.8693  12.0579  12.5204  13.2533  14.1194
    14.6656  15.2897

          k = 0.4375 0.5386 0.0000 (  5810 PWs)   bands (ev):

   -45.3704 -23.8239 -23.5799 -23.4396 -20.5792 -12.0793  -3.0626  -2.7738
    -2.5154  -1.9619  -0.9808  -0.6339   4.1305   6.2634   6.6020   7.2183
     7.6032  10.4436  11.0698  11.8348  12.7031  13.1549  13.3244  13.9413
    14.5675  15.1267

          k = 0.4375-0.1795 0.0000 (  5825 PWs)   bands (ev):

   -45.3791 -23.8645 -23.6058 -23.2783 -20.5988 -12.2271  -3.1456  -2.6260
    -2.5580  -2.2483  -0.6924   0.3655   3.4954   6.2136   6.7238   7.2963
     7.8295   9.1299   9.9680  11.0255  11.9775  12.5548  13.2828  14.6573
    15.0750  15.7416

          k = 0.4375-0.1077 0.0000 (  5825 PWs)   bands (ev):

   -45.3807 -23.8282 -23.6051 -23.3078 -20.5946 -12.2541  -3.0678  -2.6520
    -2.5729  -2.0242  -0.7200   0.0855   3.6763   6.1110   6.5571   7.1722
     7.7209   9.1349  10.1265  11.3112  12.0911  12.5780  13.7144  14.4029
    15.1626  16.2457

          k = 0.4375-0.0359 0.0000 (  5828 PWs)   bands (ev):

   -45.3815 -23.8020 -23.6009 -23.3354 -20.5913 -12.2687  -3.0092  -2.6747
    -2.5806  -1.8308  -0.7531  -0.1541   3.8280   5.8981   6.6216   6.9842
     7.7300   9.1423  10.2368  11.5504  12.3648  12.6497  13.8794  14.4220
    14.7920  15.8304

          k =-0.5000-0.2872 0.0000 (  5826 PWs)   bands (ev):

   -45.3748 -23.9122 -23.5957 -23.2736 -20.6006 -12.1533  -3.2294  -2.6632
    -2.5508  -2.4480  -0.6574   0.4456   3.3958   6.4014   6.7710   7.4053
     8.1469   9.6175   9.9503  11.1462  11.5560  12.3704  13.2699  14.0993
    14.7369  15.1624

          k =-0.5000-0.2154 0.0000 (  5818 PWs)   bands (ev):

   -45.3748 -23.9003 -23.5954 -23.2887 -20.5981 -12.1537  -3.1957  -2.6959
    -2.5516  -2.3770  -0.6633   0.3010   3.4805   6.4007   6.7670   7.3438
     7.9905   9.7286  10.0803  11.1695  11.7380  12.4047  13.1871  14.1742
    14.7592  15.2044

          k =-0.5000-0.1436 0.0000 (  5816 PWs)   bands (ev):

   -45.3748 -23.8692 -23.5943 -23.3281 -20.5921 -12.1548  -3.1181  -2.7370
    -2.5486  -2.2227  -0.6819  -0.0456   3.6817   6.3872   6.6471   7.2567
     7.7706   9.9005  10.3051  11.4340  12.0582  12.5439  13.0948  14.1617
    14.8103  15.5620

          k =-0.5000-0.0718 0.0000 (  5811 PWs)   bands (ev):

   -45.3748 -23.8333 -23.5923 -23.3731 -20.5863 -12.1558  -3.0521  -2.7478
    -2.5445  -2.0359  -0.7276  -0.3959   3.8952   6.1891   6.6260   7.1379
     7.7207   9.9980  10.4529  11.8357  12.2707  12.7741  13.3305  14.0573
    14.8491  15.6380

          k =-0.5000-0.0000 0.0000 (  5842 PWs)   bands (ev):

   -45.3748 -23.8166 -23.5909 -23.3943 -20.5839 -12.1562  -3.0306  -2.7441
    -2.5427  -1.9308  -0.7904  -0.5225   3.9937   6.0490   6.6845   7.0433
     7.7367  10.0232  10.5146  11.8897  12.4235  12.9859  13.6253  14.1343
    14.5809  15.1468

     highest occupied, lowest unoccupied level (ev):     4.2931    5.5193

!    total energy              =    -571.23458289 Ry
     total all-electron energy =    -12610.611994 Ry
     estimated scf accuracy    <          6.0E-11 Ry

     The total energy is the sum of the following terms:
     one-electron contribution =    -278.18287471 Ry
     hartree contribution      =     147.57947092 Ry
     xc contribution           =     -36.34808697 Ry
     ewald contribution        =      -7.42803102 Ry
     one-center paw contrib.   =    -396.85506110 Ry

     convergence has been achieved in   5 iterations

     negative rho (up, down):  3.152E-05 0.000E+00

     Forces acting on atoms (cartesian axes, Ry/au):

     atom    1 type  1   force =     0.00000000    0.00001385   -0.00013564
     atom    2 type  2   force =     0.00000000    0.00003032    0.00007594
     atom    3 type  3   force =     0.00000000   -0.00004417    0.00005970
     The non-local contrib.  to forces
     atom    1 type  1   force =     0.00000000    0.00100436   -0.02466235
     atom    2 type  2   force =     0.00000000    0.00723686   -0.99226216
     atom    3 type  3   force =     0.00000000    0.00037841    0.21109728
     The ionic contribution  to forces
     atom    1 type  1   force =    -0.00000001    0.05445150   -0.53799761
     atom    2 type  2   force =     0.00000001   -0.04007789   24.50271804
     atom    3 type  3   force =     0.00000000   -0.01437361  -23.96472043
     The local contribution  to forces
     atom    1 type  1   force =    -0.00000000   -0.05540398    0.55842055
     atom    2 type  2   force =     0.00000027    0.03289450  -23.51360210
     atom    3 type  3   force =    -0.00000000    0.01391350   23.75635605
     The core correction contribution to forces
     atom    1 type  1   force =    -0.00000000   -0.00003874    0.00412931
     atom    2 type  2   force =     0.00000000   -0.00002417    0.00322179
     atom    3 type  3   force =    -0.00000000    0.00003671   -0.00266540
     The Hubbard contrib.    to forces
     atom    1 type  1   force =     0.00000000    0.00000000    0.00000000
     atom    2 type  2   force =     0.00000000    0.00000000    0.00000000
     atom    3 type  3   force =     0.00000000    0.00000000    0.00000000
     The SCF correction term to forces
     atom    1 type  1   force =     0.00000000    0.00000043   -0.00002683
     atom    2 type  2   force =    -0.00000000    0.00000074   -0.00000093
     atom    3 type  3   force =     0.00000000    0.00000053   -0.00000910

     Total force =     0.000175     Total SCF correction =     0.000028
     SCF correction compared to forces is large: reduce conv_thr to get better values
     Energy error            =      5.1E-08 Ry
     Gradient error          =      1.4E-04 Ry/Bohr

     number of scf cycles    =   9
     number of bfgs steps    =   8

     energy             old  =    -571.2345828346 Ry
     energy             new  =    -571.2345828852 Ry

     CASE: energy            _new < energy            _old

     new trust radius        =       0.0004167141 bohr
     new conv_thr            =            1.0E-10 Ry


ATOMIC_POSITIONS (angstrom)
Zr           -0.0000000000       -0.0059034456       10.1029616917
F            -0.0000000020        1.9346620492       11.4061935338
Br           -0.0000000020        1.9330491596        8.2090234876



     Writing config-only to output data dir ./tmp/ZrFBr.save/
     NEW-OLD atomic charge density approx. for the potential

     Check: negative core charge=   -0.000002

     negative rho (up, down):  3.155E-05 0.000E+00

     total cpu time spent up to now is       89.6 secs

     Self-consistent Calculation

     iteration #  1     ecut=    65.00 Ry     beta= 0.70
     Davidson diagonalization with overlap
     ethr =  1.00E-06,  avg # of iterations =  2.0

     Threshold (ethr) on eigenvalues was too large:
     Diagonalizing with lowered threshold

     Davidson diagonalization with overlap
     ethr =  4.28E-11,  avg # of iterations =  4.0

     negative rho (up, down):  3.153E-05 0.000E+00

     total cpu time spent up to now is       92.8 secs

     total energy              =    -571.23458292 Ry
     estimated scf accuracy    <       0.00000001 Ry

     iteration #  2     ecut=    65.00 Ry     beta= 0.70
     Davidson diagonalization with overlap
     ethr =  3.98E-11,  avg # of iterations =  2.0

     negative rho (up, down):  3.152E-05 0.000E+00

     total cpu time spent up to now is       94.1 secs

     total energy              =    -571.23458292 Ry
     estimated scf accuracy    <          1.2E-09 Ry

     iteration #  3     ecut=    65.00 Ry     beta= 0.70
     Davidson diagonalization with overlap
     ethr =  4.73E-12,  avg # of iterations =  2.0

     negative rho (up, down):  3.152E-05 0.000E+00

     total cpu time spent up to now is       95.5 secs

     total energy              =    -571.23458292 Ry
     estimated scf accuracy    <          3.3E-09 Ry

     iteration #  4     ecut=    65.00 Ry     beta= 0.70
     Davidson diagonalization with overlap
     ethr =  4.73E-12,  avg # of iterations =  1.9

     negative rho (up, down):  3.152E-05 0.000E+00

     total cpu time spent up to now is       96.9 secs

     End of self-consistent calculation

          k = 0.0000 0.0000 0.0000 (  5811 PWs)   bands (ev):

   -45.4336 -23.9030 -23.1515 -23.1439 -20.6978 -13.0141  -3.1765  -2.4963
    -2.4870  -1.1599   1.3110   1.3473   3.7586   5.7573   5.8164   5.8628
     6.7343   6.7602   7.9027   8.7384  11.1078  13.9609  14.6062  14.6962
    15.2760  17.1909

          k = 0.0000 0.0718 0.0000 (  5772 PWs)   bands (ev):

   -45.4314 -23.8946 -23.1818 -23.1485 -20.6895 -12.9864  -3.1428  -2.5322
    -2.4867  -1.1380   1.0888   1.3075   3.7734   5.6959   5.8598   5.9594
     6.6890   6.8107   8.0265   8.9591  11.2414  14.0180  14.2375  14.8289
    15.1480  17.3925

          k = 0.0000 0.1436 0.0000 (  5780 PWs)   bands (ev):

   -45.4252 -23.8711 -23.2654 -23.1617 -20.6684 -12.9061  -3.0524  -2.6236
    -2.4869  -1.0857   0.5295   1.1982   3.7888   5.6051   5.9972   6.0591
     6.7707   6.9431   8.3608   9.4377  11.6277  13.5758  14.0087  14.9922
    15.2233  17.5970

          k = 0.0000 0.2154 0.0000 (  5814 PWs)   bands (ev):

   -45.4159 -23.8374 -23.3826 -23.1813 -20.6431 -12.7811  -2.9440  -2.7263
    -2.4902  -1.0355  -0.1672   1.0446   3.7481   5.5906   6.1077   6.2383
     7.0898   7.1174   8.8242   9.9300  12.0046  13.2097  13.6382  15.3475
    15.8647  17.2659

          k = 0.0000 0.2872 0.0000 (  5808 PWs)   bands (ev):

   -45.4050 -23.8044 -23.5055 -23.2043 -20.6215 -12.6255  -2.9397  -2.7266
    -2.4983  -1.1401  -0.7190   0.8768   3.6411   5.6887   6.2605   6.5731
     7.3018   7.5143   9.3050  10.3357  11.8688  12.8863  14.0846  15.8314
    16.3815  16.6514

          k = 0.0000 0.3590 0.0000 (  5824 PWs)   bands (ev):

   -45.3939 -23.7981 -23.5941 -23.2272 -20.6076 -12.4599  -3.0339  -2.6470
    -2.5107  -1.6627  -0.7719   0.7217   3.5206   5.8589   6.5215   6.9487
     7.4956   8.0114   9.6608  10.6178  11.7428  12.5686  14.6827  15.1729
    16.3361  16.3465

          k = 0.0000 0.4309 0.0000 (  5838 PWs)   bands (ev):

   -45.3846 -23.8416 -23.6146 -23.2465 -20.6012 -12.3104  -3.1273  -2.6010
    -2.5245  -2.1370  -0.7241   0.5987   3.4344   6.0686   6.7498   7.2429
     7.7463   8.5992   9.8117  10.8231  11.8497  12.4932  13.6848  15.0898
    15.5773  15.8231

          k = 0.0000 0.5027 0.0000 (  5810 PWs)   bands (ev):

   -45.3783 -23.8918 -23.6046 -23.2594 -20.5995 -12.2051  -3.2014  -2.6193
    -2.5352  -2.3953  -0.6833   0.5205   3.3922   6.2849   6.8120   7.3815
     8.0206   9.2396   9.8959  10.9825  11.8695  12.4255  13.0859  14.5434
    14.8762  15.3976

          k = 0.0000-0.5745 0.0000 (  5834 PWs)   bands (ev):

   -45.3761 -23.9115 -23.5987 -23.2639 -20.5993 -12.1671  -3.2326  -2.6580
    -2.5393  -2.4490  -0.6681   0.4937   3.3810   6.4047   6.7774   7.4189
     8.1410   9.5957   9.9480  11.1400  11.5148  12.3415  13.2516  14.0753
    14.6969  15.2282

          k = 0.0625 0.0359 0.0000 (  5791 PWs)   bands (ev):

   -45.4314 -23.8945 -23.1769 -23.1540 -20.6895 -12.9860  -3.1426  -2.5262
    -2.4933  -1.1376   1.1131   1.2803   3.7746   5.7301   5.8229   5.9600
     6.7029   6.7933   8.0287   8.9619  11.2431  14.0180  14.2836  14.7644
    15.1557  17.4133

          k = 0.0625 0.1077 0.0000 (  5776 PWs)   bands (ev):

   -45.4272 -23.8785 -23.2362 -23.1605 -20.6748 -12.9320  -3.0801  -2.5931
    -2.4902  -1.1006   0.7194   1.2093   3.7909   5.6280   5.9400   6.0606
     6.7040   6.9045   8.2572   9.3045  11.5113  13.7474  14.0598  14.9052
    15.1623  17.5040

          k = 0.0625 0.1795 0.0000 (  5782 PWs)   bands (ev):

   -45.4194 -23.8497 -23.3354 -23.1781 -20.6517 -12.8292  -2.9755  -2.6928
    -2.4936  -1.0478   0.1110   1.0571   3.7836   5.5522   6.1203   6.1635
     6.8807   7.0955   8.6568   9.7761  11.9883  13.2180  13.7462  15.0645
    15.7305  17.0978

          k = 0.0625 0.2513 0.0000 (  5795 PWs)   bands (ev):

   -45.4093 -23.8155 -23.4537 -23.2019 -20.6286 -12.6885  -2.9007  -2.7581
    -2.5032  -1.0357  -0.5292   0.8696   3.7189   5.5903   6.1890   6.4950
     7.1429   7.3874   9.1326  10.2260  12.1344  13.0479  13.5558  15.5205
    16.4058  16.6718

          k = 0.0625 0.3231 0.0000 (  5822 PWs)   bands (ev):

   -45.3983 -23.7924 -23.5596 -23.2278 -20.6112 -12.5272  -2.9720  -2.6863
    -2.5194  -1.3813  -0.7803   0.6823   3.6186   5.7518   6.3404   6.8698
     7.3716   7.8280   9.5643  10.5965  11.8899  12.7045  14.3435  15.4075
    16.0491  16.4817

          k = 0.0625 0.3950 0.0000 (  5829 PWs)   bands (ev):

   -45.3881 -23.8120 -23.6101 -23.2517 -20.6014 -12.3684  -3.0670  -2.6157
    -2.5422  -1.8970  -0.7491   0.5211   3.5325   5.9806   6.5540   7.1584
     7.6050   8.4121   9.8301  10.8595  11.8531  12.5155  14.2372  14.9580
    15.5937  16.4022

          k = 0.0625 0.4668 0.0000 (  5819 PWs)   bands (ev):

   -45.3803 -23.8637 -23.6082 -23.2699 -20.5976 -12.2397  -3.1469  -2.6200
    -2.5531  -2.2454  -0.7020   0.4042   3.4848   6.2194   6.7274   7.3041
     7.8312   9.1100   9.9536  11.0322  11.9597  12.5270  13.2524  14.6572
    15.0426  15.7580

          k = 0.0625 0.5386 0.0000 (  5820 PWs)   bands (ev):

   -45.3761 -23.8994 -23.5982 -23.2798 -20.5968 -12.1670  -3.1981  -2.6889
    -2.5470  -2.3731  -0.6735   0.3430   3.4685   6.4039   6.7742   7.3534
     7.9861   9.7030  10.0759  11.1683  11.7059  12.3762  13.1692  14.1584
    14.7323  15.2392

          k = 0.1250 0.0718 0.0000 (  5797 PWs)   bands (ev):

   -45.4250 -23.8706 -23.2610 -23.1680 -20.6683 -12.9045  -3.0514  -2.6185
    -2.4941  -1.0840   0.5508   1.1669   3.7937   5.6337   5.9573   6.0640
     6.7783   6.9262   8.3672   9.4432  11.6341  13.5953  14.0225  15.0017
    15.1619  17.5476

          k = 0.1250 0.1436 0.0000 (  5787 PWs)   bands (ev):

   -45.4193 -23.8493 -23.3334 -23.1815 -20.6517 -12.8280  -2.9748  -2.6907
    -2.4973  -1.0465   0.1223   1.0380   3.7880   5.5585   6.1139   6.1590
     6.8822   7.0889   8.6608   9.7785  11.9925  13.2265  13.7540  15.0670
    15.7061  17.0883

          k = 0.1250 0.2154 0.0000 (  5787 PWs)   bands (ev):

   -45.4107 -23.8194 -23.4301 -23.2072 -20.6311 -12.7092  -2.8786  -2.7724
    -2.5118  -1.0166  -0.4031   0.8082   3.7658   5.5193   6.2181   6.4789
     7.0289   7.3663   9.0756  10.1990  12.5475  12.8130  13.3490  15.3366
    16.3393  16.6363

          k = 0.1250 0.2872 0.0000 (  5800 PWs)   bands (ev):

   -45.4006 -23.7917 -23.5283 -23.2398 -20.6127 -12.5619  -2.9050  -2.7312
    -2.5368  -1.1756  -0.7642   0.5451   3.7264   5.6001   6.3275   6.8197
     7.2687   7.7632   9.5160  10.6319  12.3663  12.8383  13.5112  15.3133
    16.1042  16.5709

          k = 0.1250 0.3590 0.0000 (  5812 PWs)   bands (ev):

   -45.3904 -23.7894 -23.5944 -23.2733 -20.6000 -12.4056  -2.9925  -2.6435
    -2.5716  -1.6342  -0.7726   0.3008   3.6890   5.8150   6.4492   7.0379
     7.5463   8.3536   9.8798  11.0308  12.1281  12.6050  14.2966  14.6797
    15.3793  16.4196

          k = 0.1250 0.4309 0.0000 (  5824 PWs)   bands (ev):

   -45.3817 -23.8266 -23.6067 -23.3021 -20.5933 -12.2652  -3.0670  -2.6446
    -2.5721  -2.0167  -0.7273   0.1063   3.6728   6.1161   6.5580   7.1827
     7.7157   9.1159  10.1056  11.3244  12.0890  12.5652  13.6881  14.4024
    15.1420  16.2410

          k = 0.1250 0.5027 0.0000 (  5816 PWs)   bands (ev):

   -45.3759 -23.8675 -23.5967 -23.3215 -20.5908 -12.1667  -3.1183  -2.7296
    -2.5473  -2.2158  -0.6901  -0.0188   3.6759   6.3912   6.6497   7.2667
     7.7641   9.8745  10.2839  11.4529  12.0483  12.5164  13.0774  14.1641
    14.7893  15.5582

          k = 0.1250 0.5745 0.0000 (  5816 PWs)   bands (ev):

   -45.3739 -23.8835 -23.5912 -23.3283 -20.5902 -12.1312  -3.1374  -2.7754
    -2.5408  -2.2670  -0.6761  -0.0621   3.6803   6.4856   6.7220   7.2724
     7.7725  10.0903  10.6428  11.5528  11.6204  12.3868  13.2173  14.0070
    14.7628  15.0636

          k = 0.1250 0.0000 0.0000 (  5790 PWs)   bands (ev):

   -45.4270 -23.8782 -23.2324 -23.1657 -20.6747 -12.9308  -3.0794  -2.5883
    -2.4965  -1.0993   0.7346   1.1878   3.7935   5.6613   5.9024   6.0608
     6.7003   6.9000   8.2625   9.3089  11.5153  13.7681  14.0666  14.8882
    15.1326  17.5045

          k = 0.1875 0.1077 0.0000 (  5803 PWs)   bands (ev):

   -45.4155 -23.8363 -23.3794 -23.1883 -20.6429 -12.7776  -2.9421  -2.7227
    -2.4979  -1.0318  -0.1510   1.0090   3.7581   5.6039   6.1153   6.2047
     7.0912   7.1055   8.8348   9.9347  12.0113  13.2247  13.6559  15.3611
    15.8103  17.2185

          k = 0.1875 0.1795 0.0000 (  5812 PWs)   bands (ev):

   -45.4090 -23.8145 -23.4514 -23.2075 -20.6285 -12.6855  -2.8989  -2.7562
    -2.5089  -1.0312  -0.5171   0.8383   3.7290   5.5918   6.1902   6.4827
     7.1347   7.3875   9.1406  10.2279  12.1353  13.0610  13.5774  15.5330
    16.3767  16.6603

          k = 0.1875 0.2513 0.0000 (  5800 PWs)   bands (ev):

   -45.4003 -23.7911 -23.5273 -23.2428 -20.6127 -12.5600  -2.9038  -2.7309
    -2.5394  -1.1703  -0.7610   0.5282   3.7322   5.5987   6.3276   6.8171
     7.2627   7.7650   9.5200  10.6314  12.3623  12.8397  13.5347  15.3143
    16.1194  16.5781

          k = 0.1875 0.3231 0.0000 (  5826 PWs)   bands (ev):

   -45.3910 -23.7812 -23.5836 -23.2878 -20.5993 -12.4171  -2.9530  -2.6666
    -2.5821  -1.5017  -0.7850   0.1689   3.7708   5.6919   6.4993   6.9283
     7.5441   8.3404   9.9016  11.0963  12.4648  12.6909  13.7847  14.5837
    15.7172  16.1811

          k = 0.1875 0.3950 0.0000 (  5821 PWs)   bands (ev):

   -45.3824 -23.7995 -23.6012 -23.3332 -20.5900 -12.2777  -3.0068  -2.6693
    -2.5798  -1.8157  -0.7574  -0.1551   3.8322   5.8984   6.6211   6.9968
     7.7197   9.1250  10.2148  11.5505  12.3624  12.6777  13.8746  14.4141
    14.7872  15.8416

          k = 0.1875 0.4668 0.0000 (  5819 PWs)   bands (ev):

   -45.3757 -23.8306 -23.5939 -23.3698 -20.5849 -12.1657  -3.0503  -2.7413
    -2.5439  -2.0244  -0.7305  -0.3910   3.8967   6.1909   6.6218   7.1538
     7.7091   9.9761  10.4191  11.8473  12.2787  12.7816  13.3108  14.0618
    14.8344  15.6655

          k = 0.1875 0.5386 0.0000 (  5818 PWs)   bands (ev):

   -45.3721 -23.8509 -23.5850 -23.3902 -20.5828 -12.1029  -3.0747  -2.7997
    -2.5272  -2.1161  -0.7177  -0.5117   3.9393   6.4443   6.6018   7.2780
     7.5965  10.3027  11.0122  11.8743  12.0739  12.5276  13.2343  14.1121
    14.6581  15.2817

          k = 0.1875-0.0359 0.0000 (  5799 PWs)   bands (ev):

   -45.4191 -23.8488 -23.3328 -23.1840 -20.6516 -12.8262  -2.9740  -2.6893
    -2.5006  -1.0447   0.1220   1.0324   3.7896   5.5740   6.1161   6.1354
     6.8674   7.0978   8.6672   9.7810  11.9951  13.2262  13.7561  15.0613
    15.6948  17.0945

          k = 0.2500 0.1436 0.0000 (  5819 PWs)   bands (ev):

   -45.4043 -23.8028 -23.5036 -23.2121 -20.6215 -12.6197  -2.9374  -2.7244
    -2.5067  -1.1315  -0.7106   0.8370   3.6543   5.6897   6.2709   6.5466
     7.2854   7.5214   9.3184  10.3374  11.8709  12.9015  14.1144  15.8594
    16.4187  16.6033

          k = 0.2500 0.2154 0.0000 (  5824 PWs)   bands (ev):

   -45.3977 -23.7909 -23.5578 -23.2350 -20.6113 -12.5217  -2.9698  -2.6851
    -2.5264  -1.3708  -0.7744   0.6433   3.6320   5.7493   6.3436   6.8582
     7.3576   7.8339   9.5749  10.5948  11.8918  12.7182  14.3831  15.4413
    16.0539  16.4791

          k = 0.2500 0.2872 0.0000 (  5828 PWs)   bands (ev):

   -45.3899 -23.7882 -23.5931 -23.2786 -20.6002 -12.4013  -2.9909  -2.6446
    -2.5748  -1.6262  -0.7688   0.2728   3.6985   5.8126   6.4500   7.0325
     7.5392   8.3569   9.8865  11.0259  12.1275  12.6091  14.3254  14.7088
    15.3997  16.4236

          k = 0.2500 0.3590 0.0000 (  5825 PWs)   bands (ev):

   -45.3821 -23.7990 -23.6006 -23.3358 -20.5902 -12.2753  -3.0063  -2.6718
    -2.5791  -1.8122  -0.7560  -0.1681   3.8364   5.8981   6.6207   6.9947
     7.7177   9.1265  10.2183  11.5461  12.3636  12.6674  13.8788  14.4528
    14.8064  15.8185

          k = 0.2500 0.4309 0.0000 (  5832 PWs)   bands (ev):

   -45.3755 -23.8130 -23.5916 -23.3941 -20.5826 -12.1636  -3.0282  -2.7388
    -2.5418  -1.9131  -0.7924  -0.5340   4.0008   6.0494   6.6751   7.0624
     7.7230  10.0046  10.4811  11.8928  12.4083  13.0227  13.6309  14.1413
    14.5881  15.1585

          k = 0.2500 0.5027 0.0000 (  5799 PWs)   bands (ev):

   -45.3710 -23.8212 -23.5810 -23.4384 -20.5781 -12.0862  -3.0605  -2.7692
    -2.5144  -1.9497  -0.9792  -0.6410   4.1343   6.2638   6.5952   7.2296
     7.5952  10.4239  11.0277  11.8476  12.6893  13.1821  13.3378  13.9516
    14.5621  15.1318

          k = 0.2500 0.5745 0.0000 (  5800 PWs)   bands (ev):

   -45.3695 -23.8233 -23.5768 -23.4550 -20.5766 -12.0585  -3.0773  -2.7737
    -2.5046  -1.9554  -1.0806  -0.6499   4.1858   6.4061   6.5374   7.2764
     7.5253  10.3951  11.7603  11.9839  12.0216  13.1547  13.5479  13.9946
    14.5830  15.2011

          k = 0.2500-0.0718 0.0000 (  5816 PWs)   bands (ev):

   -45.4087 -23.8141 -23.4525 -23.2083 -20.6286 -12.6832  -2.8988  -2.7561
    -2.5107  -1.0304  -0.5234   0.8421   3.7274   5.5982   6.1891   6.4722
     7.1271   7.3944   9.1465  10.2291  12.1327  13.0574  13.5666  15.5265
    16.3991  16.6694

          k = 0.2500 0.0000 0.0000 (  5800 PWs)   bands (ev):

   -45.4103 -23.8184 -23.4305 -23.2105 -20.6312 -12.7052  -2.8774  -2.7716
    -2.5165  -1.0132  -0.4073   0.8013   3.7677   5.5300   6.2122   6.4635
     7.0158   7.3741   9.0869  10.2015  12.5484  12.8028  13.3490  15.3385
    16.3519  16.6352

          k = 0.3125 0.1795 0.0000 (  5829 PWs)   bands (ev):

   -45.3931 -23.7965 -23.5927 -23.2357 -20.6079 -12.4514  -3.0319  -2.6457
    -2.5200  -1.6558  -0.7647   0.6781   3.5347   5.8545   6.5305   6.9317
     7.4795   8.0213   9.6744  10.6150  11.7499  12.5856  14.7352  15.2056
    16.2815  16.3843

          k = 0.3125 0.2513 0.0000 (  5831 PWs)   bands (ev):

   -45.3873 -23.8106 -23.6084 -23.2599 -20.6018 -12.3602  -3.0647  -2.6161
    -2.5496  -1.8898  -0.7421   0.4778   3.5468   5.9759   6.5598   7.1461
     7.5939   8.4200   9.8402  10.8530  11.8624  12.5321  14.2860  14.9822
    15.5973  16.4167

          k = 0.3125 0.3231 0.0000 (  5828 PWs)   bands (ev):

   -45.3810 -23.8257 -23.6050 -23.3088 -20.5937 -12.2581  -3.0652  -2.6510
    -2.5712  -2.0120  -0.7217   0.0727   3.6835   6.1133   6.5610   7.1745
     7.7115   9.1210  10.1133  11.3108  12.0946  12.5754  13.7252  14.4087
    15.1800  16.2572

          k = 0.3125 0.3950 0.0000 (  5825 PWs)   bands (ev):

   -45.3752 -23.8303 -23.5926 -23.3742 -20.5853 -12.1605  -3.0499  -2.7441
    -2.5435  -2.0224  -0.7289  -0.4096   3.9024   6.1927   6.6213   7.1499
     7.7071   9.9824  10.4254  11.8338  12.2700  12.7817  13.3475  14.0594
    14.8717  15.6415

          k = 0.3125 0.4668 0.0000 (  5821 PWs)   bands (ev):

   -45.3708 -23.8213 -23.5804 -23.4402 -20.5784 -12.0836  -3.0612  -2.7699
    -2.5145  -1.9493  -0.9870  -0.6399   4.1356   6.2667   6.5948   7.2277
     7.5938  10.4324  11.0287  11.8421  12.6987  13.1737  13.3477  13.9285
    14.5749  15.1412

          k = 0.3125 0.5386 0.0000 (  5801 PWs)   bands (ev):

   -45.3684 -23.8086 -23.5737 -23.4841 -20.5745 -12.0411  -3.0898  -2.7455
    -2.4927  -1.8098  -1.3567  -0.6549   4.2930   6.3608   6.5263   7.2091
     7.5691  10.4043  11.7608  11.9345  12.7832  12.9905  13.7534  13.8937
    14.6878  15.3091

          k = 0.3125-0.1077 0.0000 (  5822 PWs)   bands (ev):

   -45.3975 -23.7909 -23.5592 -23.2348 -20.6116 -12.5193  -2.9708  -2.6847
    -2.5276  -1.3780  -0.7747   0.6511   3.6278   5.7499   6.3413   6.8579
     7.3578   7.8367   9.5799  10.5955  11.8875  12.7155  14.3612  15.4394
    16.0589  16.4871

          k = 0.3125-0.0359 0.0000 (  5801 PWs)   bands (ev):

   -45.3998 -23.7906 -23.5295 -23.2438 -20.6131 -12.5553  -2.9052  -2.7300
    -2.5425  -1.1779  -0.7639   0.5350   3.7282   5.6036   6.3201   6.8128
     7.2608   7.7704   9.5306  10.6333  12.3518  12.8346  13.5129  15.3244
    16.1342  16.5864

          k = 0.3750 0.2154 0.0000 (  5838 PWs)   bands (ev):

   -45.3835 -23.8412 -23.6125 -23.2557 -20.6018 -12.2994  -3.1249  -2.6015
    -2.5346  -2.1341  -0.7152   0.5524   3.4487   6.0627   6.7540   7.2310
     7.7362   8.6127   9.8231  10.8202  11.8655  12.5157  13.7283  15.1218
    15.6198  15.7674

          k = 0.3750 0.2872 0.0000 (  5825 PWs)   bands (ev):

   -45.3792 -23.8633 -23.6058 -23.2789 -20.5983 -12.2290  -3.1441  -2.6260
    -2.5568  -2.2434  -0.6933   0.3591   3.4989   6.2131   6.7338   7.2898
     7.8287   9.1196   9.9617  11.0263  11.9788  12.5521  13.2875  14.6665
    15.0736  15.7438

          k = 0.3750 0.3590 0.0000 (  5815 PWs)   bands (ev):

   -45.3750 -23.8675 -23.5945 -23.3288 -20.5915 -12.1572  -3.1163  -2.7353
    -2.5478  -2.2168  -0.6828  -0.0535   3.6860   6.3848   6.6576   7.2554
     7.7649   9.8869  10.2884  11.4344  12.0695  12.5409  13.0955  14.1702
    14.8222  15.5629

          k = 0.3750 0.4309 0.0000 (  5803 PWs)   bands (ev):

   -45.3714 -23.8515 -23.5833 -23.3951 -20.5835 -12.0954  -3.0750  -2.8029
    -2.5274  -2.1185  -0.7189  -0.5266   3.9438   6.4433   6.6073   7.2693
     7.5976  10.3222  11.0149  11.8729  12.0777  12.5217  13.2508  14.1209
    14.6729  15.2986

          k = 0.3750 0.5027 0.0000 (  5806 PWs)   bands (ev):

   -45.3690 -23.8246 -23.5757 -23.4572 -20.5772 -12.0535  -3.0788  -2.7756
    -2.5050  -1.9598  -1.0892  -0.6458   4.1853   6.4068   6.5426   7.2731
     7.5235  10.4124  11.7530  12.0011  12.0475  13.1113  13.5424  13.9922
    14.5938  15.2118

          k = 0.3750 0.5745 0.0000 (  5816 PWs)   bands (ev):

   -45.3682 -23.8098 -23.5734 -23.4842 -20.5748 -12.0387  -3.0906  -2.7469
    -2.4931  -1.8182  -1.3530  -0.6526   4.2909   6.3592   6.5310   7.2090
     7.5679  10.4132  11.7549  11.9743  12.7647  12.9862  13.7109  13.9160
    14.6942  15.3129

          k = 0.3750-0.1436 0.0000 (  5833 PWs)   bands (ev):

   -45.3871 -23.8117 -23.6088 -23.2594 -20.6021 -12.3581  -3.0660  -2.6154
    -2.5509  -1.8976  -0.7412   0.4859   3.5419   5.9744   6.5543   7.1514
     7.5959   8.4254   9.8455  10.8531  11.8606  12.5319  14.2803  14.9681
    15.6106  16.4019

          k = 0.3750-0.0718 0.0000 (  5816 PWs)   bands (ev):

   -45.3895 -23.7894 -23.5946 -23.2781 -20.6008 -12.3967  -2.9931  -2.6434
    -2.5777  -1.6412  -0.7672   0.2856   3.6909   5.8130   6.4449   7.0310
     7.5460   8.3648   9.8971  11.0279  12.1187  12.6058  14.3008  14.7044
    15.3924  16.4378

          k = 0.3750 0.0000 0.0000 (  5820 PWs)   bands (ev):

   -45.3903 -23.7819 -23.5852 -23.2892 -20.6000 -12.4101  -2.9552  -2.6661
    -2.5861  -1.5169  -0.7822   0.1744   3.7656   5.6940   6.4917   6.9243
     7.5493   8.3499   9.9167  11.0989  12.4592  12.6672  13.7731  14.5942
    15.7242  16.2001

          k = 0.4375 0.2513 0.0000 (  5814 PWs)   bands (ev):

   -45.3771 -23.8922 -23.6018 -23.2689 -20.6003 -12.1924  -3.1983  -2.6228
    -2.5460  -2.3941  -0.6732   0.4725   3.4067   6.2798   6.8098   7.3686
     8.0214   9.2566   9.9053  10.9847  11.8991  12.4589  13.1082  14.5699
    14.9166  15.3348

          k = 0.4375 0.3231 0.0000 (  5816 PWs)   bands (ev):

   -45.3749 -23.8998 -23.5954 -23.2889 -20.5977 -12.1546  -3.1949  -2.6956
    -2.5510  -2.3755  -0.6637   0.2984   3.4816   6.3984   6.7741   7.3403
     7.9910   9.7202  10.0777  11.1685  11.7449  12.4031  13.1836  14.1801
    14.7688  15.1967

          k = 0.4375 0.3950 0.0000 (  5814 PWs)   bands (ev):

   -45.3728 -23.8844 -23.5887 -23.3356 -20.5912 -12.1200  -3.1359  -2.7818
    -2.5420  -2.2719  -0.6680  -0.0943   3.6885   6.4809   6.7237   7.2621
     7.7774  10.1144  10.6445  11.5432  11.6490  12.4025  13.2302  14.0260
    14.7864  15.0539

          k = 0.4375 0.4668 0.0000 (  5809 PWs)   bands (ev):

   -45.3713 -23.8528 -23.5831 -23.3947 -20.5838 -12.0938  -3.0757  -2.8047
    -2.5278  -2.1232  -0.7189  -0.5210   3.9410   6.4406   6.6084   7.2648
     7.6044  10.3276  11.0453  11.8693  12.0577  12.5203  13.2535  14.1193
    14.6655  15.2899

          k = 0.4375 0.5386 0.0000 (  5810 PWs)   bands (ev):

   -45.3704 -23.8239 -23.5799 -23.4396 -20.5789 -12.0797  -3.0623  -2.7735
    -2.5151  -1.9622  -0.9812  -0.6341   4.1303   6.2633   6.6020   7.2180
     7.6033  10.4437  11.0700  11.8346  12.7031  13.1549  13.3246  13.9412
    14.5675  15.1266

          k = 0.4375-0.1795 0.0000 (  5825 PWs)   bands (ev):

   -45.3791 -23.8645 -23.6058 -23.2783 -20.5985 -12.2275  -3.1453  -2.6257
    -2.5576  -2.2485  -0.6926   0.3650   3.4951   6.2136   6.7236   7.2965
     7.8292   9.1300   9.9680  11.0255  11.9777  12.5548  13.2830  14.6572
    15.0749  15.7417

          k = 0.4375-0.1077 0.0000 (  5825 PWs)   bands (ev):

   -45.3807 -23.8281 -23.6051 -23.3078 -20.5943 -12.2544  -3.0674  -2.6516
    -2.5726  -2.0245  -0.7202   0.0851   3.6760   6.1110   6.5569   7.1723
     7.7207   9.1351  10.1267  11.3111  12.0912  12.5781  13.7145  14.4028
    15.1625  16.2460

          k = 0.4375-0.0359 0.0000 (  5828 PWs)   bands (ev):

   -45.3815 -23.8019 -23.6009 -23.3354 -20.5910 -12.2690  -3.0089  -2.6742
    -2.5803  -1.8312  -0.7533  -0.1545   3.8278   5.8980   6.6215   6.9840
     7.7299   9.1425  10.2371  11.5503  12.3648  12.6497  13.8793  14.4219
    14.7922  15.8304

          k =-0.5000-0.2872 0.0000 (  5826 PWs)   bands (ev):

   -45.3748 -23.9121 -23.5957 -23.2736 -20.6003 -12.1536  -3.2292  -2.6631
    -2.5504  -2.4480  -0.6576   0.4451   3.3956   6.4015   6.7710   7.4053
     8.1467   9.6174   9.9503  11.1462  11.5562  12.3706  13.2699  14.0995
    14.7370  15.1623

          k =-0.5000-0.2154 0.0000 (  5818 PWs)   bands (ev):

   -45.3748 -23.9003 -23.5954 -23.2887 -20.5978 -12.1541  -3.1955  -2.6958
    -2.5513  -2.3770  -0.6635   0.3005   3.4802   6.4007   6.7669   7.3439
     7.9902   9.7286  10.0803  11.1696  11.7381  12.4049  13.1871  14.1742
    14.7590  15.2045

          k =-0.5000-0.1436 0.0000 (  5816 PWs)   bands (ev):

   -45.3748 -23.8691 -23.5943 -23.3281 -20.5919 -12.1551  -3.1178  -2.7368
    -2.5483  -2.2228  -0.6821  -0.0461   3.6815   6.3873   6.6469   7.2568
     7.7704   9.9006  10.3052  11.4340  12.0583  12.5440  13.0950  14.1615
    14.8102  15.5623

          k =-0.5000-0.0718 0.0000 (  5811 PWs)   bands (ev):

   -45.3748 -23.8333 -23.5923 -23.3731 -20.5860 -12.1562  -3.0518  -2.7475
    -2.5442  -2.0362  -0.7279  -0.3963   3.8950   6.1891   6.6259   7.1377
     7.7207   9.9981  10.4532  11.8356  12.2706  12.7741  13.3306  14.0572
    14.8490  15.6381

          k =-0.5000-0.0000 0.0000 (  5842 PWs)   bands (ev):

   -45.3748 -23.8165 -23.5909 -23.3943 -20.5836 -12.1566  -3.0303  -2.7437
    -2.5425  -1.9311  -0.7907  -0.5228   3.9935   6.0489   6.6846   7.0430
     7.7368  10.0233  10.5149  11.8896  12.4235  12.9858  13.6251  14.1344
    14.5809  15.1468

     highest occupied, lowest unoccupied level (ev):     4.2930    5.5193

!    total energy              =    -571.23458292 Ry
     total all-electron energy =    -12610.611994 Ry
     estimated scf accuracy    <          6.4E-11 Ry

     The total energy is the sum of the following terms:
     one-electron contribution =    -278.18390259 Ry
     hartree contribution      =     147.57989448 Ry
     xc contribution           =     -36.34809343 Ry
     ewald contribution        =      -7.42741778 Ry
     one-center paw contrib.   =    -396.85506360 Ry

     convergence has been achieved in   4 iterations

     negative rho (up, down):  3.152E-05 0.000E+00

     Forces acting on atoms (cartesian axes, Ry/au):

     atom    1 type  1   force =     0.00000000    0.00000071   -0.00008318
     atom    2 type  2   force =     0.00000000    0.00000497    0.00005173
     atom    3 type  3   force =     0.00000000   -0.00000568    0.00003145
     The non-local contrib.  to forces
     atom    1 type  1   force =     0.00000000    0.00101173   -0.02468140
     atom    2 type  2   force =     0.00000000    0.00735392   -0.99236273
     atom    3 type  3   force =     0.00000000    0.00039459    0.21108621
     The ionic contribution  to forces
     atom    1 type  1   force =    -0.00000001    0.05508636   -0.53789455
     atom    2 type  2   force =     0.00000001   -0.04095791   24.50295159
     atom    3 type  3   force =     0.00000000   -0.01412845  -23.96505704
     The local contribution  to forces
     atom    1 type  1   force =    -0.00000000   -0.05606013    0.55833061
     atom    2 type  2   force =     0.00000027    0.03363161  -23.51376404
     atom    3 type  3   force =    -0.00000000    0.01369250   23.75664700
     The core correction contribution to forces
     atom    1 type  1   force =    -0.00000000   -0.00003857    0.00413009
     atom    2 type  2   force =     0.00000000   -0.00002445    0.00322222
     atom    3 type  3   force =    -0.00000000    0.00003461   -0.00266379
     The Hubbard contrib.    to forces
     atom    1 type  1   force =     0.00000000    0.00000000    0.00000000
     atom    2 type  2   force =     0.00000000    0.00000000    0.00000000
     atom    3 type  3   force =     0.00000000    0.00000000    0.00000000
     The SCF correction term to forces
     atom    1 type  1   force =     0.00000000    0.00000110    0.00002515
     atom    2 type  2   force =     0.00000000    0.00000158   -0.00000223
     atom    3 type  3   force =    -0.00000000    0.00000086    0.00001217

     Total force =     0.000103     Total SCF correction =     0.000028
     SCF correction compared to forces is large: reduce conv_thr to get better values
     Energy error            =      3.3E-08 Ry
     Gradient error          =      8.3E-05 Ry/Bohr

     bfgs converged in  10 scf cycles and   9 bfgs steps
     (criteria: energy <  1.0E-05 Ry, force <  1.0E-04 Ry/Bohr)

     End of BFGS Geometry Optimization

     Final energy             =    -571.2345829180 Ry

     File ./tmp/ZrFBr.bfgs deleted, as requested
Begin final coordinates

ATOMIC_POSITIONS (angstrom)
Zr           -0.0000000000       -0.0059034456       10.1029616917
F            -0.0000000020        1.9346620492       11.4061935338
Br           -0.0000000020        1.9330491596        8.2090234876
End final coordinates



     Writing all to output data dir ./tmp/ZrFBr.save/

     init_run     :      0.58s CPU      0.61s WALL (       1 calls)
     electrons    :     90.15s CPU     92.25s WALL (      10 calls)
     update_pot   :      1.06s CPU      1.13s WALL (       9 calls)
     forces       :      1.85s CPU      1.86s WALL (      10 calls)

     Called by init_run:
     wfcinit      :      0.42s CPU      0.44s WALL (       1 calls)
     potinit      :      0.07s CPU      0.08s WALL (       1 calls)
     hinit0       :      0.06s CPU      0.07s WALL (       1 calls)

     Called by electrons:
     c_bands      :     76.84s CPU     78.19s WALL (      64 calls)
     sum_band     :     10.53s CPU     10.83s WALL (      64 calls)
     v_of_rho     :      0.21s CPU      0.22s WALL (      64 calls)
     newd         :      0.36s CPU      0.40s WALL (      64 calls)
     PAW_pot      :      3.00s CPU      3.55s WALL (      73 calls)
     mix_rho      :      0.01s CPU      0.01s WALL (      64 calls)

     Called by c_bands:
     init_us_2    :      0.58s CPU      0.59s WALL (   10804 calls)
     init_us_2:cp :      0.57s CPU      0.58s WALL (   10804 calls)
     cegterg      :     75.56s CPU     76.89s WALL (    4672 calls)

     Called by *egterg:
     cdiaghg      :     11.77s CPU     11.86s WALL (   14138 calls)
     h_psi        :     44.45s CPU     45.54s WALL (   15598 calls)
     s_psi        :      2.29s CPU      2.32s WALL (   15598 calls)
     g_psi        :      0.11s CPU      0.11s WALL (   10853 calls)

     Called by h_psi:
     h_psi:calbec :      3.98s CPU      4.07s WALL (   15598 calls)
     vloc_psi     :     38.07s CPU     39.03s WALL (   15598 calls)
     add_vuspsi   :      2.29s CPU      2.33s WALL (   15598 calls)

     General routines
     calbec       :      6.95s CPU      7.09s WALL (   23847 calls)
     fft          :      0.17s CPU      0.17s WALL (     833 calls)
     ffts         :      0.01s CPU      0.01s WALL (      64 calls)
     fftw         :     43.01s CPU     44.10s WALL (  682486 calls)

     Parallel routines

     PWSCF        :   1m35.01s CPU   1m37.56s WALL


   This run was terminated on:   8:56:40  18Sep2026            

=------------------------------------------------------------------------------=
   JOB DONE.
=------------------------------------------------------------------------------=
Note: The following floating-point exceptions are signalling: IEEE_INVALID_FLAG
