
     Program PWSCF v.7.2 starts on 18Sep2026 at  9: 0:23 

     This program is part of the open-source Quantum ESPRESSO suite
     for quantum simulation of materials; please cite
         "P. Giannozzi et al., J. Phys.:Condens. Matter 21 395502 (2009);
         "P. Giannozzi et al., J. Phys.:Condens. Matter 29 465901 (2017);
         "P. Giannozzi et al., J. Chem. Phys. 152 154105 (2020);
          URL http://www.quantum-espresso.org", 
     in publications or presentations arising from this work. More details at
     http://www.quantum-espresso.org/quote

     Parallel version (MPI), running on    32 processors

     MPI processes distributed on     1 nodes
     228846 MiB available memory on the printing compute node when the environment starts

     Waiting for input...
     Reading input from standard input

     Current dimensions of program PWSCF are:
     Max number of different atomic species (ntypx) = 10
     Max number of k-points (npk) =  40000
     Max angular momentum in pseudopotentials (lmaxx) =  4
     file Zr.pbe-spn-kjpaw_psl.1.0.0.UPF: wavefunction(s)  4S 4P renormalized
     file F.pbe-n-kjpaw_psl.1.0.0.UPF: wavefunction(s)  2S 2P renormalized
     file Br.pbe-n-kjpaw_psl.1.0.0.UPF: wavefunction(s)  4S 4P renormalized
     Message from routine setup:
     using ibrav=0 with symmetry is DISCOURAGED, use correct ibrav instead

     R & G space division:  proc/nbgrp/npool/nimage =      32
     Subspace diagonalization in iterative solution of the eigenvalue problem:
     a serial algorithm will be used


     Parallelization info
     --------------------
     sticks:   dense  smooth     PW     G-vecs:    dense   smooth      PW
     Min          22      22      6                 1426     1426     224
     Max          23      23      7                 1436     1436     239
     Sum         711     711    211                45771    45771    7339

     Using Slab Decomposition



     bravais-lattice index     =            0
     lattice parameter (alat)  =       6.3200  a.u.
     unit-cell volume          =     647.1501 (a.u.)^3
     number of atoms/cell      =            3
     number of atomic types    =            3
     number of electrons       =        26.00
     number of Kohn-Sham states=           26
     kinetic-energy cutoff     =      65.0000  Ry
     charge density cutoff     =     260.0000  Ry
     scf convergence threshold =      1.0E-08
     mixing beta               =       0.7000
     number of iterations used =            8  plain     mixing
     energy convergence thresh.=      1.0E-05
     force convergence thresh. =      1.0E-04
     Exchange-correlation= SLA  PW   PBX  PBC
                           (   1   4   3   4   0   0   0)
     nstep                     =           50


     celldm(1)=   6.320045  celldm(2)=   0.000000  celldm(3)=   0.000000
     celldm(4)=   0.000000  celldm(5)=   0.000000  celldm(6)=   0.000000

     crystal axes: (cart. coord. in units of alat)
               a(1) = (   1.000000   0.000000   0.000000 )  
               a(2) = (  -0.500000   0.857365   0.000000 )  
               a(3) = (   0.000000   0.000000   2.990052 )  

     reciprocal axes: (cart. coord. in units 2 pi/alat)
               b(1) = (  1.000000  0.583182 -0.000000 )  
               b(2) = (  0.000000  1.166364  0.000000 )  
               b(3) = (  0.000000 -0.000000  0.334442 )  


     PseudoPot. # 1 for Zr read from file:
     /mgpfs/home/rabdillah/repo/qe/pseudo/Zr.pbe-spn-kjpaw_psl.1.0.0.UPF
     MD5 check sum: 02112c41713a0468aff2bb39ef194e36
     Pseudo is Projector augmented-wave + core cor, Zval = 12.0
     Generated using &quot;atomic&quot; code by A. Dal Corso  v.6.2.2
     Shape of augmentation charge: PSQ
     Using radial grid of 1225 points,  6 beta functions with: 
                l(1) =   0
                l(2) =   0
                l(3) =   1
                l(4) =   1
                l(5) =   2
                l(6) =   2
     Q(r) pseudized with 0 coefficients 


     PseudoPot. # 2 for F  read from file:
     /mgpfs/home/rabdillah/repo/qe/pseudo/F.pbe-n-kjpaw_psl.1.0.0.UPF
     MD5 check sum: 66d718ea72839a4268ab2a9540e8cdd4
     Pseudo is Projector augmented-wave + core cor, Zval =  7.0
     Generated using &quot;atomic&quot; code by A. Dal Corso  v.6.3
     Shape of augmentation charge: PSQ
     Using radial grid of 1105 points,  4 beta functions with: 
                l(1) =   0
                l(2) =   0
                l(3) =   1
                l(4) =   1
     Q(r) pseudized with 0 coefficients 


     PseudoPot. # 3 for Br read from file:
     /mgpfs/home/rabdillah/repo/qe/pseudo/Br.pbe-n-kjpaw_psl.1.0.0.UPF
     MD5 check sum: b00de77caabc69c0a6b76eb37264f235
     Pseudo is Projector augmented-wave + core cor, Zval =  7.0
     Generated using &quot;atomic&quot; code by A. Dal Corso  v.6.3
     Shape of augmentation charge: PSQ
     Using radial grid of 1213 points,  4 beta functions with: 
                l(1) =   0
                l(2) =   0
                l(3) =   1
                l(4) =   1
     Q(r) pseudized with 0 coefficients 


     atomic species   valence    mass     pseudopotential
        Zr            12.00    91.22400     Zr( 1.00)
        F              7.00    18.99800     F ( 1.00)
        Br             7.00    79.90400     Br( 1.00)

      2 Sym. Ops. (no inversion) found



   Cartesian axes

     site n.     atom                  positions (alat units)
         1           Zr  tau(   1) = (   0.0000000   0.0000000   3.0210788  )
         2           F   tau(   2) = (  -0.0000000   0.5773503   3.4105834  )
         3           Br  tau(   3) = (  -0.0000000   0.5773503   2.4542273  )

     number of k points=    73
                       cart. coord. in units 2pi/alat
        k(    1) = (   0.0000000   0.0000000   0.0000000), wk =   0.0078125
        k(    2) = (   0.0000000   0.0728978   0.0000000), wk =   0.0156250
        k(    3) = (   0.0000000   0.1457955   0.0000000), wk =   0.0156250
        k(    4) = (   0.0000000   0.2186933   0.0000000), wk =   0.0156250
        k(    5) = (   0.0000000   0.2915910   0.0000000), wk =   0.0156250
        k(    6) = (   0.0000000   0.3644888   0.0000000), wk =   0.0156250
        k(    7) = (   0.0000000   0.4373866   0.0000000), wk =   0.0156250
        k(    8) = (   0.0000000   0.5102843   0.0000000), wk =   0.0156250
        k(    9) = (   0.0000000  -0.5831821   0.0000000), wk =   0.0078125
        k(   10) = (   0.0625000   0.0364489   0.0000000), wk =   0.0312500
        k(   11) = (   0.0625000   0.1093466   0.0000000), wk =   0.0312500
        k(   12) = (   0.0625000   0.1822444   0.0000000), wk =   0.0312500
        k(   13) = (   0.0625000   0.2551422   0.0000000), wk =   0.0312500
        k(   14) = (   0.0625000   0.3280399   0.0000000), wk =   0.0312500
        k(   15) = (   0.0625000   0.4009377   0.0000000), wk =   0.0312500
        k(   16) = (   0.0625000   0.4738354   0.0000000), wk =   0.0312500
        k(   17) = (   0.0625000   0.5467332   0.0000000), wk =   0.0312500
        k(   18) = (   0.1250000   0.0728978   0.0000000), wk =   0.0312500
        k(   19) = (   0.1250000   0.1457955   0.0000000), wk =   0.0312500
        k(   20) = (   0.1250000   0.2186933   0.0000000), wk =   0.0312500
        k(   21) = (   0.1250000   0.2915910   0.0000000), wk =   0.0312500
        k(   22) = (   0.1250000   0.3644888   0.0000000), wk =   0.0312500
        k(   23) = (   0.1250000   0.4373866   0.0000000), wk =   0.0312500
        k(   24) = (   0.1250000   0.5102843   0.0000000), wk =   0.0312500
        k(   25) = (   0.1250000   0.5831821   0.0000000), wk =   0.0156250
        k(   26) = (   0.1250000   0.0000000   0.0000000), wk =   0.0156250
        k(   27) = (   0.1875000   0.1093466   0.0000000), wk =   0.0312500
        k(   28) = (   0.1875000   0.1822444   0.0000000), wk =   0.0312500
        k(   29) = (   0.1875000   0.2551422   0.0000000), wk =   0.0312500
        k(   30) = (   0.1875000   0.3280399   0.0000000), wk =   0.0312500
        k(   31) = (   0.1875000   0.4009377   0.0000000), wk =   0.0312500
        k(   32) = (   0.1875000   0.4738354   0.0000000), wk =   0.0312500
        k(   33) = (   0.1875000   0.5467332   0.0000000), wk =   0.0312500
        k(   34) = (   0.1875000  -0.0364489   0.0000000), wk =   0.0312500
        k(   35) = (   0.2500000   0.1457955   0.0000000), wk =   0.0312500
        k(   36) = (   0.2500000   0.2186933   0.0000000), wk =   0.0312500
        k(   37) = (   0.2500000   0.2915910   0.0000000), wk =   0.0312500
        k(   38) = (   0.2500000   0.3644888   0.0000000), wk =   0.0312500
        k(   39) = (   0.2500000   0.4373866   0.0000000), wk =   0.0312500
        k(   40) = (   0.2500000   0.5102843   0.0000000), wk =   0.0312500
        k(   41) = (   0.2500000   0.5831821   0.0000000), wk =   0.0156250
        k(   42) = (   0.2500000  -0.0728978   0.0000000), wk =   0.0312500
        k(   43) = (   0.2500000   0.0000000   0.0000000), wk =   0.0156250
        k(   44) = (   0.3125000   0.1822444   0.0000000), wk =   0.0312500
        k(   45) = (   0.3125000   0.2551422   0.0000000), wk =   0.0312500
        k(   46) = (   0.3125000   0.3280399   0.0000000), wk =   0.0312500
        k(   47) = (   0.3125000   0.4009377   0.0000000), wk =   0.0312500
        k(   48) = (   0.3125000   0.4738354   0.0000000), wk =   0.0312500
        k(   49) = (   0.3125000   0.5467332   0.0000000), wk =   0.0312500
        k(   50) = (   0.3125000  -0.1093466   0.0000000), wk =   0.0312500
        k(   51) = (   0.3125000  -0.0364489   0.0000000), wk =   0.0312500
        k(   52) = (   0.3750000   0.2186933   0.0000000), wk =   0.0312500
        k(   53) = (   0.3750000   0.2915910   0.0000000), wk =   0.0312500
        k(   54) = (   0.3750000   0.3644888   0.0000000), wk =   0.0312500
        k(   55) = (   0.3750000   0.4373866   0.0000000), wk =   0.0312500
        k(   56) = (   0.3750000   0.5102843   0.0000000), wk =   0.0312500
        k(   57) = (   0.3750000   0.5831821   0.0000000), wk =   0.0156250
        k(   58) = (   0.3750000  -0.1457955   0.0000000), wk =   0.0312500
        k(   59) = (   0.3750000  -0.0728978   0.0000000), wk =   0.0312500
        k(   60) = (   0.3750000   0.0000000   0.0000000), wk =   0.0156250
        k(   61) = (   0.4375000   0.2551422   0.0000000), wk =   0.0312500
        k(   62) = (   0.4375000   0.3280399   0.0000000), wk =   0.0312500
        k(   63) = (   0.4375000   0.4009377   0.0000000), wk =   0.0312500
        k(   64) = (   0.4375000   0.4738354   0.0000000), wk =   0.0312500
        k(   65) = (   0.4375000   0.5467332   0.0000000), wk =   0.0312500
        k(   66) = (   0.4375000  -0.1822444   0.0000000), wk =   0.0312500
        k(   67) = (   0.4375000  -0.1093466   0.0000000), wk =   0.0312500
        k(   68) = (   0.4375000  -0.0364489   0.0000000), wk =   0.0312500
        k(   69) = (  -0.5000000  -0.2915910   0.0000000), wk =   0.0156250
        k(   70) = (  -0.5000000  -0.2186933   0.0000000), wk =   0.0312500
        k(   71) = (  -0.5000000  -0.1457955   0.0000000), wk =   0.0312500
        k(   72) = (  -0.5000000  -0.0728978   0.0000000), wk =   0.0312500
        k(   73) = (  -0.5000000  -0.0000000   0.0000000), wk =   0.0156250

     Dense  grid:    45771 G-vectors     FFT dimensions: (  36,  36, 100)

     Estimated max dynamical RAM per process >      14.34 MB

     Estimated total dynamical RAM >     458.93 MB

     Check: negative core charge=   -0.000002

     Initial potential from superposition of free atoms

     starting charge      25.9978, renormalised to      26.0000

     negative rho (up, down):  2.407E-07 0.000E+00
     Starting wfcs are   21 randomized atomic wfcs +    5 random wfcs
     Checking if some PAW data can be deallocated... 

     total cpu time spent up to now is        0.9 secs

     Self-consistent Calculation

     iteration #  1     ecut=    65.00 Ry     beta= 0.70
     Davidson diagonalization with overlap
     ethr =  1.00E-02,  avg # of iterations =  5.6

     Threshold (ethr) on eigenvalues was too large:
     Diagonalizing with lowered threshold

     Davidson diagonalization with overlap
     ethr =  9.70E-04,  avg # of iterations =  1.1

     negative rho (up, down):  2.385E-05 0.000E+00

     total cpu time spent up to now is        4.2 secs

     total energy              =    -571.11321725 Ry
     estimated scf accuracy    <       0.25377876 Ry

     iteration #  2     ecut=    65.00 Ry     beta= 0.70
     Davidson diagonalization with overlap
     ethr =  9.76E-04,  avg # of iterations =  3.7

     negative rho (up, down):  5.566E-07 0.000E+00

     total cpu time spent up to now is        6.0 secs

     total energy              =    -571.10195809 Ry
     estimated scf accuracy    <       0.62223169 Ry

     iteration #  3     ecut=    65.00 Ry     beta= 0.70
     Davidson diagonalization with overlap
     ethr =  9.76E-04,  avg # of iterations =  2.4

     negative rho (up, down):  2.735E-06 0.000E+00

     total cpu time spent up to now is        7.6 secs

     total energy              =    -571.22836234 Ry
     estimated scf accuracy    <       0.02473704 Ry

     iteration #  4     ecut=    65.00 Ry     beta= 0.70
     Davidson diagonalization with overlap
     ethr =  9.51E-05,  avg # of iterations =  3.2

     negative rho (up, down):  1.090E-05 0.000E+00

     total cpu time spent up to now is        9.0 secs

     total energy              =    -571.23321915 Ry
     estimated scf accuracy    <       0.00374284 Ry

     iteration #  5     ecut=    65.00 Ry     beta= 0.70
     Davidson diagonalization with overlap
     ethr =  1.44E-05,  avg # of iterations =  4.7

     negative rho (up, down):  2.217E-05 0.000E+00

     total cpu time spent up to now is       10.7 secs

     total energy              =    -571.23395983 Ry
     estimated scf accuracy    <       0.00119672 Ry

     iteration #  6     ecut=    65.00 Ry     beta= 0.70
     Davidson diagonalization with overlap
     ethr =  4.60E-06,  avg # of iterations =  2.8

     negative rho (up, down):  2.676E-05 0.000E+00

     total cpu time spent up to now is       12.1 secs

     total energy              =    -571.23419789 Ry
     estimated scf accuracy    <       0.00001608 Ry

     iteration #  7     ecut=    65.00 Ry     beta= 0.70
     Davidson diagonalization with overlap
     ethr =  6.18E-08,  avg # of iterations =  2.0

     negative rho (up, down):  2.808E-05 0.000E+00

     total cpu time spent up to now is       13.5 secs

     total energy              =    -571.23420222 Ry
     estimated scf accuracy    <       0.00000058 Ry

     iteration #  8     ecut=    65.00 Ry     beta= 0.70
     Davidson diagonalization with overlap
     ethr =  2.22E-09,  avg # of iterations =  3.1

     negative rho (up, down):  2.839E-05 0.000E+00

     total cpu time spent up to now is       15.0 secs

     total energy              =    -571.23420238 Ry
     estimated scf accuracy    <       0.00000002 Ry

     iteration #  9     ecut=    65.00 Ry     beta= 0.70
     Davidson diagonalization with overlap
     ethr =  8.52E-11,  avg # of iterations =  2.0

     negative rho (up, down):  2.842E-05 0.000E+00

     total cpu time spent up to now is       16.4 secs

     End of self-consistent calculation

          k = 0.0000 0.0000 0.0000 (  5637 PWs)   bands (ev):

   -45.2625 -23.7714 -22.9735 -22.9548 -20.6174 -12.9376  -3.1232  -2.4474
    -2.4017  -1.0891   1.4701   1.5704   3.8448   5.8587   5.9924   6.0685
     6.9304   6.9618   8.0272   8.9246  11.2498  14.1071  14.7748  14.9455
    15.4564  17.3841

          k = 0.0000 0.0729 0.0000 (  5682 PWs)   bands (ev):

   -45.2600 -23.7622 -22.9882 -22.9789 -20.6083 -12.9078  -3.0885  -2.4477
    -2.4405  -1.0652   1.3351   1.4270   3.8672   5.9058   5.9341   6.1440
     6.8812   7.0135   8.1620   9.1467  11.3959  14.1764  14.5211  14.9135
    15.3449  17.6399

          k = 0.0000 0.1458 0.0000 (  5722 PWs)   bands (ev):

   -45.2529 -23.7364 -23.0798 -22.9940 -20.5857 -12.8212  -2.9959  -2.5385
    -2.4493  -1.0074   0.7451   1.3085   3.9044   5.8088   6.0559   6.2303
     6.9615   7.1478   8.5191   9.6184  11.8140  13.7993  14.2184  15.1776
    15.3256  17.7561

          k = 0.0000 0.2187 0.0000 (  5720 PWs)   bands (ev):

   -45.2423 -23.6997 -23.2074 -23.0165 -20.5592 -12.6861  -2.8872  -2.6474
    -2.4550  -0.9483   0.0102   1.1421   3.8910   5.7489   6.2777   6.3202
     7.2776   7.3223   9.0040  10.0951  12.1905  13.4436  13.8715  15.5474
    15.9951  17.4419

          k = 0.0000 0.2916 0.0000 (  5728 PWs)   bands (ev):

   -45.2296 -23.6647 -23.3394 -23.0429 -20.5379 -12.5175  -2.8826  -2.6558
    -2.4663  -1.0283  -0.5942   0.9605   3.8002   5.8202   6.4334   6.6886
     7.5039   7.7013   9.4973  10.4859  12.0244  13.1086  14.3969  16.1007
    16.6962  16.7982

          k = 0.0000 0.3645 0.0000 (  5752 PWs)   bands (ev):

   -45.2170 -23.6610 -23.4308 -23.0692 -20.5256 -12.3372  -2.9777  -2.5843
    -2.4823  -1.5611  -0.6613   0.7926   3.6833   5.9825   6.6991   7.1035
     7.6963   8.2022   9.8533  10.7557  11.9069  12.7909  15.0331  15.5075
    16.5122  16.6830

          k = 0.0000 0.4374 0.0000 (  5752 PWs)   bands (ev):

   -45.2062 -23.7105 -23.4492 -23.0913 -20.5214 -12.1738  -3.0715  -2.5474
    -2.4994  -2.0626  -0.6055   0.6596   3.5964   6.1887   6.9307   7.4226
     7.9648   8.7969  10.0021  10.9641  12.0377  12.7302  14.0019  15.3765
    15.9390  15.9948

          k = 0.0000 0.5103 0.0000 (  5740 PWs)   bands (ev):

   -45.1990 -23.7649 -23.4370 -23.1060 -20.5215 -12.0582  -3.1444  -2.5786
    -2.5124  -2.3357  -0.5582   0.5751   3.5537   6.3987   6.9915   7.5631
     8.2754   9.4425  10.1021  11.1374  12.1093  12.6906  13.3272  14.8061
    15.1938  15.5514

          k = 0.0000-0.5832 0.0000 (  5746 PWs)   bands (ev):

   -45.1964 -23.7861 -23.4302 -23.1111 -20.5220 -12.0163  -3.1751  -2.6244
    -2.5173  -2.3925  -0.5407   0.5461   3.5425   6.5108   6.9593   7.5994
     8.4132   9.7969  10.1616  11.3079  11.8010  12.5772  13.4834  14.3264
    14.9975  15.3715

          k = 0.0625 0.0364 0.0000 (  5668 PWs)   bands (ev):

   -45.2601 -23.7623 -23.0037 -22.9629 -20.6080 -12.9087  -3.0883  -2.4787
    -2.4074  -1.0661   1.2591   1.5099   3.8606   5.8139   6.0339   6.1473
     6.8975   6.9951   8.1589   9.1454  11.3927  14.1761  14.4341  15.0415
    15.3168  17.6014

          k = 0.0625 0.1093 0.0000 (  5693 PWs)   bands (ev):

   -45.2553 -23.7448 -23.0560 -22.9833 -20.5922 -12.8505  -3.0241  -2.5234
    -2.4324  -1.0255   0.9057   1.3714   3.8906   5.7935   6.0544   6.2395
     6.8834   7.1185   8.4048   9.4857  11.6838  13.9563  14.2396  15.0625
    15.3418  17.7234

          k = 0.0625 0.1822 0.0000 (  5714 PWs)   bands (ev):

   -45.2464 -23.7134 -23.1599 -23.0079 -20.5679 -12.7395  -2.9181  -2.6187
    -2.4487  -0.9661   0.2874   1.1849   3.9078   5.7107   6.2513   6.3024
     7.0662   7.3025   8.8268   9.9459  12.1883  13.4213  13.9514  15.2300
    15.9037  17.3350

          k = 0.0625 0.2551 0.0000 (  5720 PWs)   bands (ev):

   -45.2348 -23.6765 -23.2860 -23.0367 -20.5444 -12.5873  -2.8447  -2.6855
    -2.4648  -0.9410  -0.3846   0.9740   3.8660   5.7235   6.3462   6.6268
     7.3408   7.5773   9.3195  10.3825  12.2989  13.2704  13.8083  15.7269
    16.6088  16.9316

          k = 0.0625 0.3280 0.0000 (  5746 PWs)   bands (ev):

   -45.2221 -23.6536 -23.3969 -23.0671 -20.5280 -12.4121  -2.9154  -2.6210
    -2.4859  -1.2716  -0.6722   0.7680   3.7762   5.8745   6.5003   7.0346
     7.5712   8.0136   9.7586  10.7410  12.0442  12.9171  14.6598  15.7331
    16.3146  16.6953

          k = 0.0625 0.4009 0.0000 (  5744 PWs)   bands (ev):

   -45.2104 -23.6783 -23.4461 -23.0948 -20.5201 -12.2389  -3.0116  -2.5595
    -2.5108  -1.8121  -0.6361   0.5923   3.6920   6.1026   6.7221   7.3434
     7.8128   8.6067  10.0240  10.9966  12.0263  12.7367  14.5718  15.2379
    15.8920  16.6942

          k = 0.0625 0.4738 0.0000 (  5735 PWs)   bands (ev):

   -45.2014 -23.7351 -23.4415 -23.1159 -20.5183 -12.0978  -3.0909  -2.5859
    -2.5103  -2.1838  -0.5813   0.4654   3.6445   6.3382   6.9053   7.4888
     8.0603   9.3212  10.1564  11.1736  12.1656  12.7764  13.5356  14.8970
    15.3356  16.0039

          k = 0.0625 0.5467 0.0000 (  5736 PWs)   bands (ev):

   -45.1965 -23.7734 -23.4299 -23.1274 -20.5188 -12.0179  -3.1409  -2.6610
    -2.5067  -2.3233  -0.5484   0.3991   3.6284   6.5135   6.9598   7.5349
     8.2360   9.9204  10.2922  11.3281  11.9784  12.6200  13.3946  14.3984
    15.0174  15.4265

          k = 0.1250 0.0729 0.0000 (  5684 PWs)   bands (ev):

   -45.2533 -23.7368 -23.0938 -22.9782 -20.5845 -12.8247  -2.9947  -2.5692
    -2.4112  -1.0112   0.6862   1.3907   3.8786   5.7284   6.1592   6.2511
     6.9660   7.1317   8.5094   9.6177  11.8031  13.7693  14.1897  15.1305
    15.4455  17.8514

          k = 0.1250 0.1458 0.0000 (  5701 PWs)   bands (ev):

   -45.2467 -23.7137 -23.1667 -22.9996 -20.5671 -12.7422  -2.9168  -2.6324
    -2.4300  -0.9695   0.2587   1.2317   3.8871   5.6935   6.2835   6.3188
     7.0545   7.3062   8.8203   9.9467  12.1836  13.4045  13.9302  15.2167
    15.9503  17.3626

          k = 0.1250 0.2187 0.0000 (  5714 PWs)   bands (ev):

   -45.2368 -23.6815 -23.2670 -23.0328 -20.5460 -12.6138  -2.8231  -2.7070
    -2.4573  -0.9325  -0.2753   0.9665   3.8852   5.6513   6.3828   6.6356
     7.2206   7.5592   9.2530  10.3584  12.7562  12.9898  13.5293  15.5224
    16.5974  16.9011

          k = 0.1250 0.2916 0.0000 (  5729 PWs)   bands (ev):

   -45.2252 -23.6530 -23.3682 -23.0725 -20.5282 -12.4540  -2.8509  -2.6654
    -2.4916  -1.0771  -0.6581   0.6698   3.8641   5.7217   6.4840   7.0083
     7.4668   7.9422   9.7064  10.7845  12.5199  13.0250  13.7677  15.5743
    16.3700  16.8355

          k = 0.1250 0.3645 0.0000 (  5730 PWs)   bands (ev):

   -45.2134 -23.6544 -23.4326 -23.1124 -20.5169 -12.2839  -2.9385  -2.5863
    -2.5294  -1.5459  -0.6672   0.3985   3.8369   5.9374   6.6044   7.2357
     7.7574   8.5399  10.0788  11.1778  12.2875  12.7948  14.5783  15.0058
    15.6580  16.6685

          k = 0.1250 0.4374 0.0000 (  5735 PWs)   bands (ev):

   -45.2035 -23.6965 -23.4411 -23.1463 -20.5120 -12.1303  -3.0132  -2.6125
    -2.5148  -1.9479  -0.6149   0.1849   3.8254   6.2463   6.7174   7.3747
     7.9359   9.3253  10.3182  11.4626  12.2726  12.7741  13.9966  14.6304
    15.4571  16.5243

          k = 0.1250 0.5103 0.0000 (  5741 PWs)   bands (ev):

   -45.1968 -23.7404 -23.4288 -23.1691 -20.5110 -12.0223  -3.0635  -2.7010
    -2.4952  -2.1616  -0.5724   0.0486   3.8310   6.5146   6.8316   7.4506
     7.9875  10.1006  10.5196  11.5873  12.2823  12.7730  13.3051  14.3771
    15.0612  15.8165

          k = 0.1250 0.5832 0.0000 (  5734 PWs)   bands (ev):

   -45.1945 -23.7574 -23.4223 -23.1771 -20.5110 -11.9831  -3.0818  -2.7488
    -2.4911  -2.2174  -0.5566   0.0016   3.8363   6.5981   6.9249   7.4488
     7.9983  10.3227  10.8765  11.7030  11.8934  12.6218  13.4291  14.2304
    15.0356  15.2832

          k = 0.1250 0.0000 0.0000 (  5688 PWs)   bands (ev):

   -45.2556 -23.7451 -23.0669 -22.9712 -20.5914 -12.8531  -3.0235  -2.5461
    -2.4040  -1.0280   0.8638   1.4279   3.8736   5.7203   6.1554   6.2397
     6.9270   7.0703   8.3977   9.4852  11.6763  13.9273  14.2282  15.0698
    15.3965  17.7151

          k = 0.1875 0.1093 0.0000 (  5703 PWs)   bands (ev):

   -45.2430 -23.7007 -23.2204 -22.9997 -20.5569 -12.6938  -2.8844  -2.6718
    -2.4155  -0.9585  -0.0322   1.2297   3.8395   5.7141   6.2865   6.4200
     7.2620   7.3215   8.9888  10.0996  12.1858  13.4081  13.8253  15.5019
    16.1011  17.5270

          k = 0.1875 0.1822 0.0000 (  5717 PWs)   bands (ev):

   -45.2355 -23.6776 -23.2953 -23.0236 -20.5425 -12.5942  -2.8456  -2.6970
    -2.4368  -0.9546  -0.4121   1.0471   3.8190   5.7209   6.3761   6.6593
     7.3284   7.5781   9.3070  10.3889  12.3105  13.2235  13.7605  15.7000
    16.6755  16.9495

          k = 0.1875 0.2551 0.0000 (  5725 PWs)   bands (ev):

   -45.2256 -23.6541 -23.3725 -23.0656 -20.5271 -12.4582  -2.8559  -2.6637
    -2.4792  -1.0911  -0.6646   0.7079   3.8371   5.7278   6.5026   7.0134
     7.4678   7.9377   9.7005  10.7898  12.5436  13.0008  13.7172  15.5801
    16.3338  16.8114

          k = 0.1875 0.3280 0.0000 (  5722 PWs)   bands (ev):

   -45.2148 -23.6475 -23.4256 -23.1185 -20.5146 -12.3029  -2.9043  -2.6013
    -2.5314  -1.4269  -0.6866   0.3125   3.8924   5.8189   6.6641   7.1300
     7.7657   8.5178  10.0976  11.2550  12.6425  12.8486  14.0080  14.8638
    15.9518  16.4554

          k = 0.1875 0.4009 0.0000 (  5743 PWs)   bands (ev):

   -45.2049 -23.6701 -23.4378 -23.1719 -20.5068 -12.1509  -2.9573  -2.6261
    -2.5186  -1.7483  -0.6543  -0.0437   3.9675   6.0328   6.7772   7.1931
     7.9468   9.3247  10.4341  11.7118  12.5452  12.8342  14.1348  14.7116
    15.0422  16.0536

          k = 0.1875 0.4738 0.0000 (  5746 PWs)   bands (ev):

   -45.1972 -23.7033 -23.4269 -23.2151 -20.5030 -12.0282  -3.0013  -2.7038
    -2.4851  -1.9639  -0.6276  -0.2985   4.0410   6.3424   6.7746   7.3461
     7.9264  10.1863  10.6766  12.0074  12.4687  12.9654  13.5933  14.2574
    15.1280  15.8492

          k = 0.1875 0.5467 0.0000 (  5737 PWs)   bands (ev):

   -45.1931 -23.7243 -23.4162 -23.2393 -20.5017 -11.9593  -3.0271  -2.7626
    -2.4718  -2.0596  -0.6243  -0.4195   4.0880   6.5899   6.7846   7.4641
     7.7973  10.5325  11.2771  12.0646  12.2936  12.7245  13.4498  14.3208
    14.9013  15.5276

          k = 0.1875-0.0364 0.0000 (  5697 PWs)   bands (ev):

   -45.2471 -23.7141 -23.1720 -22.9926 -20.5658 -12.7463  -2.9158  -2.6425
    -2.4115  -0.9733   0.2529   1.2513   3.8678   5.6574   6.2969   6.3769
     7.0917   7.2596   8.8137   9.9489  12.1777  13.4172  13.9168  15.2161
    15.9670  17.3285

          k = 0.2500 0.1458 0.0000 (  5721 PWs)   bands (ev):

   -45.2309 -23.6671 -23.3507 -23.0246 -20.5343 -12.5305  -2.8876  -2.6636
    -2.4242  -1.0548  -0.6128   1.0550   3.7306   5.8196   6.4490   6.7582
     7.4923   7.6964   9.4790  10.5012  12.0300  13.0492  14.3395  16.0357
    16.6100  16.9009

          k = 0.2500 0.2187 0.0000 (  5726 PWs)   bands (ev):

   -45.2233 -23.6570 -23.4055 -23.0505 -20.5249 -12.4243  -2.9235  -2.6202
    -2.4522  -1.2990  -0.6861   0.8569   3.7114   5.8839   6.5343   7.0647
     7.5696   8.0009   9.7437  10.7599  12.0516  12.8599  14.5815  15.6666
    16.2782  16.7144

          k = 0.2500 0.2916 0.0000 (  5742 PWs)   bands (ev):

   -45.2143 -23.6586 -23.4372 -23.1000 -20.5147 -12.2935  -2.9465  -2.5735
    -2.5152  -1.5638  -0.6777   0.4609   3.7896   5.9483   6.6367   7.2353
     7.7675   8.5271  10.0724  11.1948  12.3035  12.7577  14.5115  14.9546
    15.6067  16.6721

          k = 0.2500 0.3645 0.0000 (  5746 PWs)   bands (ev):

   -45.2054 -23.6732 -23.4394 -23.1653 -20.5056 -12.1563  -2.9617  -2.6131
    -2.5181  -1.7551  -0.6587  -0.0154   3.9443   6.0370   6.8031   7.1805
     7.9531   9.3178  10.4339  11.7203  12.5443  12.8448  14.1204  14.6429
    14.9984  16.1039

          k = 0.2500 0.4374 0.0000 (  5733 PWs)   bands (ev):

   -45.1977 -23.6881 -23.4263 -23.2324 -20.4989 -12.0343  -2.9836  -2.6903
    -2.4792  -1.8564  -0.6910  -0.4149   4.1255   6.1990   6.8405   7.2529
     7.9473  10.1980  10.7452  12.0742  12.6009  13.2019  13.8661  14.3412
    14.8343  15.3896

          k = 0.2500 0.5103 0.0000 (  5736 PWs)   bands (ev):

   -45.1926 -23.6955 -23.4130 -23.2840 -20.4950 -11.9497  -3.0190  -2.7206
    -2.4537  -1.8893  -0.8950  -0.5294   4.2713   6.4335   6.7505   7.4330
     7.7885  10.6324  11.2989  12.0403  12.9215  13.3707  13.5471  14.1221
    14.8187  15.3702

          k = 0.2500 0.5832 0.0000 (  5726 PWs)   bands (ev):

   -45.1908 -23.6970 -23.4077 -23.3036 -20.4938 -11.9193  -3.0378  -2.7230
    -2.4452  -1.8918  -1.0084  -0.5372   4.3271   6.5846   6.6996   7.4839
     7.6959  10.6143  11.9859  12.2237  12.2850  13.3007  13.7417  14.2034
    14.8216  15.4721

          k = 0.2500-0.0729 0.0000 (  5717 PWs)   bands (ev):

   -45.2360 -23.6781 -23.2969 -23.0200 -20.5409 -12.5992  -2.8452  -2.6985
    -2.4241  -0.9577  -0.4022   1.0448   3.8071   5.7077   6.3733   6.6991
     7.3324   7.5650   9.3038  10.3926  12.3124  13.2302  13.7850  15.6985
    16.6451  16.8974

          k = 0.2500 0.0000 0.0000 (  5720 PWs)   bands (ev):

   -45.2377 -23.6825 -23.2735 -23.0224 -20.5433 -12.6230  -2.8217  -2.7158
    -2.4290  -0.9420  -0.2733   0.9920   3.8499   5.6280   6.4122   6.6895
     7.2204   7.5403   9.2435  10.3645  12.7503  13.0231  13.5149  15.5012
    16.5912  16.8605

          k = 0.3125 0.1822 0.0000 (  5745 PWs)   bands (ev):

   -45.2187 -23.6670 -23.4382 -23.0493 -20.5210 -12.3560  -2.9850  -2.5819
    -2.4370  -1.5808  -0.6808   0.8937   3.6070   6.0021   6.7179   7.1436
     7.6933   8.1882   9.8348  10.7874  11.8970  12.7238  14.9610  15.4020
    16.5860  16.6259

          k = 0.3125 0.2551 0.0000 (  5727 PWs)   bands (ev):

   -45.2121 -23.6861 -23.4510 -23.0757 -20.5159 -12.2569  -3.0206  -2.5507
    -2.4749  -1.8271  -0.6572   0.6903   3.6198   6.1237   6.7469   7.3674
     7.8182   8.5849  10.0131  11.0299  12.0123  12.6708  14.4835  15.1731
    15.8852  16.6458

          k = 0.3125 0.3280 0.0000 (  5736 PWs)   bands (ev):

   -45.2049 -23.7044 -23.4441 -23.1301 -20.5087 -12.1459  -3.0224  -2.5848
    -2.5080  -1.9543  -0.6327   0.2595   3.7681   6.2610   6.7491   7.3732
     7.9475   9.3063  10.3160  11.4991  12.2631  12.7260  13.9167  14.6200
    15.3886  16.4748

          k = 0.3125 0.4009 0.0000 (  5741 PWs)   bands (ev):

   -45.1982 -23.7093 -23.4287 -23.2034 -20.5006 -12.0395  -3.0064  -2.6880
    -2.4797  -1.9654  -0.6321  -0.2600   4.0045   6.3431   6.8059   7.3372
     7.9367  10.1678  10.6778  12.0275  12.4786  12.9567  13.5159  14.2798
    15.0575  15.8933

          k = 0.3125 0.4738 0.0000 (  5729 PWs)   bands (ev):

   -45.1931 -23.6987 -23.4140 -23.2780 -20.4939 -11.9555  -3.0182  -2.7157
    -2.4507  -1.8901  -0.8748  -0.5353   4.2566   6.4288   6.7601   7.4324
     7.7966  10.6183  11.2964  12.0431  12.8958  13.3839  13.5420  14.1814
    14.7875  15.3530

          k = 0.3125 0.5467 0.0000 (  5711 PWs)   bands (ev):

   -45.1903 -23.6837 -23.4057 -23.3282 -20.4900 -11.9091  -3.0488  -2.6879
    -2.4294  -1.7416  -1.2686  -0.5519   4.4270   6.5460   6.6758   7.4081
     7.7593  10.5949  11.9764  12.1892  12.9680  13.2018  13.9627  14.1739
    14.9272  15.5292

          k = 0.3125-0.1093 0.0000 (  5725 PWs)   bands (ev):

   -45.2238 -23.6573 -23.4053 -23.0490 -20.5234 -12.4296  -2.9210  -2.6204
    -2.4418  -1.2883  -0.6854   0.8448   3.7094   5.8862   6.5286   7.0665
     7.5605   8.0100   9.7412  10.7653  12.0547  12.8636  14.6330  15.6612
    16.2815  16.6793

          k = 0.3125-0.0364 0.0000 (  5718 PWs)   bands (ev):

   -45.2265 -23.6551 -23.3743 -23.0598 -20.5241 -12.4687  -2.8550  -2.6627
    -2.4570  -1.0832  -0.6586   0.7021   3.8194   5.7184   6.5283   7.0147
     7.4565   7.9436   9.6956  10.7965  12.5559  13.0035  13.7716  15.5458
    16.3139  16.7876

          k = 0.3750 0.2187 0.0000 (  5733 PWs)   bands (ev):

   -45.2083 -23.7199 -23.4528 -23.0700 -20.5159 -12.1979  -3.0798  -2.5391
    -2.4509  -2.0677  -0.6333   0.7660   3.5188   6.2222   6.9499   7.4433
     7.9576   8.7783   9.9837  11.0002  12.0044  12.6541  13.9262  15.3046
    15.8316  16.0969

          k = 0.3750 0.2916 0.0000 (  5740 PWs)   bands (ev):

   -45.2035 -23.7451 -23.4443 -23.0952 -20.5133 -12.1213  -3.1017  -2.5634
    -2.4840  -2.1801  -0.6096   0.5672   3.5706   6.3783   6.9099   7.5116
     8.0565   9.3002  10.1465  11.2078  12.1218  12.6967  13.4756  14.8544
    15.2947  16.0071

          k = 0.3750 0.3645 0.0000 (  5726 PWs)   bands (ev):

   -45.1986 -23.7496 -23.4310 -23.1507 -20.5067 -12.0431  -3.0737  -2.6753
    -2.4826  -2.1512  -0.5958   0.1259   3.7711   6.5534   6.8319   7.4613
     7.9872  10.0789  10.5127  11.6377  12.2289  12.6976  13.2807  14.3604
    15.0134  15.7769

          k = 0.3750 0.4374 0.0000 (  5729 PWs)   bands (ev):

   -45.1945 -23.7318 -23.4181 -23.2248 -20.4984 -11.9758  -3.0301  -2.7443
    -2.4633  -2.0509  -0.6194  -0.3922   4.0481   6.6041   6.7875   7.4755
     7.8001  10.5018  11.2660  12.0673  12.2797  12.7254  13.4358  14.3090
    14.8808  15.4681

          k = 0.3750 0.5103 0.0000 (  5723 PWs)   bands (ev):

   -45.1917 -23.7017 -23.4092 -23.2944 -20.4916 -11.9303  -3.0333  -2.7130
    -2.4403  -1.8849  -0.9826  -0.5512   4.3096   6.5849   6.6955   7.4792
     7.7159  10.5796  11.9892  12.1788  12.2488  13.3950  13.7757  14.2211
    14.7840  15.4369

          k = 0.3750 0.5832 0.0000 (  5726 PWs)   bands (ev):

   -45.1907 -23.6851 -23.4062 -23.3250 -20.4890 -11.9143  -3.0453  -2.6819
    -2.4278  -1.7287  -1.2705  -0.5583   4.4249   6.5436   6.6733   7.3978
     7.7724  10.5732  11.9928  12.1107  13.0246  13.1926  14.0683  14.1445
    14.8907  15.5116

          k = 0.3750-0.1458 0.0000 (  5749 PWs)   bands (ev):

   -45.2125 -23.6857 -23.4506 -23.0754 -20.5147 -12.2618  -3.0170  -2.5509
    -2.4653  -1.8163  -0.6588   0.6763   3.6239   6.1305   6.7521   7.3483
     7.8007   8.5978  10.0015  11.0390  12.0127  12.6735  14.5014  15.2030
    15.8492  16.6678

          k = 0.3750-0.0729 0.0000 (  5732 PWs)   bands (ev):

   -45.2152 -23.6589 -23.4369 -23.0975 -20.5120 -12.3038  -2.9412  -2.5756
    -2.4932  -1.5405  -0.6812   0.4406   3.7886   5.9489   6.6466   7.2253
     7.7391   8.5382  10.0618  11.2033  12.3094  12.7682  14.5727  14.9655
    15.6115  16.6372

          k = 0.3750 0.0000 0.0000 (  5730 PWs)   bands (ev):

   -45.2162 -23.6495 -23.4273 -23.1104 -20.5107 -12.3184  -2.9024  -2.5955
    -2.5033  -1.4052  -0.6931   0.3101   3.8715   5.8157   6.7100   7.1039
     7.7419   8.5224  10.0867  11.2640  12.6369  12.8954  14.0427  14.8400
    15.9387  16.4044

          k = 0.4375 0.2551 0.0000 (  5730 PWs)   bands (ev):

   -45.2014 -23.7753 -23.4395 -23.0839 -20.5155 -12.0863  -3.1558  -2.5653
    -2.4625  -2.3291  -0.5916   0.6848   3.4761   6.4454   7.0070   7.5821
     8.2476   9.4314  10.0777  11.1539  12.0446  12.6065  13.2958  14.7271
    15.1113  15.6674

          k = 0.4375 0.3280 0.0000 (  5726 PWs)   bands (ev):

   -45.1989 -23.7837 -23.4321 -23.1059 -20.5131 -12.0452  -3.1535  -2.6361
    -2.4800  -2.3053  -0.5809   0.5003   3.5557   6.5709   6.9574   7.5556
     8.2105   9.9152  10.2733  11.3332  11.9018  12.5556  13.3742  14.3329
    14.9540  15.4908

          k = 0.4375 0.4009 0.0000 (  5728 PWs)   bands (ev):

   -45.1965 -23.7666 -23.4244 -23.1581 -20.5060 -12.0077  -3.0915  -2.7185
    -2.4770  -2.1985  -0.5823   0.0747   3.7785   6.6432   6.9267   7.4645
     7.9762  10.2954  10.8581  11.7304  11.8344  12.5833  13.4184  14.1815
    15.0003  15.2676

          k = 0.4375 0.4738 0.0000 (  5731 PWs)   bands (ev):

   -45.1948 -23.7314 -23.4181 -23.2245 -20.4976 -11.9794  -3.0279  -2.7359
    -2.4631  -2.0438  -0.6195  -0.4019   4.0516   6.6059   6.7880   7.4891
     7.7752  10.4860  11.2077  12.0995  12.3077  12.7434  13.4348  14.2966
    14.8792  15.5015

          k = 0.4375 0.5467 0.0000 (  5727 PWs)   bands (ev):

   -45.1938 -23.6992 -23.4142 -23.2751 -20.4920 -11.9642  -3.0131  -2.7006
    -2.4489  -1.8685  -0.8823  -0.5477   4.2591   6.4283   6.7538   7.4429
     7.7794  10.5840  11.2203  12.0866  12.8895  13.4147  13.6281  14.1412
    14.7785  15.3715

          k = 0.4375-0.1822 0.0000 (  5733 PWs)   bands (ev):

   -45.2038 -23.7444 -23.4442 -23.0953 -20.5125 -12.1247  -3.0986  -2.5554
    -2.4829  -2.1758  -0.6107   0.5566   3.5757   6.3748   6.9397   7.4925
     8.0323   9.3038  10.1229  11.2179  12.1264  12.6968  13.4913  14.8677
    15.2868  16.0051

          k = 0.4375-0.1093 0.0000 (  5742 PWs)   bands (ev):

   -45.2056 -23.7035 -23.4438 -23.1294 -20.5067 -12.1542  -3.0164  -2.5714
    -2.5036  -1.9370  -0.6358   0.2383   3.7750   6.2673   6.7522   7.3793
     7.9027   9.3052  10.2822  11.5141  12.2705  12.7333  13.9508  14.6168
    15.4117  16.4920

          k = 0.4375-0.0364 0.0000 (  5748 PWs)   bands (ev):

   -45.2065 -23.6737 -23.4396 -23.1612 -20.5023 -12.1702  -2.9557  -2.5930
    -2.5096  -1.7255  -0.6652  -0.0364   3.9429   6.0344   6.8148   7.1869
     7.9113   9.3064  10.4034  11.7288  12.5341  12.8979  14.1252  14.7014
    15.0182  16.0642

          k =-0.5000-0.2916 0.0000 (  5734 PWs)   bands (ev):

   -45.1990 -23.7966 -23.4324 -23.0887 -20.5159 -12.0459  -3.1883  -2.6081
    -2.4675  -2.3816  -0.5760   0.6570   3.4650   6.5679   6.9683   7.6193
     8.3743   9.7984  10.1409  11.2769  11.7393  12.5154  13.4574  14.2467
    14.9144  15.4956

          k =-0.5000-0.2187 0.0000 (  5724 PWs)   bands (ev):

   -45.1990 -23.7834 -23.4321 -23.1059 -20.5128 -12.0464  -3.1522  -2.6317
    -2.4805  -2.3046  -0.5812   0.4964   3.5579   6.5612   6.9832   7.5448
     8.2008   9.9089  10.2626  11.3322  11.9164  12.5580  13.3717  14.3393
    14.9657  15.4781

          k =-0.5000-0.1458 0.0000 (  5735 PWs)   bands (ev):

   -45.1990 -23.7488 -23.4309 -23.1507 -20.5056 -12.0478  -3.0699  -2.6630
    -2.4828  -2.1442  -0.5971   0.1129   3.7771   6.5434   6.8609   7.4631
     7.9508  10.0709  10.4640  11.6490  12.2600  12.7055  13.2926  14.3542
    15.0276  15.7826

          k =-0.5000-0.0729 0.0000 (  5749 PWs)   bands (ev):

   -45.1990 -23.7087 -23.4287 -23.2018 -20.4985 -12.0492  -3.0008  -2.6683
    -2.4776  -1.9442  -0.6350  -0.2824   4.0109   6.3468   6.7965   7.3660
     7.8897  10.1490  10.6122  12.0513  12.4868  12.9939  13.5537  14.2542
    15.0896  15.9138

          k =-0.5000-0.0000 0.0000 (  5756 PWs)   bands (ev):

   -45.1990 -23.6899 -23.4270 -23.2259 -20.4955 -12.0498  -2.9784  -2.6635
    -2.4742  -1.8273  -0.6932  -0.4340   4.1203   6.1943   6.8424   7.2775
     7.9093  10.1659  10.6789  12.1129  12.5722  13.2967  13.8746  14.3541
    14.8349  15.3881

     highest occupied, lowest unoccupied level (ev):     4.4270    5.6280

!    total energy              =    -571.23420239 Ry
     total all-electron energy =    -12610.611614 Ry
     estimated scf accuracy    <          5.7E-10 Ry

     The total energy is the sum of the following terms:
     one-electron contribution =    -280.79170977 Ry
     hartree contribution      =     149.00754948 Ry
     xc contribution           =     -36.37272431 Ry
     ewald contribution        =      -6.22072320 Ry
     one-center paw contrib.   =    -396.85659458 Ry

     convergence has been achieved in   9 iterations

     negative rho (up, down):  2.842E-05 0.000E+00

     Forces acting on atoms (cartesian axes, Ry/au):

     atom    1 type  1   force =     0.00000000    0.00494789   -0.00109508
     atom    2 type  2   force =     0.00000000   -0.00215438    0.00366434
     atom    3 type  3   force =     0.00000000   -0.00279350   -0.00256926
     The non-local contrib.  to forces
     atom    1 type  1   force =     0.00000000    0.00162476   -0.02404031
     atom    2 type  2   force =     0.00000000   -0.00449206   -1.00204552
     atom    3 type  3   force =     0.00000000   -0.00209125    0.21000585
     The ionic contribution  to forces
     atom    1 type  1   force =    -0.00000001   -0.00912482   -0.59243971
     atom    2 type  2   force =     0.00000001    0.00348506   24.94396738
     atom    3 type  3   force =     0.00000000    0.00563976  -24.35152767
     The local contribution  to forces
     atom    1 type  1   force =    -0.00000000    0.01237557    0.61125244
     atom    2 type  2   force =     0.00000027   -0.00116833  -23.94152088
     atom    3 type  3   force =    -0.00000000   -0.00644858   24.14128384
     The core correction contribution to forces
     atom    1 type  1   force =    -0.00000000    0.00007302    0.00407350
     atom    2 type  2   force =     0.00000000    0.00002069    0.00323397
     atom    3 type  3   force =    -0.00000000    0.00010684   -0.00232772
     The Hubbard contrib.    to forces
     atom    1 type  1   force =     0.00000000    0.00000000    0.00000000
     atom    2 type  2   force =     0.00000000    0.00000000    0.00000000
     atom    3 type  3   force =     0.00000000    0.00000000    0.00000000
     The SCF correction term to forces
     atom    1 type  1   force =    -0.00000000   -0.00000007    0.00005416
     atom    2 type  2   force =     0.00000000    0.00000082    0.00002455
     atom    3 type  3   force =     0.00000000    0.00000029   -0.00000839

     Total force =     0.007626     Total SCF correction =     0.000060

     BFGS Geometry Optimization
     Energy error            =      0.0E+00 Ry
     Gradient error          =      4.9E-03 Ry/Bohr

     number of scf cycles    =   1
     number of bfgs steps    =   0

     energy             new  =    -571.2342023877 Ry

     new trust radius        =       0.0050676232 bohr
     new conv_thr            =       0.0000000100 Ry


ATOMIC_POSITIONS (angstrom)
Zr            0.0000000000        0.0026183099       10.1031877262
F            -0.0000000020        1.9297638303       11.4083749307
Br           -0.0000000020        1.9294256230        8.2066160561



     Writing config-only to output data dir ./tmp/ZrFBr.save/
     NEW-OLD atomic charge density approx. for the potential

     Check: negative core charge=   -0.000002

     negative rho (up, down):  2.838E-05 0.000E+00

     total cpu time spent up to now is       16.8 secs

     Self-consistent Calculation

     iteration #  1     ecut=    65.00 Ry     beta= 0.70
     Davidson diagonalization with overlap
     ethr =  1.00E-06,  avg # of iterations =  3.0

     Threshold (ethr) on eigenvalues was too large:
     Diagonalizing with lowered threshold

     Davidson diagonalization with overlap
     ethr =  1.01E-08,  avg # of iterations =  3.0

     negative rho (up, down):  2.807E-05 0.000E+00

     total cpu time spent up to now is       20.2 secs

     total energy              =    -571.23425296 Ry
     estimated scf accuracy    <       0.00000272 Ry

     iteration #  2     ecut=    65.00 Ry     beta= 0.70
     Davidson diagonalization with overlap
     ethr =  1.04E-08,  avg # of iterations =  2.2

     negative rho (up, down):  2.820E-05 0.000E+00

     total cpu time spent up to now is       21.6 secs

     total energy              =    -571.23425294 Ry
     estimated scf accuracy    <       0.00000283 Ry

     iteration #  3     ecut=    65.00 Ry     beta= 0.70
     Davidson diagonalization with overlap
     ethr =  1.04E-08,  avg # of iterations =  2.0

     negative rho (up, down):  2.821E-05 0.000E+00

     total cpu time spent up to now is       22.9 secs

     total energy              =    -571.23425367 Ry
     estimated scf accuracy    <       0.00000087 Ry

     iteration #  4     ecut=    65.00 Ry     beta= 0.70
     Davidson diagonalization with overlap
     ethr =  3.35E-09,  avg # of iterations =  1.0

     negative rho (up, down):  2.821E-05 0.000E+00

     total cpu time spent up to now is       24.1 secs

     total energy              =    -571.23425383 Ry
     estimated scf accuracy    <       0.00000006 Ry

     iteration #  5     ecut=    65.00 Ry     beta= 0.70
     Davidson diagonalization with overlap
     ethr =  2.46E-10,  avg # of iterations =  2.0

     negative rho (up, down):  2.820E-05 0.000E+00

     total cpu time spent up to now is       25.5 secs

     total energy              =    -571.23425384 Ry
     estimated scf accuracy    <       0.00000001 Ry

     iteration #  6     ecut=    65.00 Ry     beta= 0.70
     Davidson diagonalization with overlap
     ethr =  4.08E-11,  avg # of iterations =  2.0

     negative rho (up, down):  2.821E-05 0.000E+00

     total cpu time spent up to now is       26.8 secs

     End of self-consistent calculation

          k = 0.0000 0.0000 0.0000 (  5637 PWs)   bands (ev):

   -45.2686 -23.7743 -22.9788 -22.9608 -20.6123 -12.9410  -3.1179  -2.4346
    -2.3942  -1.0921   1.4714   1.5651   3.8347   5.8545   5.9914   6.0568
     6.9342   6.9471   8.0277   8.9252  11.2486  14.1111  14.7687  14.9423
    15.4480  17.3746

          k = 0.0000 0.0729 0.0000 (  5682 PWs)   bands (ev):

   -45.2661 -23.7651 -22.9942 -22.9841 -20.6033 -12.9112  -3.0830  -2.4348
    -2.4331  -1.0683   1.3300   1.4281   3.8568   5.9016   5.9254   6.1413
     6.8834   6.9989   8.1624   9.1481  11.3944  14.1796  14.5184  14.9075
    15.3352  17.6329

          k = 0.0000 0.1458 0.0000 (  5722 PWs)   bands (ev):

   -45.2590 -23.7393 -23.0857 -22.9993 -20.5808 -12.8246  -2.9898  -2.5314
    -2.4365  -1.0108   0.7405   1.3094   3.8933   5.7985   6.0515   6.2316
     6.9612   7.1335   8.5192   9.6211  11.8118  13.7961  14.2177  15.1706
    15.3199  17.7519

          k = 0.0000 0.2187 0.0000 (  5720 PWs)   bands (ev):

   -45.2483 -23.7025 -23.2131 -23.0218 -20.5545 -12.6895  -2.8800  -2.6410
    -2.4422  -0.9524   0.0062   1.1426   3.8790   5.7400   6.2782   6.3156
     7.2775   7.3082   9.0037  10.0986  12.1879  13.4388  13.8665  15.5451
    15.9899  17.4359

          k = 0.0000 0.2916 0.0000 (  5728 PWs)   bands (ev):

   -45.2357 -23.6673 -23.3452 -23.0482 -20.5333 -12.5209  -2.8745  -2.6497
    -2.4536  -1.0331  -0.5978   0.9606   3.7874   5.8144   6.4312   6.6840
     7.4900   7.7019   9.4959  10.4897  12.0221  13.0997  14.3953  16.0987
    16.6969  16.7947

          k = 0.0000 0.3645 0.0000 (  5752 PWs)   bands (ev):

   -45.2230 -23.6635 -23.4366 -23.0744 -20.5211 -12.3406  -2.9703  -2.5776
    -2.4697  -1.5646  -0.6663   0.7924   3.6701   5.9799   6.6952   7.0987
     7.6827   8.2022   9.8499  10.7602  11.9051  12.7822  15.0385  15.5024
    16.5050  16.6795

          k = 0.0000 0.4374 0.0000 (  5752 PWs)   bands (ev):

   -45.2122 -23.7135 -23.4544 -23.0965 -20.5169 -12.1771  -3.0649  -2.5410
    -2.4869  -2.0644  -0.6114   0.6592   3.5829   6.1882   6.9271   7.4160
     7.9531   8.7945   9.9980  10.9677  12.0349  12.7237  14.0059  15.3754
    15.9328  15.9863

          k = 0.0000 0.5103 0.0000 (  5740 PWs)   bands (ev):

   -45.2050 -23.7683 -23.4418 -23.1112 -20.5170 -12.0615  -3.1389  -2.5747
    -2.5000  -2.3336  -0.5645   0.5746   3.5401   6.3997   6.9882   7.5546
     8.2656   9.4381  10.0986  11.1373  12.1065  12.6886  13.3301  14.8036
    15.1906  15.5423

          k = 0.0000-0.5832 0.0000 (  5746 PWs)   bands (ev):

   -45.2025 -23.7895 -23.4349 -23.1163 -20.5176 -12.0196  -3.1702  -2.6222
    -2.5049  -2.3879  -0.5472   0.5456   3.5289   6.5129   6.9554   7.5903
     8.4041   9.7937  10.1562  11.3016  11.8065  12.5744  13.4862  14.3214
    14.9964  15.3623

          k = 0.0625 0.0364 0.0000 (  5668 PWs)   bands (ev):

   -45.2662 -23.7653 -23.0088 -22.9689 -20.6031 -12.9121  -3.0830  -2.4665
    -2.3996  -1.0692   1.2592   1.5055   3.8511   5.8089   6.0266   6.1424
     6.8907   6.9917   8.1589   9.1458  11.3911  14.1794  14.4279  15.0380
    15.3102  17.5936

          k = 0.0625 0.1093 0.0000 (  5693 PWs)   bands (ev):

   -45.2614 -23.7477 -23.0615 -22.9888 -20.5874 -12.8539  -3.0184  -2.5138
    -2.4220  -1.0287   0.9026   1.3705   3.8806   5.7850   6.0491   6.2377
     6.8814   7.1082   8.4048   9.4874  11.6817  13.9523  14.2405  15.0574
    15.3352  17.7176

          k = 0.0625 0.1822 0.0000 (  5714 PWs)   bands (ev):

   -45.2525 -23.7162 -23.1654 -23.0132 -20.5632 -12.7429  -2.9116  -2.6110
    -2.4369  -0.9698   0.2835   1.1849   3.8969   5.7013   6.2478   6.3012
     7.0617   7.2935   8.8265   9.9487  12.1857  13.4175  13.9465  15.2276
    15.8985  17.3296

          k = 0.0625 0.2551 0.0000 (  5720 PWs)   bands (ev):

   -45.2408 -23.6792 -23.2916 -23.0419 -20.5398 -12.5907  -2.8368  -2.6792
    -2.4527  -0.9456  -0.3881   0.9740   3.8543   5.7156   6.3456   6.6218
     7.3299   7.5750   9.3187  10.3859  12.2965  13.2627  13.8049  15.7258
    16.6069  16.9247

          k = 0.0625 0.3280 0.0000 (  5746 PWs)   bands (ev):

   -45.2282 -23.6561 -23.4026 -23.0722 -20.5235 -12.4154  -2.9077  -2.6142
    -2.4739  -1.2756  -0.6765   0.7677   3.7637   5.8693   6.4981   7.0295
     7.5578   8.0141   9.7563  10.7448  12.0422  12.9082  14.6584  15.7320
    16.3111  16.6936

          k = 0.0625 0.4009 0.0000 (  5744 PWs)   bands (ev):

   -45.2165 -23.6810 -23.4515 -23.0999 -20.5157 -12.2422  -3.0046  -2.5521
    -2.4992  -1.8148  -0.6415   0.5917   3.6792   6.1003   6.7186   7.3370
     7.8012   8.6057  10.0199  11.0006  12.0242  12.7291  14.5756  15.2335
    15.8879  16.6863

          k = 0.0625 0.4738 0.0000 (  5735 PWs)   bands (ev):

   -45.2075 -23.7383 -23.4465 -23.1210 -20.5140 -12.1010  -3.0848  -2.5780
    -2.5011  -2.1837  -0.5873   0.4646   3.6314   6.3382   6.9018   7.4809
     8.0503   9.3182  10.1521  11.1756  12.1620  12.7717  13.5396  14.8916
    15.3353  15.9953

          k = 0.0625 0.5467 0.0000 (  5736 PWs)   bands (ev):

   -45.2026 -23.7768 -23.4346 -23.1324 -20.5144 -12.0212  -3.1357  -2.6556
    -2.4975  -2.3194  -0.5547   0.3982   3.6152   6.5151   6.9563   7.5263
     8.2262   9.9179  10.2863  11.3255  11.9795  12.6173  13.3966  14.3948
    15.0162  15.4182

          k = 0.1250 0.0729 0.0000 (  5684 PWs)   bands (ev):

   -45.2593 -23.7398 -23.0986 -22.9841 -20.5799 -12.8281  -2.9893  -2.5581
    -2.4030  -1.0144   0.6852   1.3871   3.8709   5.7211   6.1531   6.2447
     6.9619   7.1282   8.5086   9.6180  11.8006  13.7642  14.1886  15.1301
    15.4411  17.8468

          k = 0.1250 0.1458 0.0000 (  5701 PWs)   bands (ev):

   -45.2528 -23.7166 -23.1717 -23.0052 -20.5626 -12.7455  -2.9109  -2.6229
    -2.4205  -0.9729   0.2560   1.2299   3.8787   5.6846   6.2820   6.3106
     7.0519   7.2993   8.8196   9.9482  12.1804  13.4007  13.9265  15.2162
    15.9457  17.3555

          k = 0.1250 0.2187 0.0000 (  5714 PWs)   bands (ev):

   -45.2429 -23.6843 -23.2723 -23.0381 -20.5417 -12.6171  -2.8160  -2.6992
    -2.4469  -0.9364  -0.2787   0.9655   3.8760   5.6422   6.3808   6.6299
     7.2126   7.5561   9.2520  10.3608  12.7527  12.9857  13.5242  15.5217
    16.5947  16.8938

          k = 0.1250 0.2916 0.0000 (  5729 PWs)   bands (ev):

   -45.2312 -23.6556 -23.3737 -23.0777 -20.5239 -12.4573  -2.8430  -2.6584
    -2.4809  -1.0811  -0.6620   0.6689   3.8540   5.7135   6.4830   7.0016
     7.4552   7.9428   9.7045  10.7874  12.5181  13.0165  13.7646  15.5719
    16.3683  16.8344

          k = 0.1250 0.3645 0.0000 (  5730 PWs)   bands (ev):

   -45.2195 -23.6569 -23.4382 -23.1174 -20.5127 -12.2872  -2.9312  -2.5778
    -2.5196  -1.5493  -0.6719   0.3974   3.8260   5.9311   6.6034   7.2269
     7.7479   8.5400  10.0753  11.1810  12.2860  12.7872  14.5755  15.0035
    15.6557  16.6674

          k = 0.1250 0.4374 0.0000 (  5735 PWs)   bands (ev):

   -45.2096 -23.6995 -23.4464 -23.1512 -20.5079 -12.1336  -3.0065  -2.6024
    -2.5074  -1.9496  -0.6202   0.1836   3.8139   6.2426   6.7154   7.3655
     7.9277   9.3241  10.3133  11.4649  12.2697  12.7690  13.9970  14.6275
    15.4555  16.5163

          k = 0.1250 0.5103 0.0000 (  5741 PWs)   bands (ev):

   -45.2029 -23.7436 -23.4337 -23.1739 -20.5068 -12.0255  -3.0575  -2.6933
    -2.4877  -2.1602  -0.5780   0.0470   3.8191   6.5139   6.8283   7.4424
     7.9783  10.0990  10.5136  11.5875  12.2779  12.7699  13.3082  14.3736
    15.0616  15.8095

          k = 0.1250 0.5832 0.0000 (  5734 PWs)   bands (ev):

   -45.2005 -23.7607 -23.4272 -23.1819 -20.5069 -11.9864  -3.0762  -2.7423
    -2.4836  -2.2145  -0.5622  -0.0001   3.8243   6.5982   6.9221   7.4410
     7.9880  10.3203  10.8695  11.6980  11.8982  12.6164  13.4311  14.2300
    15.0346  15.2759

          k = 0.1250 0.0000 0.0000 (  5688 PWs)   bands (ev):

   -45.2617 -23.7481 -23.0715 -22.9773 -20.5867 -12.8565  -3.0182  -2.5341
    -2.3967  -1.0312   0.8640   1.4229   3.8662   5.7143   6.1448   6.2364
     6.9165   7.0736   8.3966   9.4849  11.6742  13.9210  14.2287  15.0677
    15.3944  17.7104

          k = 0.1875 0.1093 0.0000 (  5703 PWs)   bands (ev):

   -45.2491 -23.7037 -23.2247 -23.0055 -20.5528 -12.6971  -2.8785  -2.6621
    -2.4075  -0.9617  -0.0342   1.2264   3.8340   5.7058   6.2822   6.4098
     7.2632   7.3145   8.9868  10.0997  12.1818  13.4049  13.8223  15.5038
    16.0970  17.4469

          k = 0.1875 0.1822 0.0000 (  5717 PWs)   bands (ev):

   -45.2415 -23.6805 -23.2999 -23.0291 -20.5384 -12.5974  -2.8382  -2.6893
    -2.4279  -0.9578  -0.4153   1.0448   3.8128   5.7125   6.3693   6.6531
     7.3234   7.5757   9.3051  10.3898  12.3055  13.2212  13.7574  15.6994
    16.6728  16.9431

          k = 0.1875 0.2551 0.0000 (  5725 PWs)   bands (ev):

   -45.2316 -23.6567 -23.3775 -23.0709 -20.5230 -12.4615  -2.8475  -2.6572
    -2.4698  -1.0943  -0.6686   0.7062   3.8301   5.7189   6.4979   7.0068
     7.4584   7.9385   9.6980  10.7917  12.5386  12.9977  13.7145  15.5759
    16.3339  16.8110

          k = 0.1875 0.3280 0.0000 (  5722 PWs)   bands (ev):

   -45.2209 -23.6499 -23.4310 -23.1236 -20.5106 -12.3062  -2.8964  -2.5937
    -2.5225  -1.4303  -0.6909   0.3108   3.8847   5.8102   6.6621   7.1206
     7.7570   8.5188  10.0938  11.2576  12.6401  12.8438  14.0049  14.8586
    15.9523  16.4550

          k = 0.1875 0.4009 0.0000 (  5743 PWs)   bands (ev):

   -45.2109 -23.6727 -23.4432 -23.1767 -20.5028 -12.1541  -2.9500  -2.6164
    -2.5118  -1.7511  -0.6587  -0.0456   3.9589   6.0252   6.7767   7.1821
     7.9396   9.3248  10.4288  11.7139  12.5432  12.8305  14.1296  14.7100
    15.0407  16.0545

          k = 0.1875 0.4738 0.0000 (  5746 PWs)   bands (ev):

   -45.2033 -23.7061 -23.4320 -23.2197 -20.4990 -12.0314  -2.9942  -2.6955
    -2.4782  -1.9651  -0.6317  -0.3013   4.0316   6.3368   6.7727   7.3369
     7.9191  10.1860  10.6709  12.0064  12.4657  12.9630  13.5930  14.2568
    15.1264  15.8509

          k = 0.1875 0.5467 0.0000 (  5737 PWs)   bands (ev):

   -45.1992 -23.7274 -23.4212 -23.2439 -20.4978 -11.9625  -3.0201  -2.7558
    -2.4649  -2.0592  -0.6272  -0.4237   4.0781   6.5868   6.7812   7.4568
     7.7882  10.5284  11.2743  12.0621  12.2915  12.7211  13.4523  14.3213
    14.9000  15.5248

          k = 0.1875-0.0364 0.0000 (  5697 PWs)   bands (ev):

   -45.2532 -23.7172 -23.1760 -22.9987 -20.5616 -12.7495  -2.9104  -2.6316
    -2.4042  -0.9766   0.2521   1.2467   3.8631   5.6492   6.2944   6.3641
     7.0878   7.2590   8.8113   9.9486  12.1747  13.4111  13.9153  15.2184
    15.9642  17.3271

          k = 0.2500 0.1458 0.0000 (  5721 PWs)   bands (ev):

   -45.2370 -23.6699 -23.3548 -23.0303 -20.5305 -12.5336  -2.8795  -2.6570
    -2.4164  -1.0572  -0.6164   1.0518   3.7267   5.8124   6.4401   6.7508
     7.4882   7.6946   9.4754  10.5005  12.0262  13.0477  14.3367  16.0368
    16.6119  16.8966

          k = 0.2500 0.2187 0.0000 (  5726 PWs)   bands (ev):

   -45.2294 -23.6594 -23.4102 -23.0560 -20.5211 -12.4274  -2.9151  -2.6141
    -2.4439  -1.3016  -0.6901   0.8544   3.7067   5.8771   6.5246   7.0584
     7.5623   8.0015   9.7397  10.7600  12.0477  12.8586  14.5794  15.6655
    16.2786  16.7114

          k = 0.2500 0.2916 0.0000 (  5742 PWs)   bands (ev):

   -45.2204 -23.6607 -23.4424 -23.1053 -20.5109 -12.2967  -2.9382  -2.5675
    -2.5065  -1.5668  -0.6818   0.4587   3.7844   5.9403   6.6292   7.2289
     7.7587   8.5285  10.0672  11.1964  12.2992  12.7571  14.5104  14.9508
    15.6061  16.6681

          k = 0.2500 0.3645 0.0000 (  5746 PWs)   bands (ev):

   -45.2114 -23.6753 -23.4447 -23.1704 -20.5018 -12.1594  -2.9537  -2.6049
    -2.5117  -1.7580  -0.6628  -0.0176   3.9386   6.0285   6.7977   7.1729
     7.9453   9.3186  10.4270  11.7226  12.5422  12.8437  14.1170  14.6384
    14.9983  16.1036

          k = 0.2500 0.4374 0.0000 (  5733 PWs)   bands (ev):

   -45.2038 -23.6904 -23.4316 -23.2373 -20.4952 -12.0374  -2.9758  -2.6828
    -2.4728  -1.8587  -0.6944  -0.4182   4.1193   6.1913   6.8360   7.2447
     7.9401  10.1988  10.7378  12.0736  12.6015  13.2002  13.8619  14.3426
    14.8300  15.3904

          k = 0.2500 0.5103 0.0000 (  5736 PWs)   bands (ev):

   -45.1987 -23.6979 -23.4182 -23.2887 -20.4913 -11.9528  -3.0112  -2.7138
    -2.4473  -1.8910  -0.8968  -0.5344   4.2643   6.4277   6.7457   7.4241
     7.7817  10.6274  11.2984  12.0356  12.9216  13.3690  13.5486  14.1229
    14.8148  15.3716

          k = 0.2500 0.5832 0.0000 (  5726 PWs)   bands (ev):

   -45.1969 -23.6996 -23.4129 -23.3083 -20.4901 -11.9224  -3.0300  -2.7164
    -2.4387  -1.8933  -1.0100  -0.5425   4.3198   6.5804   6.6946   7.4727
     7.6907  10.6086  11.9797  12.2229  12.2883  13.2987  13.7428  14.2050
    14.8201  15.4693

          k = 0.2500-0.0729 0.0000 (  5717 PWs)   bands (ev):

   -45.2420 -23.6810 -23.3007 -23.0261 -20.5371 -12.6024  -2.8379  -2.6907
    -2.4170  -0.9605  -0.4046   1.0407   3.8043   5.6986   6.3677   6.6895
     7.3304   7.5621   9.2998  10.3920  12.3085  13.2281  13.7817  15.7016
    16.6392  16.8990

          k = 0.2500 0.0000 0.0000 (  5720 PWs)   bands (ev):

   -45.2438 -23.6855 -23.2771 -23.0286 -20.5395 -12.6261  -2.8153  -2.7067
    -2.4222  -0.9450  -0.2750   0.9875   3.8476   5.6184   6.4065   6.6801
     7.2185   7.5377   9.2392  10.3641  12.7484  13.0168  13.5133  15.5047
    16.5844  16.8626

          k = 0.3125 0.1822 0.0000 (  5745 PWs)   bands (ev):

   -45.2248 -23.6689 -23.4430 -23.0550 -20.5173 -12.3591  -2.9769  -2.5763
    -2.4296  -1.5832  -0.6847   0.8905   3.6037   5.9962   6.7072   7.1381
     7.6871   8.1867   9.8293  10.7858  11.8949  12.7233  14.9579  15.4064
    16.5816  16.6226

          k = 0.3125 0.2551 0.0000 (  5727 PWs)   bands (ev):

   -45.2182 -23.6878 -23.4561 -23.0812 -20.5123 -12.2600  -3.0127  -2.5451
    -2.4671  -1.8300  -0.6610   0.6875   3.6158   6.1180   6.7370   7.3611
     7.8099   8.5851  10.0068  11.0293  12.0097  12.6712  14.4846  15.1730
    15.8812  16.6411

          k = 0.3125 0.3280 0.0000 (  5736 PWs)   bands (ev):

   -45.2110 -23.7061 -23.4494 -23.1355 -20.5050 -12.1489  -3.0146  -2.5778
    -2.5022  -1.9568  -0.6365   0.2569   3.7639   6.2545   6.7401   7.3676
     7.9385   9.3069  10.3083  11.4998  12.2601  12.7275  13.9184  14.6163
    15.3857  16.4702

          k = 0.3125 0.4009 0.0000 (  5741 PWs)   bands (ev):

   -45.2043 -23.7111 -23.4340 -23.2087 -20.4970 -12.0425  -2.9985  -2.6817
    -2.4740  -1.9672  -0.6361  -0.2626   4.0003   6.3361   6.7977   7.3315
     7.9280  10.1684  10.6693  12.0289  12.4773  12.9562  13.5167  14.2750
    15.0551  15.8957

          k = 0.3125 0.4738 0.0000 (  5729 PWs)   bands (ev):

   -45.1992 -23.7004 -23.4192 -23.2832 -20.4903 -11.9585  -3.0103  -2.7095
    -2.4449  -1.8919  -0.8777  -0.5393   4.2522   6.4226   6.7532   7.4245
     7.7888  10.6130  11.2958  12.0405  12.8972  13.3846  13.5393  14.1794
    14.7844  15.3541

          k = 0.3125 0.5467 0.0000 (  5711 PWs)   bands (ev):

   -45.1964 -23.6854 -23.4110 -23.3334 -20.4865 -11.9121  -3.0412  -2.6814
    -2.4233  -1.7440  -1.2709  -0.5563   4.4223   6.5418   6.6694   7.3962
     7.7533  10.5891  11.9710  12.1913  12.9704  13.2039  13.9592  14.1722
    14.9237  15.5304

          k = 0.3125-0.1093 0.0000 (  5725 PWs)   bands (ev):

   -45.2299 -23.6596 -23.4094 -23.0550 -20.5198 -12.4327  -2.9127  -2.6144
    -2.4350  -1.2901  -0.6893   0.8410   3.7071   5.8782   6.5205   7.0609
     7.5554   8.0071   9.7356  10.7638  12.0524  12.8627  14.6293  15.6628
    16.2806  16.6788

          k = 0.3125-0.0364 0.0000 (  5718 PWs)   bands (ev):

   -45.2326 -23.6577 -23.3779 -23.0659 -20.5205 -12.4717  -2.8462  -2.6568
    -2.4508  -1.0847  -0.6623   0.6978   3.8181   5.7086   6.5208   7.0111
     7.4508   7.9405   9.6895  10.7958  12.5535  13.0025  13.7672  15.5453
    16.3120  16.7900

          k = 0.3750 0.2187 0.0000 (  5733 PWs)   bands (ev):

   -45.2145 -23.7211 -23.4581 -23.0757 -20.5123 -12.2009  -3.0724  -2.5340
    -2.4439  -2.0701  -0.6369   0.7628   3.5155   6.2162   6.9412   7.4379
     7.9510   8.7741   9.9787  10.9971  12.0025  12.6551  13.9274  15.3056
    15.8281  16.0922

          k = 0.3750 0.2916 0.0000 (  5740 PWs)   bands (ev):

   -45.2096 -23.7463 -23.4497 -23.1007 -20.5097 -12.1242  -3.0945  -2.5581
    -2.4779  -2.1817  -0.6131   0.5642   3.5670   6.3714   6.9037   7.5048
     8.0479   9.2975  10.1409  11.2051  12.1197  12.6990  13.4770  14.8543
    15.2906  16.0031

          k = 0.3750 0.3645 0.0000 (  5726 PWs)   bands (ev):

   -45.2047 -23.7509 -23.4364 -23.1562 -20.5031 -12.0461  -3.0664  -2.6706
    -2.4773  -2.1517  -0.5994   0.1230   3.7674   6.5459   6.8261   7.4554
     7.9774  10.0760  10.5070  11.6360  12.2266  12.7004  13.2816  14.3575
    15.0105  15.7757

          k = 0.3750 0.4374 0.0000 (  5729 PWs)   bands (ev):

   -45.2006 -23.7330 -23.4235 -23.2303 -20.4948 -11.9788  -3.0224  -2.7398
    -2.4579  -2.0515  -0.6233  -0.3951   4.0446   6.5980   6.7808   7.4695
     7.7900  10.4962  11.2643  12.0687  12.2760  12.7241  13.4351  14.3071
    14.8783  15.4703

          k = 0.3750 0.5103 0.0000 (  5723 PWs)   bands (ev):

   -45.1978 -23.7027 -23.4145 -23.3001 -20.4881 -11.9333  -3.0258  -2.7075
    -2.4346  -1.8862  -0.9861  -0.5550   4.3062   6.5811   6.6877   7.4699
     7.7077  10.5747  11.9854  12.1794  12.2492  13.3917  13.7736  14.2189
    14.7855  15.4349

          k = 0.3750 0.5832 0.0000 (  5726 PWs)   bands (ev):

   -45.1969 -23.6860 -23.4115 -23.3308 -20.4855 -11.9172  -3.0381  -2.6759
    -2.4219  -1.7303  -1.2741  -0.5622   4.4215   6.5411   6.6650   7.3875
     7.7644  10.5688  11.9870  12.1112  13.0259  13.1962  14.0617  14.1387
    14.8917  15.5143

          k = 0.3750-0.1458 0.0000 (  5749 PWs)   bands (ev):

   -45.2186 -23.6870 -23.4557 -23.0812 -20.5112 -12.2647  -3.0093  -2.5455
    -2.4590  -1.8182  -0.6626   0.6727   3.6213   6.1240   6.7425   7.3449
     7.7948   8.5930   9.9957  11.0362  12.0111  12.6734  14.5012  15.2027
    15.8461  16.6650

          k = 0.3750-0.0729 0.0000 (  5732 PWs)   bands (ev):

   -45.2213 -23.6603 -23.4415 -23.1036 -20.5085 -12.3067  -2.9331  -2.5696
    -2.4879  -1.5420  -0.6851   0.4366   3.7871   5.9403   6.6383   7.2228
     7.7333   8.5339  10.0546  11.2017  12.3082  12.7670  14.5694  14.9613
    15.6136  16.6351

          k = 0.3750 0.0000 0.0000 (  5730 PWs)   bands (ev):

   -45.2223 -23.6510 -23.4317 -23.1167 -20.5072 -12.3214  -2.8940  -2.5895
    -2.4983  -1.4065  -0.6970   0.3059   3.8705   5.8062   6.7006   7.1031
     7.7360   8.5184  10.0790  11.2631  12.6375  12.8930  14.0375  14.8352
    15.9410  16.4049

          k = 0.4375 0.2551 0.0000 (  5730 PWs)   bands (ev):

   -45.2075 -23.7763 -23.4450 -23.0895 -20.5119 -12.0892  -3.1492  -2.5626
    -2.4555  -2.3293  -0.5950   0.6816   3.4727   6.4378   7.0019   7.5755
     8.2423   9.4221  10.0758  11.1495  12.0436  12.6084  13.2957  14.7298
    15.1082  15.6614

          k = 0.4375 0.3280 0.0000 (  5726 PWs)   bands (ev):

   -45.2050 -23.7848 -23.4376 -23.1115 -20.5095 -12.0481  -3.1470  -2.6336
    -2.4741  -2.3041  -0.5843   0.4972   3.5521   6.5614   6.9552   7.5483
     8.2031   9.9058  10.2716  11.3297  11.9025  12.5554  13.3747  14.3337
    14.9517  15.4864

          k = 0.4375 0.4009 0.0000 (  5728 PWs)   bands (ev):

   -45.2027 -23.7676 -23.4299 -23.1637 -20.5025 -12.0106  -3.0845  -2.7156
    -2.4716  -2.1976  -0.5858   0.0715   3.7751   6.6346   6.9231   7.4579
     7.9679  10.2885  10.8548  11.7273  11.8361  12.5800  13.4183  14.1822
    14.9973  15.2674

          k = 0.4375 0.4738 0.0000 (  5731 PWs)   bands (ev):

   -45.2009 -23.7321 -23.4236 -23.2302 -20.4941 -11.9822  -3.0204  -2.7323
    -2.4577  -2.0439  -0.6234  -0.4051   4.0485   6.6003   6.7810   7.4821
     7.7671  10.4819  11.2053  12.0961  12.3059  12.7388  13.4331  14.2982
    14.8797  15.5005

          k = 0.4375 0.5467 0.0000 (  5727 PWs)   bands (ev):

   -45.1999 -23.6997 -23.4197 -23.2812 -20.4886 -11.9671  -3.0058  -2.6958
    -2.4432  -1.8695  -0.8862  -0.5514   4.2564   6.4236   6.7454   7.4360
     7.7713  10.5820  11.2184  12.0776  12.8902  13.4150  13.6196  14.1417
    14.7810  15.3740

          k = 0.4375-0.1822 0.0000 (  5733 PWs)   bands (ev):

   -45.2099 -23.7453 -23.4496 -23.1010 -20.5089 -12.1276  -3.0915  -2.5518
    -2.4767  -2.1762  -0.6142   0.5532   3.5727   6.3685   6.9310   7.4879
     8.0279   9.2960  10.1199  11.2133  12.1241  12.6979  13.4912  14.8688
    15.2829  16.0031

          k = 0.4375-0.1093 0.0000 (  5742 PWs)   bands (ev):

   -45.2117 -23.7043 -23.4492 -23.1354 -20.5032 -12.1571  -3.0089  -2.5667
    -2.4982  -1.9379  -0.6395   0.2346   3.7727   6.2605   6.7434   7.3744
     7.8986   9.3003  10.2765  11.5110  12.2680  12.7320  13.9497  14.6164
    15.4103  16.4898

          k = 0.4375-0.0364 0.0000 (  5748 PWs)   bands (ev):

   -45.2127 -23.6744 -23.4447 -23.1674 -20.4988 -12.1731  -2.9478  -2.5876
    -2.5047  -1.7265  -0.6690  -0.0404   3.9413   6.0262   6.8055   7.1835
     7.9069   9.3032  10.3957  11.7269  12.5334  12.8942  14.1199  14.6983
    15.0209  16.0669

          k =-0.5000-0.2916 0.0000 (  5734 PWs)   bands (ev):

   -45.2051 -23.7976 -23.4380 -23.0944 -20.5123 -12.0488  -3.1821  -2.6072
    -2.4604  -2.3800  -0.5793   0.6539   3.4615   6.5583   6.9657   7.6123
     8.3696   9.7853  10.1399  11.2746  11.7403  12.5141  13.4576  14.2483
    14.9137  15.4891

          k =-0.5000-0.2187 0.0000 (  5724 PWs)   bands (ev):

   -45.2051 -23.7843 -23.4376 -23.1116 -20.5093 -12.0493  -3.1457  -2.6300
    -2.4744  -2.3030  -0.5846   0.4932   3.5545   6.5531   6.9782   7.5386
     8.1955   9.8975  10.2619  11.3288  11.9167  12.5567  13.3710  14.3414
    14.9637  15.4743

          k =-0.5000-0.1458 0.0000 (  5735 PWs)   bands (ev):

   -45.2051 -23.7495 -23.4365 -23.1565 -20.5021 -12.0507  -3.0627  -2.6601
    -2.4772  -2.1437  -0.6007   0.1094   3.7741   6.5373   6.8530   7.4570
     7.9457  10.0647  10.4612  11.6449  12.2561  12.7052  13.2910  14.3563
    15.0259  15.7815

          k =-0.5000-0.0729 0.0000 (  5749 PWs)   bands (ev):

   -45.2051 -23.7092 -23.4341 -23.2079 -20.4950 -12.0521  -2.9933  -2.6644
    -2.4721  -1.9447  -0.6388  -0.2861   4.0084   6.3406   6.7881   7.3595
     7.8847  10.1479  10.6059  12.0465  12.4827  12.9895  13.5535  14.2558
    15.0901  15.9128

          k =-0.5000-0.0000 0.0000 (  5756 PWs)   bands (ev):

   -45.2051 -23.6903 -23.4325 -23.2322 -20.4921 -12.0527  -2.9708  -2.6590
    -2.4687  -1.8281  -0.6970  -0.4379   4.1182   6.1876   6.8336   7.2718
     7.9039  10.1663  10.6716  12.1055  12.5719  13.2910  13.8713  14.3565
    14.8334  15.3936

     highest occupied, lowest unoccupied level (ev):     4.4223    5.6184

!    total energy              =    -571.23425384 Ry
     total all-electron energy =    -12610.611665 Ry
     estimated scf accuracy    <          7.3E-10 Ry

     The total energy is the sum of the following terms:
     one-electron contribution =    -280.48242351 Ry
     hartree contribution      =     148.85115117 Ry
     xc contribution           =     -36.37127475 Ry
     ewald contribution        =      -6.37516900 Ry
     one-center paw contrib.   =    -396.85653776 Ry

     convergence has been achieved in   6 iterations

     negative rho (up, down):  2.821E-05 0.000E+00

     Forces acting on atoms (cartesian axes, Ry/au):

     atom    1 type  1   force =     0.00000000    0.00378503   -0.00050646
     atom    2 type  2   force =     0.00000000   -0.00171944    0.00278229
     atom    3 type  3   force =     0.00000000   -0.00206559   -0.00227583
     The non-local contrib.  to forces
     atom    1 type  1   force =     0.00000000    0.00082249   -0.02417188
     atom    2 type  2   force =     0.00000000   -0.00646525   -1.00502314
     atom    3 type  3   force =     0.00000000   -0.00175360    0.21019707
     The ionic contribution  to forces
     atom    1 type  1   force =    -0.00000001   -0.02979849   -0.60056101
     atom    2 type  2   force =     0.00000001    0.01867014   24.93690429
     atom    3 type  3   force =     0.00000000    0.01112835  -24.33634328
     The local contribution  to forces
     atom    1 type  1   force =    -0.00000000    0.03267660    0.62008407
     atom    2 type  2   force =     0.00000027   -0.01395450  -23.93234923
     atom    3 type  3   force =    -0.00000000   -0.01150739   24.12625266
     The core correction contribution to forces
     atom    1 type  1   force =     0.00000000    0.00007563    0.00407745
     atom    2 type  2   force =     0.00000000    0.00002556    0.00324767
     atom    3 type  3   force =    -0.00000000    0.00006171   -0.00234907
     The Hubbard contrib.    to forces
     atom    1 type  1   force =     0.00000000    0.00000000    0.00000000
     atom    2 type  2   force =     0.00000000    0.00000000    0.00000000
     atom    3 type  3   force =     0.00000000    0.00000000    0.00000000
     The SCF correction term to forces
     atom    1 type  1   force =    -0.00000000    0.00000507    0.00006168
     atom    2 type  2   force =    -0.00000000    0.00000090   -0.00000052
     atom    3 type  3   force =     0.00000000    0.00000162   -0.00003645

     Total force =     0.005893     Total SCF correction =     0.000072
     Energy error            =      5.1E-05 Ry
     Gradient error          =      3.8E-03 Ry/Bohr

     number of scf cycles    =   2
     number of bfgs steps    =   1

     energy             old  =    -571.2342023877 Ry
     energy             new  =    -571.2342538449 Ry

     CASE: energy            _new < energy            _old

     new trust radius        =       0.0055743855 bohr
     new conv_thr            =       0.0000000005 Ry


ATOMIC_POSITIONS (angstrom)
Zr            0.0000000000        0.0055413922       10.1027913262
F            -0.0000000020        1.9284370889       11.4105239576
Br           -0.0000000020        1.9278292820        8.2048634291



     Writing config-only to output data dir ./tmp/ZrFBr.save/
     NEW-OLD atomic charge density approx. for the potential

     Check: negative core charge=   -0.000002

     negative rho (up, down):  2.809E-05 0.000E+00

     total cpu time spent up to now is       27.2 secs

     Self-consistent Calculation

     iteration #  1     ecut=    65.00 Ry     beta= 0.70
     Davidson diagonalization with overlap
     ethr =  1.00E-06,  avg # of iterations =  3.0

     Threshold (ethr) on eigenvalues was too large:
     Diagonalizing with lowered threshold

     Davidson diagonalization with overlap
     ethr =  1.34E-08,  avg # of iterations =  3.0

     negative rho (up, down):  2.780E-05 0.000E+00

     total cpu time spent up to now is       30.6 secs

     total energy              =    -571.23429519 Ry
     estimated scf accuracy    <       0.00000357 Ry

     iteration #  2     ecut=    65.00 Ry     beta= 0.70
     Davidson diagonalization with overlap
     ethr =  1.37E-08,  avg # of iterations =  2.0

     negative rho (up, down):  2.796E-05 0.000E+00

     total cpu time spent up to now is       32.0 secs

     total energy              =    -571.23429501 Ry
     estimated scf accuracy    <       0.00000511 Ry

     iteration #  3     ecut=    65.00 Ry     beta= 0.70
     Davidson diagonalization with overlap
     ethr =  1.37E-08,  avg # of iterations =  2.0

     negative rho (up, down):  2.799E-05 0.000E+00

     total cpu time spent up to now is       33.3 secs

     total energy              =    -571.23429627 Ry
     estimated scf accuracy    <       0.00000095 Ry

     iteration #  4     ecut=    65.00 Ry     beta= 0.70
     Davidson diagonalization with overlap
     ethr =  3.67E-09,  avg # of iterations =  1.2

     negative rho (up, down):  2.799E-05 0.000E+00

     total cpu time spent up to now is       34.6 secs

     total energy              =    -571.23429643 Ry
     estimated scf accuracy    <       0.00000007 Ry

     iteration #  5     ecut=    65.00 Ry     beta= 0.70
     Davidson diagonalization with overlap
     ethr =  2.85E-10,  avg # of iterations =  2.0

     negative rho (up, down):  2.799E-05 0.000E+00

     total cpu time spent up to now is       35.9 secs

     total energy              =    -571.23429645 Ry
     estimated scf accuracy    <       0.00000001 Ry

     iteration #  6     ecut=    65.00 Ry     beta= 0.70
     Davidson diagonalization with overlap
     ethr =  4.69E-11,  avg # of iterations =  2.0

     negative rho (up, down):  2.799E-05 0.000E+00

     total cpu time spent up to now is       37.3 secs

     total energy              =    -571.23429645 Ry
     estimated scf accuracy    <          9.1E-10 Ry

     iteration #  7     ecut=    65.00 Ry     beta= 0.70
     Davidson diagonalization with overlap
     ethr =  3.51E-12,  avg # of iterations =  2.0

     negative rho (up, down):  2.799E-05 0.000E+00

     total cpu time spent up to now is       38.6 secs

     End of self-consistent calculation

          k = 0.0000 0.0000 0.0000 (  5637 PWs)   bands (ev):

   -45.2755 -23.7780 -22.9848 -22.9676 -20.6074 -12.9433  -3.1124  -2.4217
    -2.3871  -1.0951   1.4752   1.5617   3.8236   5.8500   5.9868   6.0469
     6.9312   6.9390   8.0285   8.9259  11.2478  14.1161  14.7624  14.9393
    15.4358  17.3653

          k = 0.0000 0.0729 0.0000 (  5682 PWs)   bands (ev):

   -45.2730 -23.7688 -23.0009 -22.9901 -20.5985 -12.9135  -3.0773  -2.4262
    -2.4219  -1.0713   1.3268   1.4318   3.8453   5.8970   5.9149   6.1388
     6.8863   6.9830   8.1631   9.1497  11.3933  14.1837  14.5159  14.9014
    15.3219  17.6261

          k = 0.0000 0.1458 0.0000 (  5722 PWs)   bands (ev):

   -45.2659 -23.7429 -23.0923 -23.0053 -20.5761 -12.8268  -2.9835  -2.5248
    -2.4236  -1.0139   0.7376   1.3127   3.8810   5.7870   6.0466   6.2331
     6.9611   7.1180   8.5195   9.6241  11.8102  13.7927  14.2169  15.1617
    15.3143  17.7471

          k = 0.0000 0.2187 0.0000 (  5720 PWs)   bands (ev):

   -45.2553 -23.7060 -23.2197 -23.0277 -20.5500 -12.6917  -2.8724  -2.6351
    -2.4293  -0.9561   0.0037   1.1454   3.8659   5.7299   6.2792   6.3105
     7.2772   7.2929   9.0032  10.1022  12.1856  13.4334  13.8614  15.5423
    15.9851  17.4292

          k = 0.0000 0.2916 0.0000 (  5728 PWs)   bands (ev):

   -45.2427 -23.6707 -23.3517 -23.0541 -20.5289 -12.5230  -2.8665  -2.6437
    -2.4407  -1.0368  -0.6007   0.9630   3.7736   5.8074   6.4296   6.6788
     7.4748   7.7018   9.4940  10.4938  12.0199  13.0892  14.3949  16.0964
    16.6973  16.7923

          k = 0.0000 0.3645 0.0000 (  5752 PWs)   bands (ev):

   -45.2300 -23.6668 -23.4431 -23.0803 -20.5167 -12.3427  -2.9630  -2.5708
    -2.4569  -1.5666  -0.6711   0.7944   3.6558   5.9762   6.6918   7.0932
     7.6679   8.2012   9.8456  10.7651  11.9032  12.7719  15.0447  15.4969
    16.4973  16.6754

          k = 0.0000 0.4374 0.0000 (  5752 PWs)   bands (ev):

   -45.2192 -23.7173 -23.4603 -23.1024 -20.5126 -12.1791  -3.0584  -2.5344
    -2.4741  -2.0649  -0.6169   0.6610   3.5684   6.1868   6.9236   7.4082
     7.9405   8.7912   9.9933  10.9716  12.0317  12.7162  14.0097  15.3743
    15.9256  15.9775

          k = 0.0000 0.5103 0.0000 (  5740 PWs)   bands (ev):

   -45.2120 -23.7725 -23.4473 -23.1171 -20.5127 -12.0634  -3.1335  -2.5706
    -2.4873  -2.3304  -0.5705   0.5761   3.5256   6.4000   6.9845   7.5446
     8.2552   9.4329  10.0949  11.1370  12.1031  12.6860  13.3330  14.8000
    15.1871  15.5331

          k = 0.0000-0.5832 0.0000 (  5746 PWs)   bands (ev):

   -45.2095 -23.7938 -23.4403 -23.1222 -20.5133 -12.0215  -3.1654  -2.6195
    -2.4922  -2.3826  -0.5533   0.5471   3.5143   6.5145   6.9508   7.5798
     8.3942   9.7902  10.1506  11.2939  11.8123  12.5710  13.4892  14.3150
    14.9951  15.3530

          k = 0.0625 0.0364 0.0000 (  5668 PWs)   bands (ev):

   -45.2731 -23.7690 -23.0147 -22.9756 -20.5983 -12.9144  -3.0774  -2.4542
    -2.3922  -1.0721   1.2616   1.5032   3.8407   5.8034   6.0167   6.1383
     6.8821   6.9900   8.1592   9.1462  11.3900  14.1836  14.4216  15.0346
    15.3006  17.5860

          k = 0.0625 0.1093 0.0000 (  5693 PWs)   bands (ev):

   -45.2683 -23.7514 -23.0678 -22.9951 -20.5827 -12.8561  -3.0125  -2.5047
    -2.4117  -1.0317   0.9013   1.3718   3.8696   5.7753   6.0430   6.2357
     6.8794   7.0975   8.4050   9.4892  11.6801  13.9481  14.2418  15.0510
    15.3278  17.7112

          k = 0.0625 0.1822 0.0000 (  5714 PWs)   bands (ev):

   -45.2595 -23.7198 -23.1718 -23.0192 -20.5587 -12.7451  -2.9048  -2.6038
    -2.4251  -0.9731   0.2812   1.1872   3.8851   5.6908   6.2435   6.3004
     7.0566   7.2839   8.8262   9.9517  12.1836  13.4136  13.9409  15.2248
    15.8934  17.3240

          k = 0.0625 0.2551 0.0000 (  5720 PWs)   bands (ev):

   -45.2478 -23.6826 -23.2981 -23.0478 -20.5355 -12.5928  -2.8288  -2.6730
    -2.4405  -0.9494  -0.3905   0.9762   3.8416   5.7065   6.3451   6.6166
     7.3178   7.5723   9.3174  10.3894  12.2942  13.2536  13.8021  15.7248
    16.6054  16.9168

          k = 0.0625 0.3280 0.0000 (  5746 PWs)   bands (ev):

   -45.2352 -23.6593 -23.4092 -23.0781 -20.5193 -12.4175  -2.9002  -2.6074
    -2.4616  -1.2782  -0.6806   0.7695   3.7504   5.8629   6.4962   7.0238
     7.5433   8.0137   9.7532  10.7490  12.0405  12.8978  14.6579  15.7304
    16.3070  16.6921

          k = 0.0625 0.4009 0.0000 (  5744 PWs)   bands (ev):

   -45.2235 -23.6846 -23.4577 -23.1058 -20.5115 -12.2442  -2.9977  -2.5447
    -2.4872  -1.8162  -0.6465   0.5932   3.6654   6.0970   6.7155   7.3295
     7.7887   8.6038  10.0149  11.0051  12.0220  12.7203  14.5790  15.2290
    15.8837  16.6774

          k = 0.0625 0.4738 0.0000 (  5735 PWs)   bands (ev):

   -45.2145 -23.7423 -23.4521 -23.1268 -20.5097 -12.1030  -3.0788  -2.5698
    -2.4914  -2.1824  -0.5928   0.4659   3.6173   6.3374   6.8982   7.4717
     8.0394   9.3144  10.1473  11.1777  12.1578  12.7664  13.5435  14.8855
    15.3352  15.9857

          k = 0.0625 0.5467 0.0000 (  5736 PWs)   bands (ev):

   -45.2096 -23.7810 -23.4401 -23.1382 -20.5102 -12.0231  -3.1306  -2.6499
    -2.4881  -2.3146  -0.5605   0.3993   3.6011   6.5159   6.9524   7.5162
     8.2156   9.9151  10.2799  11.3222  11.9804  12.6139  13.3989  14.3901
    15.0149  15.4094

          k = 0.1250 0.0729 0.0000 (  5684 PWs)   bands (ev):

   -45.2663 -23.7436 -23.1040 -22.9908 -20.5756 -12.8302  -2.9837  -2.5471
    -2.3952  -1.0174   0.6862   1.3855   3.8624   5.7131   6.1449   6.2386
     6.9569   7.1252   8.5078   9.6183  11.7985  13.7588  14.1875  15.1284
    15.4370  17.7071

          k = 0.1250 0.1458 0.0000 (  5701 PWs)   bands (ev):

   -45.2597 -23.7204 -23.1775 -23.0115 -20.5583 -12.7477  -2.9047  -2.6137
    -2.4111  -0.9760   0.2551   1.2301   3.8696   5.6747   6.2795   6.3023
     7.0490   7.2919   8.8188   9.9497  12.1774  13.3968  13.9222  15.2156
    15.9412  17.3475

          k = 0.1250 0.2187 0.0000 (  5714 PWs)   bands (ev):

   -45.2499 -23.6879 -23.2782 -23.0442 -20.5375 -12.6192  -2.8088  -2.6915
    -2.4365  -0.9397  -0.2808   0.9666   3.8661   5.6320   6.3783   6.6239
     7.2040   7.5524   9.2506  10.3633  12.7492  12.9817  13.5184  15.5211
    16.5922  16.8861

          k = 0.1250 0.2916 0.0000 (  5729 PWs)   bands (ev):

   -45.2382 -23.6589 -23.3800 -23.0835 -20.5198 -12.4594  -2.8354  -2.6512
    -2.4701  -1.0837  -0.6654   0.6701   3.8432   5.7042   6.4819   6.9942
     7.4428   7.9427   9.7019  10.7906  12.5165  13.0068  13.7621  15.5691
    16.3669  16.8326

          k = 0.1250 0.3645 0.0000 (  5730 PWs)   bands (ev):

   -45.2265 -23.6602 -23.4445 -23.1231 -20.5087 -12.2892  -2.9241  -2.5693
    -2.5096  -1.5513  -0.6762   0.3983   3.8143   5.9236   6.6025   7.2169
     7.7376   8.5395  10.0708  11.1846  12.2847  12.7785  14.5729  15.0009
    15.6529  16.6665

          k = 0.1250 0.4374 0.0000 (  5735 PWs)   bands (ev):

   -45.2166 -23.7032 -23.4523 -23.1568 -20.5039 -12.1355  -3.0000  -2.5920
    -2.4999  -1.9502  -0.6249   0.1841   3.8016   6.2378   6.7135   7.3550
     7.9185   9.3224  10.3076  11.4677  12.2663  12.7633  13.9970  14.6244
    15.4539  16.5071

          k = 0.1250 0.5103 0.0000 (  5741 PWs)   bands (ev):

   -45.2099 -23.7477 -23.4394 -23.1794 -20.5028 -12.0274  -3.0517  -2.6850
    -2.4801  -2.1580  -0.5830   0.0472   3.8063   6.5122   6.8249   7.4330
     7.9677  10.0973  10.5069  11.5879  12.2728  12.7662  13.3113  14.3694
    15.0620  15.8014

          k = 0.1250 0.5832 0.0000 (  5734 PWs)   bands (ev):

   -45.2075 -23.7648 -23.4328 -23.1874 -20.5029 -11.9882  -3.0707  -2.7350
    -2.4759  -2.2109  -0.5673   0.0000   3.8113   6.5974   6.9189   7.4318
     7.9765  10.3182  10.8616  11.6925  11.9032  12.6103  13.4335  14.2288
    15.0333  15.2676

          k = 0.1250 0.0000 0.0000 (  5688 PWs)   bands (ev):

   -45.2686 -23.7519 -23.0768 -22.9841 -20.5823 -12.8586  -3.0128  -2.5220
    -2.3898  -1.0342   0.8666   1.4197   3.8580   5.7077   6.1316   6.2337
     6.9052   7.0778   8.3957   9.4846  11.6724  13.9142  14.2295  15.0642
    15.3923  17.7053

          k = 0.1875 0.1093 0.0000 (  5703 PWs)   bands (ev):

   -45.2561 -23.7075 -23.2296 -23.0121 -20.5488 -12.6991  -2.8725  -2.6524
    -2.3998  -0.9645  -0.0345   1.2250   3.8283   5.6964   6.2772   6.3989
     7.2636   7.3076   8.9845  10.0997  12.1778  13.4014  13.8195  15.5056
    16.0934  17.4419

          k = 0.1875 0.1822 0.0000 (  5717 PWs)   bands (ev):

   -45.2485 -23.6841 -23.3052 -23.0354 -20.5345 -12.5995  -2.8308  -2.6816
    -2.4192  -0.9602  -0.4172   1.0445   3.8062   5.7029   6.3617   6.6463
     7.3180   7.5728   9.3028  10.3907  12.3003  13.2182  13.7550  15.6988
    16.6704  16.9359

          k = 0.1875 0.2551 0.0000 (  5725 PWs)   bands (ev):

   -45.2386 -23.6601 -23.3833 -23.0769 -20.5192 -12.4635  -2.8392  -2.6506
    -2.4606  -1.0960  -0.6722   0.7063   3.8228   5.7087   6.4926   6.9997
     7.4486   7.9386   9.6947  10.7937  12.5332  12.9940  13.7124  15.5710
    16.3342  16.8102

          k = 0.1875 0.3280 0.0000 (  5722 PWs)   bands (ev):

   -45.2279 -23.6530 -23.4371 -23.1293 -20.5069 -12.3081  -2.8887  -2.5861
    -2.5135  -1.4322  -0.6948   0.3110   3.8765   5.8003   6.6597   7.1104
     7.7475   8.5193  10.0889  11.2605  12.6371  12.8390  14.0022  14.8527
    15.9521  16.4547

          k = 0.1875 0.4009 0.0000 (  5743 PWs)   bands (ev):

   -45.2180 -23.6760 -23.4493 -23.1823 -20.4991 -12.1560  -2.9428  -2.6064
    -2.5050  -1.7527  -0.6625  -0.0459   3.9497   6.0166   6.7758   7.1701
     7.9313   9.3244  10.4225  11.7164  12.5410  12.8268  14.1237  14.7085
    15.0389  16.0552

          k = 0.1875 0.4738 0.0000 (  5746 PWs)   bands (ev):

   -45.2103 -23.7098 -23.4379 -23.2251 -20.4953 -12.0332  -2.9874  -2.6867
    -2.4712  -1.9653  -0.6349  -0.3027   4.0215   6.3301   6.7702   7.3267
     7.9103  10.1855  10.6644  12.0059  12.4622  12.9604  13.5922  14.2558
    15.1248  15.8525

          k = 0.1875 0.5467 0.0000 (  5737 PWs)   bands (ev):

   -45.2062 -23.7312 -23.4270 -23.2491 -20.4940 -11.9642  -3.0133  -2.7485
    -2.4579  -2.0579  -0.6291  -0.4268   4.0674   6.5824   6.7776   7.4485
     7.7777  10.5242  11.2707  12.0597  12.2890  12.7173  13.4550  14.3213
    14.8982  15.5213

          k = 0.1875-0.0364 0.0000 (  5697 PWs)   bands (ev):

   -45.2602 -23.7210 -23.1807 -23.0055 -20.5576 -12.7516  -2.9049  -2.6207
    -2.3974  -0.9794   0.2532   1.2441   3.8580   5.6402   6.2907   6.3504
     7.0833   7.2588   8.8086   9.9482  12.1721  13.4047  13.9135  15.2206
    15.9618  17.3255

          k = 0.2500 0.1458 0.0000 (  5721 PWs)   bands (ev):

   -45.2440 -23.6734 -23.3596 -23.0369 -20.5269 -12.5355  -2.8715  -2.6503
    -2.4090  -1.0581  -0.6193   1.0505   3.7229   5.8039   6.4308   6.7426
     7.4837   7.6921   9.4710  10.4996  12.0223  13.0454  14.3350  16.0377
    16.6135  16.8932

          k = 0.2500 0.2187 0.0000 (  5726 PWs)   bands (ev):

   -45.2364 -23.6627 -23.4155 -23.0623 -20.5175 -12.4293  -2.9068  -2.6081
    -2.4358  -1.3026  -0.6938   0.8537   3.7019   5.8690   6.5141   7.0514
     7.5547   8.0013   9.7348  10.7601  12.0437  12.8566  14.5782  15.6635
    16.2791  16.7083

          k = 0.2500 0.2916 0.0000 (  5742 PWs)   bands (ev):

   -45.2274 -23.6636 -23.4482 -23.1114 -20.5073 -12.2985  -2.9300  -2.5616
    -2.4980  -1.5684  -0.6854   0.4582   3.7791   5.9310   6.6207   7.2217
     7.7491   8.5294  10.0608  11.1981  12.2947  12.7562  14.5099  14.9463
    15.6053  16.6640

          k = 0.2500 0.3645 0.0000 (  5746 PWs)   bands (ev):

   -45.2185 -23.6782 -23.4508 -23.1762 -20.4983 -12.1612  -2.9458  -2.5967
    -2.5054  -1.7597  -0.6663  -0.0183   3.9329   6.0188   6.7910   7.1648
     7.9363   9.3191  10.4190  11.7253  12.5396  12.8430  14.1132  14.6338
    14.9979  16.1029

          k = 0.2500 0.4374 0.0000 (  5733 PWs)   bands (ev):

   -45.2108 -23.6935 -23.4376 -23.2428 -20.4917 -12.0392  -2.9682  -2.6750
    -2.4664  -1.8599  -0.6967  -0.4203   4.1128   6.1826   6.8303   7.2359
     7.9313  10.1994  10.7294  12.0738  12.6017  13.1986  13.8569  14.3436
    14.8256  15.3912

          k = 0.2500 0.5103 0.0000 (  5736 PWs)   bands (ev):

   -45.2057 -23.7012 -23.4242 -23.2941 -20.4878 -11.9545  -3.0035  -2.7067
    -2.4408  -1.8916  -0.8970  -0.5388   4.2569   6.4209   6.7400   7.4146
     7.7731  10.6221  11.2976  12.0311  12.9214  13.3670  13.5503  14.1235
    14.8101  15.3732

          k = 0.2500 0.5832 0.0000 (  5726 PWs)   bands (ev):

   -45.2039 -23.7029 -23.4189 -23.3136 -20.4866 -11.9241  -3.0223  -2.7097
    -2.4323  -1.8937  -1.0100  -0.5472   4.3120   6.5752   6.6889   7.4609
     7.6836  10.6027  11.9733  12.2218  12.2916  13.2967  13.7440  14.2064
    14.8180  15.4660

          k = 0.2500-0.0729 0.0000 (  5717 PWs)   bands (ev):

   -45.2490 -23.6848 -23.3050 -23.0329 -20.5335 -12.6043  -2.8306  -2.6827
    -2.4104  -0.9624  -0.4057   1.0385   3.8015   5.6885   6.3612   6.6789
     7.3285   7.5585   9.2952  10.3912  12.3046  13.2253  13.7791  15.7050
    16.6331  16.9010

          k = 0.2500 0.0000 0.0000 (  5720 PWs)   bands (ev):

   -45.2508 -23.6894 -23.2812 -23.0356 -20.5359 -12.6280  -2.8089  -2.6976
    -2.4160  -0.9473  -0.2752   0.9846   3.8453   5.6078   6.3996   6.6698
     7.2169   7.5345   9.2343  10.3635  12.7466  13.0103  13.5115  15.5088
    16.5772  16.8656

          k = 0.3125 0.1822 0.0000 (  5745 PWs)   bands (ev):

   -45.2318 -23.6715 -23.4484 -23.0615 -20.5139 -12.3608  -2.9689  -2.5706
    -2.4226  -1.5840  -0.6882   0.8893   3.6005   5.9889   6.6960   7.1317
     7.6805   8.1842   9.8227  10.7839  11.8927  12.7223  14.9545  15.4115
    16.5763  16.6193

          k = 0.3125 0.2551 0.0000 (  5727 PWs)   bands (ev):

   -45.2252 -23.6902 -23.4620 -23.0875 -20.5088 -12.2617  -3.0048  -2.5396
    -2.4596  -1.8315  -0.6642   0.6866   3.6120   6.1108   6.7263   7.3539
     7.8011   8.5846   9.9995  11.0286  12.0069  12.6712  14.4852  15.1734
    15.8769  16.6359

          k = 0.3125 0.3280 0.0000 (  5736 PWs)   bands (ev):

   -45.2180 -23.7084 -23.4555 -23.1416 -20.5016 -12.1506  -3.0068  -2.5707
    -2.4965  -1.9582  -0.6396   0.2560   3.7598   6.2465   6.7300   7.3613
     7.9282   9.3070  10.2995  11.5006  12.2567  12.7290  13.9198  14.6122
    15.3829  16.4650

          k = 0.3125 0.4009 0.0000 (  5741 PWs)   bands (ev):

   -45.2114 -23.7135 -23.4401 -23.2146 -20.4936 -12.0442  -2.9907  -2.6751
    -2.4684  -1.9681  -0.6392  -0.2639   3.9960   6.3280   6.7880   7.3254
     7.9177  10.1688  10.6598  12.0311  12.4757  12.9558  13.5170  14.2692
    15.0528  15.8982

          k = 0.3125 0.4738 0.0000 (  5729 PWs)   bands (ev):

   -45.2062 -23.7028 -23.4253 -23.2891 -20.4869 -11.9602  -3.0026  -2.7032
    -2.4390  -1.8927  -0.8791  -0.5425   4.2475   6.4154   6.7451   7.4160
     7.7789  10.6072  11.2948  12.0384  12.8984  13.3853  13.5364  14.1767
    14.7807  15.3556

          k = 0.3125 0.5467 0.0000 (  5711 PWs)   bands (ev):

   -45.2035 -23.6877 -23.4171 -23.3393 -20.4831 -11.9137  -3.0336  -2.6748
    -2.4173  -1.7451  -1.2721  -0.5600   4.4173   6.5367   6.6620   7.3837
     7.7453  10.5832  11.9657  12.1932  12.9726  13.2059  13.9556  14.1703
    14.9196  15.5317

          k = 0.3125-0.1093 0.0000 (  5725 PWs)   bands (ev):

   -45.2369 -23.6627 -23.4141 -23.0617 -20.5164 -12.4344  -2.9045  -2.6085
    -2.4288  -1.2901  -0.6929   0.8391   3.7050   5.8689   6.5119   7.0545
     7.5501   8.0032   9.7289  10.7619  12.0501  12.8613  14.6264  15.6639
    16.2798  16.6786

          k = 0.3125-0.0364 0.0000 (  5718 PWs)   bands (ev):

   -45.2396 -23.6611 -23.3821 -23.0729 -20.5172 -12.4735  -2.8375  -2.6509
    -2.4451  -1.0846  -0.6655   0.6952   3.8171   5.6977   6.5121   7.0070
     7.4453   7.9362   9.6822  10.7948  12.5509  13.0012  13.7632  15.5446
    16.3101  16.7921

          k = 0.3750 0.2187 0.0000 (  5733 PWs)   bands (ev):

   -45.2215 -23.7230 -23.4642 -23.0822 -20.5090 -12.2025  -3.0650  -2.5290
    -2.4372  -2.0712  -0.6399   0.7615   3.5125   6.2085   6.9318   7.4315
     7.9443   8.7686   9.9730  10.9936  12.0004  12.6558  13.9280  15.3067
    15.8240  16.0877

          k = 0.3750 0.2916 0.0000 (  5740 PWs)   bands (ev):

   -45.2166 -23.7482 -23.4559 -23.1070 -20.5063 -12.1258  -3.0873  -2.5527
    -2.4720  -2.1825  -0.6159   0.5631   3.5635   6.3628   6.8968   7.4971
     8.0383   9.2939  10.1349  11.2020  12.1173  12.7013  13.4780  14.8540
    15.2863  15.9990

          k = 0.3750 0.3645 0.0000 (  5726 PWs)   bands (ev):

   -45.2118 -23.7529 -23.4426 -23.1624 -20.4997 -12.0477  -3.0592  -2.6656
    -2.4721  -2.1516  -0.6022   0.1218   3.7639   6.5366   6.8196   7.4488
     7.9663  10.0727  10.5007  11.6343  12.2238  12.7033  13.2822  14.3539
    15.0074  15.7743

          k = 0.3750 0.4374 0.0000 (  5729 PWs)   bands (ev):

   -45.2076 -23.7348 -23.4297 -23.2365 -20.4915 -11.9803  -3.0148  -2.7350
    -2.4526  -2.0514  -0.6263  -0.3967   4.0410   6.5904   6.7731   7.4627
     7.7783  10.4902  11.2620  12.0704  12.2720  12.7227  13.4341  14.3044
    14.8754  15.4725

          k = 0.3750 0.5103 0.0000 (  5723 PWs)   bands (ev):

   -45.2049 -23.7043 -23.4207 -23.3065 -20.4848 -11.9348  -3.0185  -2.7020
    -2.4290  -1.8865  -0.9882  -0.5580   4.3026   6.5764   6.6789   7.4601
     7.6972  10.5696  11.9812  12.1799  12.2494  13.3883  13.7711  14.2160
    14.7869  15.4326

          k = 0.3750 0.5832 0.0000 (  5726 PWs)   bands (ev):

   -45.2039 -23.6874 -23.4177 -23.3373 -20.4822 -11.9187  -3.0310  -2.6699
    -2.4160  -1.7305  -1.2767  -0.5654   4.4180   6.5380   6.6553   7.3766
     7.7542  10.5644  11.9808  12.1118  13.0266  13.1997  14.0543  14.1323
    14.8927  15.5174

          k = 0.3750-0.1458 0.0000 (  5749 PWs)   bands (ev):

   -45.2256 -23.6889 -23.4615 -23.0879 -20.5078 -12.2664  -3.0016  -2.5401
    -2.4533  -1.8185  -0.6658   0.6709   3.6190   6.1159   6.7323   7.3407
     7.7889   8.5869   9.9890  11.0331  12.0094  12.6729  14.5002  15.2028
    15.8432  16.6618

          k = 0.3750-0.0729 0.0000 (  5732 PWs)   bands (ev):

   -45.2284 -23.6625 -23.4468 -23.1105 -20.5052 -12.3084  -2.9250  -2.5637
    -2.4830  -1.5418  -0.6885   0.4342   3.7858   5.9303   6.6289   7.2199
     7.7273   8.5285  10.0462  11.2000  12.3072  12.7654  14.5664  14.9566
    15.6158  16.6332

          k = 0.3750 0.0000 0.0000 (  5730 PWs)   bands (ev):

   -45.2293 -23.6534 -23.4366 -23.1237 -20.5039 -12.3230  -2.8857  -2.5835
    -2.4938  -1.4060  -0.7005   0.3032   3.8699   5.7956   6.6895   7.1023
     7.7298   8.5133  10.0697  11.2621  12.6378  12.8910  14.0325  14.8300
    15.9430  16.4058

          k = 0.4375 0.2551 0.0000 (  5730 PWs)   bands (ev):

   -45.2146 -23.7779 -23.4513 -23.0960 -20.5085 -12.0907  -3.1425  -2.5597
    -2.4489  -2.3287  -0.5976   0.6803   3.4695   6.4282   6.9960   7.5678
     8.2367   9.4114  10.0739  11.1444  12.0421  12.6100  13.2951  14.7321
    15.1048  15.6557

          k = 0.4375 0.3280 0.0000 (  5726 PWs)   bands (ev):

   -45.2121 -23.7864 -23.4440 -23.1178 -20.5062 -12.0496  -3.1404  -2.6307
    -2.4685  -2.3026  -0.5868   0.4959   3.5488   6.5498   6.9524   7.5401
     8.1950   9.8955  10.2700  11.3257  11.9029  12.5549  13.3751  14.3339
    14.9492  15.4820

          k = 0.4375 0.4009 0.0000 (  5728 PWs)   bands (ev):

   -45.2097 -23.7691 -23.4363 -23.1701 -20.4991 -12.0121  -3.0775  -2.7124
    -2.4663  -2.1963  -0.5885   0.0700   3.7718   6.6241   6.9189   7.4503
     7.9587  10.2812  10.8511  11.7241  11.8374  12.5762  13.4181  14.1823
    14.9939  15.2672

          k = 0.4375 0.4738 0.0000 (  5731 PWs)   bands (ev):

   -45.2079 -23.7334 -23.4299 -23.2368 -20.4908 -11.9837  -3.0130  -2.7285
    -2.4523  -2.0433  -0.6264  -0.4071   4.0454   6.5933   6.7731   7.4743
     7.7576  10.4776  11.2022  12.0926  12.3039  12.7337  13.4310  14.2995
    14.8803  15.4991

          k = 0.4375 0.5467 0.0000 (  5727 PWs)   bands (ev):

   -45.2070 -23.7007 -23.4259 -23.2880 -20.4853 -11.9685  -2.9987  -2.6911
    -2.4375  -1.8693  -0.8888  -0.5543   4.2537   6.4181   6.7355   7.4288
     7.7611  10.5799  11.2157  12.0683  12.8906  13.4151  13.6104  14.1418
    14.7834  15.3770

          k = 0.4375-0.1822 0.0000 (  5733 PWs)   bands (ev):

   -45.2169 -23.7468 -23.4559 -23.1076 -20.5056 -12.1291  -3.0844  -2.5483
    -2.4708  -2.1756  -0.6171   0.5515   3.5699   6.3606   6.9212   7.4823
     8.0234   9.2868  10.1167  11.2082  12.1214  12.6988  13.4906  14.8699
    15.2789  16.0009

          k = 0.4375-0.1093 0.0000 (  5742 PWs)   bands (ev):

   -45.2187 -23.7056 -23.4553 -23.1421 -20.4999 -12.1586  -3.0014  -2.5623
    -2.4929  -1.9374  -0.6426   0.2324   3.7706   6.2522   6.7336   7.3687
     7.8941   9.2944  10.2699  11.5076  12.2651  12.7303  13.9480  14.6161
    15.4092  16.4872

          k = 0.4375-0.0364 0.0000 (  5748 PWs)   bands (ev):

   -45.2197 -23.6757 -23.4506 -23.1744 -20.4956 -12.1746  -2.9401  -2.5827
    -2.4998  -1.7261  -0.6722  -0.0431   3.9400   6.0169   6.7944   7.1799
     7.9018   9.2992  10.3866  11.7251  12.5325  12.8904  14.1141  14.6950
    15.0238  16.0696

          k =-0.5000-0.2916 0.0000 (  5734 PWs)   bands (ev):

   -45.2122 -23.7991 -23.4444 -23.1008 -20.5089 -12.0502  -3.1757  -2.6059
    -2.4537  -2.3780  -0.5818   0.6525   3.4582   6.5466   6.9624   7.6042
     8.3646   9.7707  10.1390  11.2717  11.7409  12.5122  13.4578  14.2493
    14.9128  15.4828

          k =-0.5000-0.2187 0.0000 (  5724 PWs)   bands (ev):

   -45.2122 -23.7858 -23.4440 -23.1181 -20.5059 -12.0508  -3.1391  -2.6280
    -2.4686  -2.3009  -0.5872   0.4917   3.5513   6.5430   6.9724   7.5315
     8.1899   9.8849  10.2613  11.3248  11.9166  12.5548  13.3702  14.3431
    14.9617  15.4705

          k =-0.5000-0.1458 0.0000 (  5735 PWs)   bands (ev):

   -45.2122 -23.7508 -23.4428 -23.1631 -20.4988 -12.0522  -3.0555  -2.6572
    -2.4718  -2.1424  -0.6035   0.1076   3.7713   6.5295   6.8441   7.4498
     7.9400  10.0576  10.4581  11.6406  12.2515  12.7047  13.2889  14.3585
    15.0242  15.7801

          k =-0.5000-0.0729 0.0000 (  5749 PWs)   bands (ev):

   -45.2122 -23.7103 -23.4404 -23.2147 -20.4918 -12.0536  -2.9859  -2.6605
    -2.4667  -1.9441  -0.6417  -0.2885   4.0061   6.3332   6.7782   7.3524
     7.8786  10.1462  10.5988  12.0418  12.4779  12.9847  13.5530  14.2573
    15.0910  15.9113

          k =-0.5000-0.0000 0.0000 (  5756 PWs)   bands (ev):

   -45.2122 -23.6912 -23.4387 -23.2392 -20.4889 -12.0542  -2.9635  -2.6548
    -2.4632  -1.8277  -0.6998  -0.4409   4.1163   6.1799   6.8230   7.2660
     7.8972  10.1663  10.6632  12.0981  12.5711  13.2847  13.8677  14.3584
    14.8322  15.3997

     highest occupied, lowest unoccupied level (ev):     4.4180    5.6078

!    total energy              =    -571.23429645 Ry
     total all-electron energy =    -12610.611708 Ry
     estimated scf accuracy    <          1.3E-11 Ry

     The total energy is the sum of the following terms:
     one-electron contribution =    -280.11822288 Ry
     hartree contribution      =     148.66698515 Ry
     xc contribution           =     -36.36949220 Ry
     ewald contribution        =      -6.55710399 Ry
     one-center paw contrib.   =    -396.85646254 Ry

     convergence has been achieved in   7 iterations

     negative rho (up, down):  2.799E-05 0.000E+00

     Forces acting on atoms (cartesian axes, Ry/au):

     atom    1 type  1   force =     0.00000000    0.00250782   -0.00010455
     atom    2 type  2   force =     0.00000000   -0.00124120    0.00190198
     atom    3 type  3   force =     0.00000000   -0.00126662   -0.00179743
     The non-local contrib.  to forces
     atom    1 type  1   force =     0.00000000   -0.00005532   -0.02424756
     atom    2 type  2   force =     0.00000000   -0.00870375   -1.00798907
     atom    3 type  3   force =     0.00000000   -0.00138094    0.21046097
     The ionic contribution  to forces
     atom    1 type  1   force =    -0.00000001   -0.05305975   -0.61065538
     atom    2 type  2   force =     0.00000001    0.03584100   24.92763000
     atom    3 type  3   force =     0.00000000    0.01721875  -24.31697463
     The local contribution  to forces
     atom    1 type  1   force =    -0.00000000    0.05554574    0.63072031
     atom    2 type  2   force =     0.00000027   -0.02841046  -23.92100262
     atom    3 type  3   force =    -0.00000000   -0.01711669   24.10709970
     The core correction contribution to forces
     atom    1 type  1   force =     0.00000000    0.00007798    0.00407669
     atom    2 type  2   force =     0.00000000    0.00003104    0.00326127
     atom    3 type  3   force =    -0.00000000    0.00001191   -0.00238567
     The Hubbard contrib.    to forces
     atom    1 type  1   force =     0.00000000    0.00000000    0.00000000
     atom    2 type  2   force =     0.00000000    0.00000000    0.00000000
     atom    3 type  3   force =     0.00000000    0.00000000    0.00000000
     The SCF correction term to forces
     atom    1 type  1   force =    -0.00000000   -0.00000156   -0.00000051
     atom    2 type  2   force =    -0.00000000    0.00000024    0.00000048
     atom    3 type  3   force =     0.00000000   -0.00000039    0.00000029

     Total force =     0.004036     Total SCF correction =     0.000002
     Energy error            =      4.3E-05 Ry
     Gradient error          =      2.5E-03 Ry/Bohr

     number of scf cycles    =   3
     number of bfgs steps    =   2

     energy             old  =    -571.2342538449 Ry
     energy             new  =    -571.2342964544 Ry

     CASE: energy            _new < energy            _old

     new trust radius        =       0.0083615783 bohr
     new conv_thr            =       0.0000000004 Ry


ATOMIC_POSITIONS (angstrom)
Zr            0.0000000000        0.0099536260       10.1024586626
F            -0.0000000020        1.9263156904       11.4138371953
Br           -0.0000000020        1.9255384468        8.2018828552



     Writing config-only to output data dir ./tmp/ZrFBr.save/
     NEW-OLD atomic charge density approx. for the potential

     Check: negative core charge=   -0.000002

     negative rho (up, down):  2.775E-05 0.000E+00

     total cpu time spent up to now is       39.0 secs

     Self-consistent Calculation

     iteration #  1     ecut=    65.00 Ry     beta= 0.70
     Davidson diagonalization with overlap
     ethr =  1.00E-06,  avg # of iterations =  3.4

     Threshold (ethr) on eigenvalues was too large:
     Diagonalizing with lowered threshold

     Davidson diagonalization with overlap
     ethr =  3.43E-08,  avg # of iterations =  2.5

     negative rho (up, down):  2.741E-05 0.000E+00

     total cpu time spent up to now is       42.5 secs

     total energy              =    -571.23432794 Ry
     estimated scf accuracy    <       0.00000902 Ry

     iteration #  2     ecut=    65.00 Ry     beta= 0.70
     Davidson diagonalization with overlap
     ethr =  3.47E-08,  avg # of iterations =  2.0

     negative rho (up, down):  2.765E-05 0.000E+00

     total cpu time spent up to now is       43.9 secs

     total energy              =    -571.23432724 Ry
     estimated scf accuracy    <       0.00001607 Ry

     iteration #  3     ecut=    65.00 Ry     beta= 0.70
     Davidson diagonalization with overlap
     ethr =  3.47E-08,  avg # of iterations =  2.0

     negative rho (up, down):  2.771E-05 0.000E+00

     total cpu time spent up to now is       45.2 secs

     total energy              =    -571.23433098 Ry
     estimated scf accuracy    <       0.00000191 Ry

     iteration #  4     ecut=    65.00 Ry     beta= 0.70
     Davidson diagonalization with overlap
     ethr =  7.36E-09,  avg # of iterations =  1.4

     negative rho (up, down):  2.772E-05 0.000E+00

     total cpu time spent up to now is       46.4 secs

     total energy              =    -571.23433131 Ry
     estimated scf accuracy    <       0.00000020 Ry

     iteration #  5     ecut=    65.00 Ry     beta= 0.70
     Davidson diagonalization with overlap
     ethr =  7.60E-10,  avg # of iterations =  2.0

     negative rho (up, down):  2.773E-05 0.000E+00

     total cpu time spent up to now is       47.8 secs

     total energy              =    -571.23433136 Ry
     estimated scf accuracy    <       0.00000003 Ry

     iteration #  6     ecut=    65.00 Ry     beta= 0.70
     Davidson diagonalization with overlap
     ethr =  1.02E-10,  avg # of iterations =  2.0

     negative rho (up, down):  2.773E-05 0.000E+00

     total cpu time spent up to now is       49.1 secs

     total energy              =    -571.23433137 Ry
     estimated scf accuracy    <          1.9E-09 Ry

     iteration #  7     ecut=    65.00 Ry     beta= 0.70
     Davidson diagonalization with overlap
     ethr =  7.31E-12,  avg # of iterations =  2.0

     negative rho (up, down):  2.773E-05 0.000E+00

     total cpu time spent up to now is       50.5 secs

     End of self-consistent calculation

          k = 0.0000 0.0000 0.0000 (  5637 PWs)   bands (ev):

   -45.2865 -23.7841 -22.9942 -22.9783 -20.6010 -12.9453  -3.1045  -2.4036
    -2.3781  -1.0993   1.4834   1.5592   3.8063   5.8428   5.9710   6.0400
     6.9076   6.9464   8.0300   8.9271  11.2472  14.1243  14.7534  14.9352
    15.4136  17.3523

          k = 0.0000 0.0729 0.0000 (  5682 PWs)   bands (ev):

   -45.2840 -23.7749 -23.0115 -22.9995 -20.5921 -12.9155  -3.0691  -2.4174
    -2.4038  -1.0755   1.3245   1.4398   3.8276   5.8896   5.8969   6.1361
     6.8911   6.9596   8.1645   9.1521  11.3923  14.1904  14.5122  14.8926
    15.2989  17.6166

          k = 0.0000 0.1458 0.0000 (  5722 PWs)   bands (ev):

   -45.2769 -23.7490 -23.1027 -23.0146 -20.5700 -12.8287  -2.9744  -2.5164
    -2.4055  -1.0183   0.7356   1.3201   3.8623   5.7689   6.0390   6.2351
     6.9612   7.0948   8.5200   9.6283  11.8084  13.7876  14.2153  15.1470
    15.3064  17.7396

          k = 0.0000 0.2187 0.0000 (  5720 PWs)   bands (ev):

   -45.2662 -23.7120 -23.2299 -23.0371 -20.5441 -12.6935  -2.8618  -2.6275
    -2.4112  -0.9610   0.0019   1.1520   3.8460   5.7139   6.2809   6.3026
     7.2699   7.2763   9.0022  10.1074  12.1825  13.4249  13.8538  15.5380
    15.9788  17.4187

          k = 0.0000 0.2916 0.0000 (  5728 PWs)   bands (ev):

   -45.2536 -23.6764 -23.3619 -23.0634 -20.5232 -12.5247  -2.8556  -2.6356
    -2.4227  -1.0405  -0.6042   0.9688   3.7528   5.7958   6.4280   6.6707
     7.4519   7.7008   9.4905  10.4996  12.0169  13.0725  14.3954  16.0927
    16.6971  16.7897

          k = 0.0000 0.3645 0.0000 (  5752 PWs)   bands (ev):

   -45.2410 -23.6725 -23.4532 -23.0896 -20.5112 -12.3441  -2.9532  -2.5615
    -2.4390  -1.5678  -0.6775   0.7996   3.6345   5.9694   6.6875   7.0843
     7.6456   8.1986   9.8383  10.7723  11.9006  12.7559  15.0539  15.4888
    16.4858  16.6688

          k = 0.0000 0.4374 0.0000 (  5752 PWs)   bands (ev):

   -45.2302 -23.7238 -23.4695 -23.1117 -20.5071 -12.1804  -3.0496  -2.5253
    -2.4563  -2.0641  -0.6244   0.6657   3.5469   6.1834   6.9187   7.3955
     7.9217   8.7849   9.9858  10.9773  12.0265  12.7047  14.0148  15.3726
    15.9144  15.9646

          k = 0.0000 0.5103 0.0000 (  5740 PWs)   bands (ev):

   -45.2230 -23.7794 -23.4561 -23.1264 -20.5072 -12.0646  -3.1261  -2.5647
    -2.4695  -2.3248  -0.5785   0.5806   3.5039   6.3991   6.9786   7.5286
     8.2396   9.4243  10.0895  11.1358  12.0974  12.6817  13.3371  14.7936
    15.1819  15.5199

          k = 0.0000-0.5832 0.0000 (  5746 PWs)   bands (ev):

   -45.2205 -23.8009 -23.4489 -23.1315 -20.5077 -12.0226  -3.1589  -2.6154
    -2.4745  -2.3744  -0.5615   0.5515   3.4926   6.5154   6.9435   7.5629
     8.3794   9.7842  10.1426  11.2816  11.8206  12.5653  13.4939  14.3043
    14.9928  15.3397

          k = 0.0625 0.0364 0.0000 (  5668 PWs)   bands (ev):

   -45.2841 -23.7751 -23.0240 -22.9861 -20.5922 -12.9163  -3.0695  -2.4373
    -2.3824  -1.0763   1.2676   1.5024   3.8245   5.7946   5.9983   6.1348
     6.8670   6.9901   8.1600   9.1469  11.3889  14.1906  14.4122  15.0299
    15.2830  17.5752

          k = 0.0625 0.1093 0.0000 (  5693 PWs)   bands (ev):

   -45.2793 -23.7576 -23.0776 -23.0049 -20.5767 -12.8580  -3.0040  -2.4927
    -2.3973  -1.0360   0.9018   1.3765   3.8526   5.7601   6.0329   6.2330
     6.8760   7.0823   8.4055   9.4919  11.6784  13.9417  14.2440  15.0402
    15.3164  17.7014

          k = 0.0625 0.1822 0.0000 (  5714 PWs)   bands (ev):

   -45.2704 -23.7259 -23.1818 -23.0286 -20.5529 -12.7469  -2.8953  -2.5944
    -2.4086  -0.9776   0.2799   1.1931   3.8671   5.6744   6.2357   6.2999
     7.0483   7.2701   8.8256   9.9560  12.1810  13.4077  13.9317  15.2207
    15.8860  17.3152

          k = 0.0625 0.2551 0.0000 (  5720 PWs)   bands (ev):

   -45.2588 -23.6885 -23.3081 -23.0572 -20.5298 -12.5945  -2.8177  -2.6650
    -2.4234  -0.9540  -0.3926   0.9818   3.8224   5.6920   6.3443   6.6088
     7.2992   7.5679   9.3150  10.3945  12.2910  13.2391  13.7989  15.7234
    16.6038  16.9046

          k = 0.0625 0.3280 0.0000 (  5746 PWs)   bands (ev):

   -45.2462 -23.6650 -23.4194 -23.0873 -20.5138 -12.4190  -2.8901  -2.5980
    -2.4444  -1.2800  -0.6860   0.7745   3.7303   5.8522   6.4939   7.0149
     7.5216   8.0122   9.7476  10.7550  12.0381  12.8815  14.6582  15.7276
    16.3006  16.6901

          k = 0.0625 0.4009 0.0000 (  5744 PWs)   bands (ev):

   -45.2345 -23.6906 -23.4674 -23.1149 -20.5061 -12.2455  -2.9885  -2.5346
    -2.4703  -1.8166  -0.6533   0.5976   3.6447   6.0908   6.7112   7.3175
     7.7700   8.6000  10.0067  11.0117  12.0186  12.7067  14.5835  15.2227
    15.8775  16.6635

          k = 0.0625 0.4738 0.0000 (  5735 PWs)   bands (ev):

   -45.2255 -23.7490 -23.4611 -23.1359 -20.5043 -12.1042  -3.0707  -2.5587
    -2.4777  -2.1792  -0.6003   0.4699   3.5964   6.3347   6.8928   7.4569
     8.0228   9.3079  10.1399  11.1805  12.1510  12.7581  13.5487  14.8760
    15.3353  15.9710

          k = 0.0625 0.5467 0.0000 (  5736 PWs)   bands (ev):

   -45.2206 -23.7880 -23.4488 -23.1473 -20.5048 -12.0242  -3.1238  -2.6416
    -2.4748  -2.3070  -0.5683   0.4031   3.5800   6.5157   6.9461   7.5003
     8.1994   9.9105  10.2704  11.3165  11.9814  12.6084  13.4023  14.3822
    15.0128  15.3963

          k = 0.1250 0.0729 0.0000 (  5684 PWs)   bands (ev):

   -45.2773 -23.7499 -23.1127 -23.0012 -20.5699 -12.8320  -2.9758  -2.5319
    -2.3849  -1.0215   0.6899   1.3857   3.8494   5.7005   6.1298   6.2314
     6.9484   7.1223   8.5068   9.6186  11.7961  13.7507  14.1859  15.1243
    15.4315  17.6967

          k = 0.1250 0.1458 0.0000 (  5701 PWs)   bands (ev):

   -45.2707 -23.7266 -23.1865 -23.0213 -20.5528 -12.7494  -2.8961  -2.6012
    -2.3983  -0.9801   0.2558   1.2331   3.8557   5.6590   6.2713   6.2935
     7.0443   7.2814   8.8175   9.9518  12.1736  13.3910  13.9152  15.2144
    15.9348  17.3351

          k = 0.1250 0.2187 0.0000 (  5714 PWs)   bands (ev):

   -45.2609 -23.6940 -23.2876 -23.0536 -20.5322 -12.6209  -2.7987  -2.6814
    -2.4221  -0.9436  -0.2822   0.9706   3.8512   5.6160   6.3739   6.6150
     7.1909   7.5467   9.2482  10.3669  12.7441  12.9759  13.5095  15.5205
    16.5888  16.8744

          k = 0.1250 0.2916 0.0000 (  5729 PWs)   bands (ev):

   -45.2492 -23.6647 -23.3898 -23.0927 -20.5146 -12.4609  -2.8251  -2.6413
    -2.4551  -1.0857  -0.6699   0.6740   3.8270   5.6894   6.4798   6.9829
     7.4246   7.9415   9.6971  10.7953  12.5143  12.9916  13.7592  15.5646
    16.3651  16.8292

          k = 0.1250 0.3645 0.0000 (  5730 PWs)   bands (ev):

   -45.2375 -23.6659 -23.4544 -23.1320 -20.5035 -12.2905  -2.9146  -2.5577
    -2.4953  -1.5525  -0.6819   0.4016   3.7969   5.9115   6.6010   7.2013
     7.7222   8.5378  10.0631  11.1901  12.2829  12.7649  14.5695  14.9968
    15.6483  16.6654

          k = 0.1250 0.4374 0.0000 (  5735 PWs)   bands (ev):

   -45.2276 -23.7096 -23.4617 -23.1656 -20.4987 -12.1367  -2.9914  -2.5772
    -2.4894  -1.9496  -0.6311   0.1868   3.7831   6.2293   6.7107   7.3387
     7.9040   9.3191  10.2985  11.4720  12.2612  12.7545  13.9962  14.6195
    15.4518  16.4929

          k = 0.1250 0.5103 0.0000 (  5741 PWs)   bands (ev):

   -45.2209 -23.7544 -23.4483 -23.1881 -20.4977 -12.0285  -3.0440  -2.6730
    -2.4695  -2.1538  -0.5894   0.0494   3.7871   6.5081   6.8197   7.4182
     7.9512  10.0945  10.4965  11.5884  12.2648  12.7604  13.3159  14.3626
    15.0626  15.7887

          k = 0.1250 0.5832 0.0000 (  5734 PWs)   bands (ev):

   -45.2186 -23.7717 -23.4416 -23.1961 -20.4978 -11.9893  -3.0635  -2.7244
    -2.4653  -2.2050  -0.5738   0.0021   3.7920   6.5947   6.9141   7.4171
     7.9587  10.3152  10.8493  11.6838  11.9101  12.6009  13.4374  14.2263
    15.0311  15.2549

          k = 0.1250 0.0000 0.0000 (  5688 PWs)   bands (ev):

   -45.2796 -23.7582 -23.0851 -22.9949 -20.5767 -12.8604  -3.0051  -2.5053
    -2.3810  -1.0383   0.8727   1.4176   3.8454   5.6975   6.1093   6.2310
     6.8884   7.0844   8.3945   9.4840  11.6706  13.9039  14.2312  15.0572
    15.3893  17.6975

          k = 0.1875 0.1093 0.0000 (  5703 PWs)   bands (ev):

   -45.2671 -23.7139 -23.2375 -23.0224 -20.5438 -12.7007  -2.8641  -2.6392
    -2.3896  -0.9680  -0.0331   1.2256   3.8195   5.6817   6.2687   6.3828
     7.2614   7.2999   8.9809  10.0994  12.1722  13.3959  13.8155  15.5077
    16.0888  17.4331

          k = 0.1875 0.1822 0.0000 (  5717 PWs)   bands (ev):

   -45.2595 -23.6904 -23.3136 -23.0453 -20.5295 -12.6009  -2.8207  -2.6711
    -2.4076  -0.9627  -0.4186   1.0465   3.7963   5.6876   6.3499   6.6362
     7.3095   7.5682   9.2988  10.3917  12.2928  13.2130  13.7523  15.6978
    16.6671  16.9246

          k = 0.1875 0.2551 0.0000 (  5725 PWs)   bands (ev):

   -45.2496 -23.6660 -23.3922 -23.0864 -20.5144 -12.4649  -2.8280  -2.6416
    -2.4479  -1.0965  -0.6769   0.7088   3.8119   5.6926   6.4840   6.9888
     7.4341   7.9379   9.6890  10.7966  12.5252  12.9881  13.7102  15.5635
    16.3351  16.8084

          k = 0.1875 0.3280 0.0000 (  5722 PWs)   bands (ev):

   -45.2389 -23.6586 -23.4467 -23.1384 -20.5021 -12.3094  -2.8783  -2.5757
    -2.5010  -1.4332  -0.6998   0.3132   3.8645   5.7846   6.6551   7.0949
     7.7332   8.5192  10.0806  11.2649  12.6320  12.8325  13.9987  14.8435
    15.9512  16.4546

          k = 0.1875 0.4009 0.0000 (  5743 PWs)   bands (ev):

   -45.2290 -23.6818 -23.4588 -23.1910 -20.4943 -12.1571  -2.9333  -2.5924
    -2.4955  -1.7536  -0.6673  -0.0446   3.9362   6.0028   6.7737   7.1517
     7.9181   9.3234  10.4121  11.7206  12.5374  12.8216  14.1145  14.7063
    15.0361  16.0559

          k = 0.1875 0.4738 0.0000 (  5746 PWs)   bands (ev):

   -45.2214 -23.7160 -23.4472 -23.2336 -20.4906 -12.0342  -2.9784  -2.6741
    -2.4616  -1.9645  -0.6386  -0.3030   4.0064   6.3192   6.7658   7.3111
     7.8961  10.1844  10.6539  12.0056  12.4569  12.9565  13.5902  14.2538
    15.1224  15.8545

          k = 0.1875 0.5467 0.0000 (  5737 PWs)   bands (ev):

   -45.2172 -23.7377 -23.4362 -23.2574 -20.4893 -11.9652  -3.0044  -2.7376
    -2.4483  -2.0553  -0.6305  -0.4299   4.0513   6.5746   6.7718   7.4355
     7.7608  10.5180  11.2645  12.0564  12.2850  12.7115  13.4589  14.3205
    14.8951  15.5155

          k = 0.1875-0.0364 0.0000 (  5697 PWs)   bands (ev):

   -45.2712 -23.7275 -23.1881 -23.0163 -20.5526 -12.7532  -2.8973  -2.6057
    -2.3888  -0.9833   0.2569   1.2426   3.8501   5.6263   6.2831   6.3309
     7.0761   7.2590   8.8047   9.9475  12.1688  13.3950  13.9104  15.2236
    15.9587  17.3228

          k = 0.2500 0.1458 0.0000 (  5721 PWs)   bands (ev):

   -45.2550 -23.6796 -23.3672 -23.0471 -20.5224 -12.5368  -2.8604  -2.6412
    -2.3994  -1.0578  -0.6229   1.0511   3.7172   5.7902   6.4165   6.7299
     7.4766   7.6882   9.4640  10.4979  12.0166  13.0412  14.3338  16.0384
    16.6150  16.8893

          k = 0.2500 0.2187 0.0000 (  5726 PWs)   bands (ev):

   -45.2474 -23.6683 -23.4239 -23.0721 -20.5130 -12.4305  -2.8954  -2.6000
    -2.4250  -1.3022  -0.6987   0.8551   3.6951   5.8557   6.4981   7.0404
     7.5433   8.0002   9.7267  10.7600  12.0379  12.8528  14.5776  15.6597
    16.2798  16.7037

          k = 0.2500 0.2916 0.0000 (  5742 PWs)   bands (ev):

   -45.2385 -23.6688 -23.4574 -23.1208 -20.5028 -12.2996  -2.9189  -2.5537
    -2.4862  -1.5691  -0.6901   0.4596   3.7715   5.9162   6.6073   7.2107
     7.7347   8.5298  10.0504  11.2008  12.2882  12.7543  14.5097  14.9389
    15.6038  16.6580

          k = 0.2500 0.3645 0.0000 (  5746 PWs)   bands (ev):

   -45.2295 -23.6833 -23.4602 -23.1853 -20.4938 -12.1622  -2.9352  -2.5853
    -2.4966  -1.7608  -0.6706  -0.0174   3.9245   6.0035   6.7796   7.1529
     7.9221   9.3194  10.4061  11.7297  12.5355  12.8422  14.1069  14.6270
    14.9971  16.1014

          k = 0.2500 0.4374 0.0000 (  5733 PWs)   bands (ev):

   -45.2219 -23.6988 -23.4471 -23.2516 -20.4872 -12.0401  -2.9579  -2.6639
    -2.4577  -1.8606  -0.6987  -0.4221   4.1031   6.1687   6.8202   7.2230
     7.9168  10.1999  10.7162  12.0751  12.6015  13.1965  13.8488  14.3444
    14.8192  15.3922

          k = 0.2500 0.5103 0.0000 (  5736 PWs)   bands (ev):

   -45.2168 -23.7068 -23.4337 -23.3025 -20.4834 -11.9553  -2.9931  -2.6967
    -2.4320  -1.8916  -0.8957  -0.5443   4.2458   6.4099   6.7304   7.4003
     7.7586  10.6141  11.2957  12.0251  12.9207  13.3637  13.5526  14.1237
    14.8023  15.3758

          k = 0.2500 0.5832 0.0000 (  5726 PWs)   bands (ev):

   -45.2150 -23.7085 -23.4284 -23.3219 -20.4822 -11.9249  -3.0118  -2.7002
    -2.4234  -1.8933  -1.0085  -0.5530   4.3002   6.5661   6.6800   7.4432
     7.6709  10.5939  11.9637  12.2197  12.2959  13.2938  13.7457  14.2079
    14.8141  15.4604

          k = 0.2500-0.0729 0.0000 (  5717 PWs)   bands (ev):

   -45.2601 -23.6912 -23.3119 -23.0435 -20.5290 -12.6056  -2.8208  -2.6717
    -2.4019  -0.9643  -0.4057   1.0376   3.7973   5.6726   6.3510   6.6628
     7.3253   7.5528   9.2879  10.3897  12.2989  13.2204  13.7762  15.7102
    16.6242  16.9040

          k = 0.2500 0.0000 0.0000 (  5720 PWs)   bands (ev):

   -45.2618 -23.6959 -23.2878 -23.0464 -20.5313 -12.6294  -2.8003  -2.6849
    -2.4081  -0.9499  -0.2736   0.9829   3.8419   5.5914   6.3883   6.6541
     7.2146   7.5293   9.2266  10.3626  12.7442  13.0006  13.5086  15.5152
    16.5665  16.8702

          k = 0.3125 0.1822 0.0000 (  5745 PWs)   bands (ev):

   -45.2429 -23.6763 -23.4569 -23.0716 -20.5096 -12.3618  -2.9580  -2.5630
    -2.4134  -1.5833  -0.6927   0.8897   3.5961   5.9767   6.6792   7.1214
     7.6708   8.1794   9.8122  10.7810  11.8895  12.7201  14.9494  15.4195
    16.5676  16.6149

          k = 0.3125 0.2551 0.0000 (  5727 PWs)   bands (ev):

   -45.2363 -23.6945 -23.4713 -23.0973 -20.5045 -12.2627  -2.9940  -2.5322
    -2.4496  -1.8321  -0.6683   0.6875   3.6066   6.0988   6.7099   7.3424
     7.7880   8.5828   9.9879  11.0275  12.0027  12.6707  14.4853  15.1743
    15.8705  16.6280

          k = 0.3125 0.3280 0.0000 (  5736 PWs)   bands (ev):

   -45.2291 -23.7127 -23.4650 -23.1511 -20.4973 -12.1515  -2.9962  -2.5609
    -2.4889  -1.9591  -0.6434   0.2566   3.7540   6.2335   6.7140   7.3517
     7.9122   9.3067  10.2857  11.5020  12.2517  12.7309  13.9212  14.6058
    15.3789  16.4567

          k = 0.3125 0.4009 0.0000 (  5741 PWs)   bands (ev):

   -45.2224 -23.7178 -23.4497 -23.2240 -20.4894 -12.0450  -2.9802  -2.6658
    -2.4608  -1.9685  -0.6426  -0.2640   3.9898   6.3149   6.7723   7.3162
     7.9011  10.1690  10.6451  12.0349  12.4730  12.9554  13.5168  14.2599
    15.0494  15.9014

          k = 0.3125 0.4738 0.0000 (  5729 PWs)   bands (ev):

   -45.2173 -23.7072 -23.4350 -23.2983 -20.4827 -11.9609  -2.9920  -2.6943
    -2.4312  -1.8928  -0.8796  -0.5463   4.2407   6.4039   6.7317   7.4033
     7.7626  10.5984  11.2928  12.0358  12.8999  13.3861  13.5317  14.1720
    14.7747  15.3579

          k = 0.3125 0.5467 0.0000 (  5711 PWs)   bands (ev):

   -45.2146 -23.6920 -23.4267 -23.3485 -20.4789 -11.9144  -3.0231  -2.6658
    -2.4091  -1.7453  -1.2724  -0.5644   4.4097   6.5282   6.6502   7.3649
     7.7313  10.5744  11.9580  12.1953  12.9752  13.2085  13.9501  14.1669
    14.9129  15.5336

          k = 0.3125-0.1093 0.0000 (  5725 PWs)   bands (ev):

   -45.2480 -23.6682 -23.4216 -23.0722 -20.5121 -12.4355  -2.8933  -2.6005
    -2.4208  -1.2882  -0.6977   0.8385   3.7022   5.8539   6.4987   7.0443
     7.5425   7.9963   9.7182  10.7591  12.0468  12.8583  14.6231  15.6648
    16.2783  16.6782

          k = 0.3125-0.0364 0.0000 (  5718 PWs)   bands (ev):

   -45.2507 -23.6670 -23.3888 -23.0838 -20.5130 -12.4746  -2.8257  -2.6428
    -2.4380  -1.0825  -0.6696   0.6935   3.8158   5.6806   6.4983   7.0003
     7.4374   7.9288   9.6707  10.7933  12.5472  12.9990  13.7582  15.5432
    16.3076  16.7944

          k = 0.3750 0.2187 0.0000 (  5733 PWs)   bands (ev):

   -45.2326 -23.7265 -23.4738 -23.0923 -20.5047 -12.2033  -3.0548  -2.5223
    -2.4285  -2.0713  -0.6436   0.7619   3.5082   6.1957   6.9172   7.4212
     7.9343   8.7592   9.9643  10.9882  11.9969  12.6564  13.9282  15.3085
    15.8171  16.0815

          k = 0.3750 0.2916 0.0000 (  5740 PWs)   bands (ev):

   -45.2277 -23.7518 -23.4656 -23.1169 -20.5021 -12.1265  -3.0773  -2.5453
    -2.4643  -2.1827  -0.6192   0.5636   3.5587   6.3483   6.8859   7.4850
     8.0238   9.2878  10.1258  11.1973  12.1134  12.7043  13.4787  14.8532
    15.2798  15.9930

          k = 0.3750 0.3645 0.0000 (  5726 PWs)   bands (ev):

   -45.2229 -23.7564 -23.4524 -23.1721 -20.4955 -12.0483  -3.0491  -2.6583
    -2.4653  -2.1508  -0.6054   0.1218   3.7588   6.5210   6.8093   7.4385
     7.9489  10.0671  10.4913  11.6317  12.2194  12.7073  13.2827  14.3478
    15.0027  15.7720

          k = 0.3750 0.4374 0.0000 (  5729 PWs)   bands (ev):

   -45.2187 -23.7383 -23.4395 -23.2463 -20.4873 -11.9809  -3.0046  -2.7280
    -2.4456  -2.0506  -0.6293  -0.3976   4.0359   6.5777   6.7610   7.4522
     7.7597  10.4812  11.2580  12.0729  12.2662  12.7204  13.4322  14.2997
    14.8707  15.4754

          k = 0.3750 0.5103 0.0000 (  5723 PWs)   bands (ev):

   -45.2160 -23.7074 -23.4305 -23.3165 -20.4807 -11.9354  -3.0085  -2.6943
    -2.4215  -1.8859  -0.9898  -0.5614   4.2974   6.5683   6.6650   7.4455
     7.6797  10.5619  11.9745  12.1804  12.2497  13.3832  13.7670  14.2110
    14.7887  15.4290

          k = 0.3750 0.5832 0.0000 (  5726 PWs)   bands (ev):

   -45.2150 -23.6903 -23.4275 -23.3476 -20.4781 -11.9193  -3.0212  -2.6618
    -2.4081  -1.7294  -1.2792  -0.5691   4.4127   6.5327   6.6396   7.3604
     7.7371  10.5577  11.9714  12.1126  13.0271  13.2047  14.0429  14.1228
    14.8938  15.5222

          k = 0.3750-0.1458 0.0000 (  5749 PWs)   bands (ev):

   -45.2367 -23.6926 -23.4706 -23.0982 -20.5037 -12.2672  -2.9911  -2.5330
    -2.4459  -1.8173  -0.6700   0.6705   3.6159   6.1026   6.7168   7.3335
     7.7802   8.5766   9.9783  11.0283  12.0069  12.6715  14.4980  15.2034
    15.8391  16.6564

          k = 0.3750-0.0729 0.0000 (  5732 PWs)   bands (ev):

   -45.2395 -23.6666 -23.4550 -23.1213 -20.5011 -12.3092  -2.9141  -2.5558
    -2.4769  -1.5396  -0.6930   0.4328   3.7842   5.9147   6.6141   7.2150
     7.7184   8.5192  10.0326  11.1974  12.3057  12.7627  14.5623  14.9491
    15.6188  16.6305

          k = 0.3750 0.0000 0.0000 (  5730 PWs)   bands (ev):

   -45.2404 -23.6577 -23.4443 -23.1348 -20.4999 -12.3239  -2.8744  -2.5754
    -2.4881  -1.4033  -0.7051   0.3011   3.8692   5.7790   6.6719   7.1011
     7.7206   8.5045  10.0549  11.2606  12.6376  12.8888  14.0254  14.8218
    15.9450  16.4074

          k = 0.4375 0.2551 0.0000 (  5730 PWs)   bands (ev):

   -45.2257 -23.7810 -23.4612 -23.1060 -20.5043 -12.0913  -3.1331  -2.5558
    -2.4404  -2.3271  -0.6006   0.6805   3.4651   6.4123   6.9861   7.5560
     8.2284   9.3942  10.0713  11.1365  12.0393  12.6119  13.2937  14.7348
    15.0995  15.6478

          k = 0.4375 0.3280 0.0000 (  5726 PWs)   bands (ev):

   -45.2231 -23.7895 -23.4539 -23.1278 -20.5019 -12.0502  -3.1311  -2.6265
    -2.4613  -2.3000  -0.5897   0.4960   3.5442   6.5308   6.9473   7.5273
     8.1826   9.8794  10.2676  11.3194  11.9030  12.5534  13.3755  14.3333
    14.9452  15.4761

          k = 0.4375 0.4009 0.0000 (  5728 PWs)   bands (ev):

   -45.2208 -23.7721 -23.4462 -23.1801 -20.4950 -12.0126  -3.0678  -2.7076
    -2.4595  -2.1939  -0.5915   0.0696   3.7672   6.6066   6.9121   7.4382
     7.9443  10.2702  10.8449  11.7192  11.8390  12.5699  13.4177  14.1819
    14.9887  15.2668

          k = 0.4375 0.4738 0.0000 (  5731 PWs)   bands (ev):

   -45.2190 -23.7361 -23.4398 -23.2470 -20.4867 -11.9842  -3.0031  -2.7230
    -2.4451  -2.0417  -0.6293  -0.4086   4.0411   6.5815   6.7607   7.4621
     7.7425  10.4709  11.1968  12.0875  12.3007  12.7261  13.4276  14.3010
    14.8809  15.4964

          k = 0.4375 0.5467 0.0000 (  5727 PWs)   bands (ev):

   -45.2181 -23.7029 -23.4358 -23.2987 -20.4813 -11.9690  -2.9892  -2.6846
    -2.4298  -1.8680  -0.8910  -0.5578   4.2497   6.4092   6.7195   7.4183
     7.7441  10.5766  11.2111  12.0549  12.8908  13.4149  13.5967  14.1415
    14.7867  15.3818

          k = 0.4375-0.1822 0.0000 (  5733 PWs)   bands (ev):

   -45.2280 -23.7497 -23.4657 -23.1178 -20.5014 -12.1297  -3.0746  -2.5438
    -2.4632  -2.1735  -0.6205   0.5513   3.5661   6.3471   6.9061   7.4733
     8.0166   9.2719  10.1117  11.2004  12.1168  12.6997  13.4889  14.8714
    15.2732  15.9973

          k = 0.4375-0.1093 0.0000 (  5742 PWs)   bands (ev):

   -45.2298 -23.7084 -23.4649 -23.1527 -20.4958 -12.1593  -2.9912  -2.5568
    -2.4858  -1.9354  -0.6464   0.2313   3.7678   6.2387   6.7182   7.3597
     7.8870   9.2845  10.2595  11.5026  12.2608  12.7275  13.9449  14.6155
    15.4081  16.4824

          k = 0.4375-0.0364 0.0000 (  5748 PWs)   bands (ev):

   -45.2308 -23.6784 -23.4598 -23.1854 -20.4916 -12.1753  -2.9297  -2.5763
    -2.4932  -1.7238  -0.6760  -0.0452   3.9383   6.0023   6.7765   7.1748
     7.8935   9.2922  10.3722  11.7227  12.5307  12.8850  14.1050  14.6902
    15.0279  16.0736

          k =-0.5000-0.2916 0.0000 (  5734 PWs)   bands (ev):

   -45.2233 -23.8020 -23.4544 -23.1108 -20.5046 -12.0508  -3.1667  -2.6039
    -2.4449  -2.3749  -0.5846   0.6527   3.4537   6.5273   6.9563   7.5917
     8.3571   9.7481  10.1378  11.2667  11.7414  12.5087  13.4579  14.2495
    14.9115  15.4742

          k =-0.5000-0.2187 0.0000 (  5724 PWs)   bands (ev):

   -45.2233 -23.7887 -23.4541 -23.1281 -20.5017 -12.0513  -3.1298  -2.6252
    -2.4611  -2.2974  -0.5901   0.4915   3.5469   6.5261   6.9629   7.5203
     8.1813   9.8653  10.2604  11.3185  11.9159  12.5515  13.3687  14.3448
    14.9587  15.4651

          k =-0.5000-0.1458 0.0000 (  5735 PWs)   bands (ev):

   -45.2233 -23.7535 -23.4528 -23.1733 -20.4947 -12.0527  -3.0457  -2.6531
    -2.4646  -2.1398  -0.6068   0.1067   3.7673   6.5161   6.8302   7.4385
     7.9310  10.0461  10.4533  11.6343  12.2440  12.7036  13.2853  14.3614
    15.0218  15.7773

          k =-0.5000-0.0729 0.0000 (  5749 PWs)   bands (ev):

   -45.2233 -23.7126 -23.4503 -23.2254 -20.4877 -12.0541  -2.9759  -2.6554
    -2.4593  -1.9421  -0.6450  -0.2905   4.0029   6.3215   6.7621   7.3418
     7.8684  10.1431  10.5875  12.0352  12.4702  12.9777  13.5517  14.2591
    15.0925  15.9088

          k =-0.5000-0.0000 0.0000 (  5756 PWs)   bands (ev):

   -45.2233 -23.6932 -23.4484 -23.2502 -20.4848 -12.0547  -2.9536  -2.6492
    -2.4557  -1.8256  -0.7027  -0.4440   4.1136   6.1677   6.8055   7.2575
     7.8861  10.1659  10.6498  12.0879  12.5693  13.2754  13.8623  14.3604
    14.8307  15.4087

     highest occupied, lowest unoccupied level (ev):     4.4127    5.5914

!    total energy              =    -571.23433137 Ry
     total all-electron energy =    -12610.611743 Ry
     estimated scf accuracy    <          3.1E-11 Ry

     The total energy is the sum of the following terms:
     one-electron contribution =    -279.53339764 Ry
     hartree contribution      =     148.37154494 Ry
     xc contribution           =     -36.36663275 Ry
     ewald contribution        =      -6.84950936 Ry
     one-center paw contrib.   =    -396.85633656 Ry

     convergence has been achieved in   7 iterations

     negative rho (up, down):  2.773E-05 0.000E+00

     Forces acting on atoms (cartesian axes, Ry/au):

     atom    1 type  1   force =     0.00000000    0.00059878    0.00020692
     atom    2 type  2   force =     0.00000000   -0.00051522    0.00067069
     atom    3 type  3   force =     0.00000000   -0.00008356   -0.00087761
     The non-local contrib.  to forces
     atom    1 type  1   force =     0.00000000   -0.00137911   -0.02429386
     atom    2 type  2   force =     0.00000000   -0.01217888   -1.01215628
     atom    3 type  3   force =     0.00000000   -0.00083337    0.21091302
     The ionic contribution  to forces
     atom    1 type  1   force =    -0.00000001   -0.08856175   -0.62750729
     atom    2 type  2   force =     0.00000001    0.06226582   24.91176430
     atom    3 type  3   force =     0.00000000    0.02629593  -24.28425701
     The local contribution  to forces
     atom    1 type  1   force =    -0.00000000    0.09046049    0.64793932
     atom    2 type  2   force =     0.00000027   -0.05064326  -23.90222121
     atom    3 type  3   force =    -0.00000000   -0.02548464   24.07491429
     The core correction contribution to forces
     atom    1 type  1   force =     0.00000000    0.00008048    0.00406784
     atom    2 type  2   force =     0.00000000    0.00003970    0.00328039
     atom    3 type  3   force =    -0.00000000   -0.00006206   -0.00245071
     The Hubbard contrib.    to forces
     atom    1 type  1   force =     0.00000000    0.00000000    0.00000000
     atom    2 type  2   force =     0.00000000    0.00000000    0.00000000
     atom    3 type  3   force =     0.00000000    0.00000000    0.00000000
     The SCF correction term to forces
     atom    1 type  1   force =    -0.00000000   -0.00000247   -0.00000123
     atom    2 type  2   force =    -0.00000000    0.00000026    0.00000136
     atom    3 type  3   force =     0.00000000   -0.00000057    0.00000068

     Total force =     0.001376     Total SCF correction =     0.000003
     Energy error            =      3.5E-05 Ry
     Gradient error          =      8.8E-04 Ry/Bohr

     number of scf cycles    =   4
     number of bfgs steps    =   3

     energy             old  =    -571.2342964544 Ry
     energy             new  =    -571.2343313661 Ry

     CASE: energy            _new < energy            _old

     new trust radius        =       0.0035833792 bohr
     new conv_thr            =       0.0000000003 Ry


ATOMIC_POSITIONS (angstrom)
Zr            0.0000000000        0.0118260115       10.1024823444
F            -0.0000000020        1.9252524257       11.4154072921
Br           -0.0000000020        1.9247293261        8.2002890765



     Writing config-only to output data dir ./tmp/ZrFBr.save/
     NEW-OLD atomic charge density approx. for the potential

     Check: negative core charge=   -0.000002

     negative rho (up, down):  2.756E-05 0.000E+00

     total cpu time spent up to now is       50.9 secs

     Self-consistent Calculation

     iteration #  1     ecut=    65.00 Ry     beta= 0.70
     Davidson diagonalization with overlap
     ethr =  1.00E-06,  avg # of iterations =  3.0

     Threshold (ethr) on eigenvalues was too large:
     Diagonalizing with lowered threshold

     Davidson diagonalization with overlap
     ethr =  8.17E-09,  avg # of iterations =  2.8

     negative rho (up, down):  2.744E-05 0.000E+00

     total cpu time spent up to now is       54.2 secs

     total energy              =    -571.23433469 Ry
     estimated scf accuracy    <       0.00000221 Ry

     iteration #  2     ecut=    65.00 Ry     beta= 0.70
     Davidson diagonalization with overlap
     ethr =  8.48E-09,  avg # of iterations =  2.0

     negative rho (up, down):  2.756E-05 0.000E+00

     total cpu time spent up to now is       55.6 secs

     total energy              =    -571.23433446 Ry
     estimated scf accuracy    <       0.00000508 Ry

     iteration #  3     ecut=    65.00 Ry     beta= 0.70
     Davidson diagonalization with overlap
     ethr =  8.48E-09,  avg # of iterations =  2.0

     negative rho (up, down):  2.761E-05 0.000E+00

     total cpu time spent up to now is       57.0 secs

     total energy              =    -571.23433555 Ry
     estimated scf accuracy    <       0.00000033 Ry

     iteration #  4     ecut=    65.00 Ry     beta= 0.70
     Davidson diagonalization with overlap
     ethr =  1.26E-09,  avg # of iterations =  2.0

     negative rho (up, down):  2.762E-05 0.000E+00

     total cpu time spent up to now is       58.3 secs

     total energy              =    -571.23433561 Ry
     estimated scf accuracy    <       0.00000004 Ry

     iteration #  5     ecut=    65.00 Ry     beta= 0.70
     Davidson diagonalization with overlap
     ethr =  1.71E-10,  avg # of iterations =  2.0

     negative rho (up, down):  2.762E-05 0.000E+00

     total cpu time spent up to now is       59.6 secs

     total energy              =    -571.23433562 Ry
     estimated scf accuracy    <          5.4E-09 Ry

     iteration #  6     ecut=    65.00 Ry     beta= 0.70
     Davidson diagonalization with overlap
     ethr =  2.09E-11,  avg # of iterations =  2.0

     negative rho (up, down):  2.762E-05 0.000E+00

     total cpu time spent up to now is       61.0 secs

     total energy              =    -571.23433562 Ry
     estimated scf accuracy    <          3.6E-10 Ry

     iteration #  7     ecut=    65.00 Ry     beta= 0.70
     Davidson diagonalization with overlap
     ethr =  1.40E-12,  avg # of iterations =  2.0

     negative rho (up, down):  2.762E-05 0.000E+00

     total cpu time spent up to now is       62.3 secs

     End of self-consistent calculation

          k = 0.0000 0.0000 0.0000 (  5637 PWs)   bands (ev):

   -45.2918 -23.7872 -22.9988 -22.9834 -20.5986 -12.9452  -3.1011  -2.3963
    -2.3748  -1.1010   1.4886   1.5602   3.7981   5.8390   5.9612   6.0392
     6.8975   6.9495   8.0310   8.9277  11.2473  14.1286  14.7495  14.9335
    15.4010  17.3470

          k = 0.0000 0.0729 0.0000 (  5682 PWs)   bands (ev):

   -45.2893 -23.7781 -23.0166 -23.0041 -20.5898 -12.9153  -3.0656  -2.4141
    -2.3965  -1.0772   1.3254   1.4449   3.8192   5.8858   5.8881   6.1350
     6.8932   6.9496   8.1653   9.1532  11.3923  14.1940  14.5106  14.8889
    15.2864  17.6127

          k = 0.0000 0.1458 0.0000 (  5722 PWs)   bands (ev):

   -45.2822 -23.7521 -23.1077 -23.0192 -20.5678 -12.8286  -2.9706  -2.5133
    -2.3981  -1.0200   0.7364   1.3249   3.8536   5.7603   6.0351   6.2358
     6.9613   7.0847   8.5202   9.6301  11.8081  13.7854  14.2145  15.1398
    15.3032  17.7360

          k = 0.0000 0.2187 0.0000 (  5720 PWs)   bands (ev):

   -45.2716 -23.7151 -23.2348 -23.0416 -20.5420 -12.6933  -2.8573  -2.6247
    -2.4038  -0.9626   0.0024   1.1565   3.8370   5.7061   6.2817   6.2987
     7.2598   7.2756   9.0015  10.1095  12.1814  13.4209  13.8507  15.5360
    15.9765  17.4137

          k = 0.0000 0.2916 0.0000 (  5728 PWs)   bands (ev):

   -45.2590 -23.6794 -23.3668 -23.0680 -20.5212 -12.5243  -2.8513  -2.6324
    -2.4153  -1.0409  -0.6052   0.9729   3.7436   5.7896   6.4276   6.6667
     7.4416   7.6998   9.4883  10.5018  12.0158  13.0647  14.3965  16.0911
    16.6967  16.7892

          k = 0.0000 0.3645 0.0000 (  5752 PWs)   bands (ev):

   -45.2464 -23.6755 -23.4580 -23.0941 -20.5092 -12.3437  -2.9493  -2.5577
    -2.4317  -1.5669  -0.6799   0.8034   3.6251   5.9653   6.6859   7.0798
     7.6356   8.1965   9.8343  10.7753  11.8996  12.7486  15.0577  15.4858
    16.4808  16.6654

          k = 0.0000 0.4374 0.0000 (  5752 PWs)   bands (ev):

   -45.2356 -23.7271 -23.4740 -23.1162 -20.5051 -12.1798  -3.0461  -2.5216
    -2.4490  -2.0627  -0.6271   0.6693   3.5375   6.1807   6.9164   7.3892
     7.9134   8.7812   9.9821  10.9795  12.0241  12.6995  14.0166  15.3720
    15.9092  15.9591

          k = 0.0000 0.5103 0.0000 (  5740 PWs)   bands (ev):

   -45.2284 -23.7829 -23.4604 -23.1309 -20.5052 -12.0640  -3.1231  -2.5622
    -2.4622  -2.3219  -0.5813   0.5841   3.4945   6.3974   6.9756   7.5208
     8.2326   9.4195  10.0872  11.1348  12.0947  12.6796  13.3387  14.7904
    15.1795  15.5144

          k = 0.0000-0.5832 0.0000 (  5746 PWs)   bands (ev):

   -45.2259 -23.8044 -23.4532 -23.1360 -20.5058 -12.0219  -3.1562  -2.6133
    -2.4672  -2.3708  -0.5643   0.5549   3.4832   6.5143   6.9398   7.5547
     8.3727   9.7807  10.1393  11.2756  11.8240  12.5626  13.4960  14.2990
    14.9917  15.3343

          k = 0.0625 0.0364 0.0000 (  5668 PWs)   bands (ev):

   -45.2894 -23.7783 -23.0285 -22.9912 -20.5899 -12.9161  -3.0661  -2.4306
    -2.3787  -1.0781   1.2719   1.5041   3.8168   5.7902   5.9890   6.1338
     6.8599   6.9908   8.1606   9.1473  11.3889  14.1942  14.4082  15.0280
    15.2728  17.5708

          k = 0.0625 0.1093 0.0000 (  5693 PWs)   bands (ev):

   -45.2846 -23.7607 -23.0823 -23.0096 -20.5745 -12.8578  -3.0004  -2.4882
    -2.3914  -1.0377   0.9036   1.3803   3.8447   5.7528   6.0278   6.2318
     6.8742   7.0761   8.4059   9.4931  11.6781  13.9388  14.2451  15.0345
    15.3111  17.6971

          k = 0.0625 0.1822 0.0000 (  5714 PWs)   bands (ev):

   -45.2758 -23.7291 -23.1866 -23.0332 -20.5508 -12.7467  -2.8912  -2.5910
    -2.4019  -0.9793   0.2809   1.1974   3.8589   5.6665   6.2315   6.2999
     7.0444   7.2641   8.8253   9.9578  12.1803  13.4050  13.9273  15.2190
    15.8830  17.3109

          k = 0.0625 0.2551 0.0000 (  5720 PWs)   bands (ev):

   -45.2641 -23.6916 -23.3129 -23.0617 -20.5278 -12.5942  -2.8131  -2.6619
    -2.4165  -0.9552  -0.3924   0.9858   3.8139   5.6848   6.3438   6.6052
     7.2908   7.5656   9.3135  10.3965  12.2897  13.2322  13.7981  15.7231
    16.6033  16.8990

          k = 0.0625 0.3280 0.0000 (  5746 PWs)   bands (ev):

   -45.2515 -23.6680 -23.4242 -23.0918 -20.5118 -12.4186  -2.8862  -2.5942
    -2.4374  -1.2794  -0.6881   0.7782   3.7215   5.8464   6.4928   7.0107
     7.5119   8.0107   9.7444  10.7574  12.0372  12.8739  14.6590  15.7260
    16.2976  16.6894

          k = 0.0625 0.4009 0.0000 (  5744 PWs)   bands (ev):

   -45.2398 -23.6938 -23.4721 -23.1194 -20.5042 -12.2450  -2.9849  -2.5305
    -2.4634  -1.8156  -0.6558   0.6010   3.6357   6.0868   6.7093   7.3116
     7.7615   8.5976  10.0023  11.0144  12.0171  12.7005  14.5849  15.2203
    15.8748  16.6571

          k = 0.0625 0.4738 0.0000 (  5735 PWs)   bands (ev):

   -45.2308 -23.7525 -23.4655 -23.1404 -20.5024 -12.1036  -3.0675  -2.5541
    -2.4721  -2.1772  -0.6029   0.4730   3.5873   6.3322   6.8902   7.4497
     8.0151   9.3043  10.1365  11.1815  12.1478  12.7544  13.5507  14.8717
    15.3353  15.9644

          k = 0.0625 0.5467 0.0000 (  5736 PWs)   bands (ev):

   -45.2260 -23.7916 -23.4531 -23.1517 -20.5029 -12.0235  -3.1210  -2.6379
    -2.4694  -2.3034  -0.5709   0.4062   3.5708   6.5141   6.9430   7.4925
     8.1919   9.9078  10.2664  11.3136  11.9816  12.6057  13.4039  14.3783
    15.0118  15.3907

          k = 0.1250 0.0729 0.0000 (  5684 PWs)   bands (ev):

   -45.2826 -23.7531 -23.1169 -23.0061 -20.5679 -12.8318  -2.9724  -2.5259
    -2.3809  -1.0231   0.6931   1.3878   3.8432   5.6944   6.1219   6.2286
     6.9443   7.1213   8.5065   9.6188  11.7955  13.7471  14.1851  15.1212
    15.4295  17.6917

          k = 0.1250 0.1458 0.0000 (  5701 PWs)   bands (ev):

   -45.2761 -23.7298 -23.1909 -23.0261 -20.5509 -12.7491  -2.8925  -2.5964
    -2.3932  -0.9816   0.2576   1.2361   3.8493   5.6515   6.2654   6.2913
     7.0420   7.2768   8.8169   9.9527  12.1723  13.3884  13.9117  15.2138
    15.9322  17.3293

          k = 0.1250 0.2187 0.0000 (  5714 PWs)   bands (ev):

   -45.2662 -23.6972 -23.2921 -23.0582 -20.5303 -12.6205  -2.7946  -2.6775
    -2.4164  -0.9447  -0.2816   0.9740   3.8445   5.6082   6.3714   6.6111
     7.1851   7.5437   9.2467  10.3684  12.7420  12.9734  13.5053  15.5205
    16.5873  16.8690

          k = 0.1250 0.2916 0.0000 (  5729 PWs)   bands (ev):

   -45.2546 -23.6678 -23.3944 -23.0971 -20.5128 -12.4605  -2.8211  -2.6373
    -2.4491  -1.0852  -0.6714   0.6772   3.8199   5.6822   6.4785   6.9778
     7.4166   7.9403   9.6943  10.7973  12.5134  12.9847  13.7584  15.5624
    16.3645  16.8273

          k = 0.1250 0.3645 0.0000 (  5730 PWs)   bands (ev):

   -45.2429 -23.6690 -23.4591 -23.1364 -20.5017 -12.2900  -2.9110  -2.5530
    -2.4894  -1.5517  -0.6839   0.4045   3.7893   5.9052   6.5999   7.1941
     7.7151   8.5365  10.0589  11.1924  12.2822  12.7589  14.5684  14.9947
    15.6461  16.6650

          k = 0.1250 0.4374 0.0000 (  5735 PWs)   bands (ev):

   -45.2329 -23.7128 -23.4662 -23.1699 -20.4970 -12.1361  -2.9881  -2.5711
    -2.4851  -1.9485  -0.6332   0.1893   3.7751   6.2245   6.7091   7.3311
     7.8971   9.3172  10.2939  11.4739  12.2588  12.7506  13.9954  14.6173
    15.4511  16.4862

          k = 0.1250 0.5103 0.0000 (  5741 PWs)   bands (ev):

   -45.2263 -23.7579 -23.4527 -23.1924 -20.4959 -12.0278  -3.0410  -2.6677
    -2.4652  -2.1516  -0.5915   0.0517   3.7788   6.5049   6.8172   7.4110
     7.9433  10.0929  10.4917  11.5886  12.2610  12.7578  13.3179  14.3592
    15.0628  15.7829

          k = 0.1250 0.5832 0.0000 (  5734 PWs)   bands (ev):

   -45.2239 -23.7752 -23.4460 -23.2003 -20.4960 -11.9886  -3.0607  -2.7195
    -2.4610  -2.2021  -0.5759   0.0043   3.7835   6.5920   6.9117   7.4099
     7.9503  10.3138  10.8437  11.6798  11.9130  12.5965  13.4392  14.2246
    15.0298  15.2493

          k = 0.1250 0.0000 0.0000 (  5688 PWs)   bands (ev):

   -45.2849 -23.7615 -23.0892 -23.0000 -20.5746 -12.8602  -3.0018  -2.4985
    -2.3778  -1.0400   0.8770   1.4187   3.8394   5.6925   6.0987   6.2298
     6.8811   7.0871   8.3942   9.4839  11.6702  13.8993  14.2322  15.0527
    15.3881  17.6936

          k = 0.1875 0.1093 0.0000 (  5703 PWs)   bands (ev):

   -45.2724 -23.7172 -23.2413 -23.0273 -20.5421 -12.7003  -2.8606  -2.6339
    -2.3858  -0.9692  -0.0311   1.2276   3.8154   5.6746   6.2645   6.3757
     7.2590   7.2976   8.9793  10.0993  12.1698  13.3932  13.8139  15.5083
    16.0873  17.4280

          k = 0.1875 0.1822 0.0000 (  5717 PWs)   bands (ev):

   -45.2649 -23.6936 -23.3177 -23.0501 -20.5279 -12.6005  -2.8166  -2.6669
    -2.4032  -0.9631  -0.4181   1.0491   3.7918   5.6802   6.3443   6.6315
     7.3056   7.5658   9.2968  10.3921  12.2896  13.2100  13.7519  15.6976
    16.6659  16.9192

          k = 0.1875 0.2551 0.0000 (  5725 PWs)   bands (ev):

   -45.2550 -23.6691 -23.3965 -23.0909 -20.5127 -12.4644  -2.8236  -2.6379
    -2.4429  -1.0955  -0.6785   0.7115   3.8071   5.6848   6.4796   6.9838
     7.4278   7.9368   9.6859  10.7979  12.5218  12.9849  13.7098  15.5600
    16.3356  16.8072

          k = 0.1875 0.3280 0.0000 (  5722 PWs)   bands (ev):

   -45.2443 -23.6615 -23.4512 -23.1428 -20.5004 -12.3088  -2.8743  -2.5715
    -2.4959  -1.4324  -0.7016   0.3155   3.8592   5.7770   6.6524   7.0879
     7.7267   8.5186  10.0761  11.2670  12.6294  12.8300  13.9975  14.8391
    15.9504  16.4547

          k = 0.1875 0.4009 0.0000 (  5743 PWs)   bands (ev):

   -45.2344 -23.6849 -23.4635 -23.1952 -20.4927 -12.1565  -2.9297  -2.5866
    -2.4916  -1.7530  -0.6687  -0.0427   3.9303   5.9960   6.7719   7.1435
     7.9115   9.3226  10.4067  11.7227  12.5356  12.8196  14.1100  14.7053
    15.0348  16.0561

          k = 0.1875 0.4738 0.0000 (  5746 PWs)   bands (ev):

   -45.2267 -23.7192 -23.4518 -23.2377 -20.4889 -12.0335  -2.9750  -2.6686
    -2.4578  -1.9635  -0.6394  -0.3020   3.9998   6.3136   6.7631   7.3039
     7.8888  10.1837  10.6488  12.0060  12.4542  12.9548  13.5890  14.2525
    15.1214  15.8552

          k = 0.1875 0.5467 0.0000 (  5737 PWs)   bands (ev):

   -45.2226 -23.7410 -23.4407 -23.2615 -20.4877 -11.9644  -3.0010  -2.7327
    -2.4445  -2.0536  -0.6302  -0.4301   4.0442   6.5699   6.7689   7.4292
     7.7523  10.5154  11.2614  12.0553  12.2829  12.7088  13.4607  14.3195
    14.8935  15.5127

          k = 0.1875-0.0364 0.0000 (  5697 PWs)   bands (ev):

   -45.2765 -23.7309 -23.1918 -23.0214 -20.5508 -12.7528  -2.8940  -2.5996
    -2.3856  -0.9847   0.2600   1.2439   3.8463   5.6196   6.2786   6.3227
     7.0726   7.2591   8.8031   9.9472  12.1677  13.3907  13.9086  15.2245
    15.9577  17.3211

          k = 0.2500 0.1458 0.0000 (  5721 PWs)   bands (ev):

   -45.2604 -23.6828 -23.3709 -23.0520 -20.5208 -12.5363  -2.8560  -2.6376
    -2.3958  -1.0565  -0.6239   1.0531   3.7145   5.7834   6.4102   6.7240
     7.4731   7.6860   9.4606  10.4971  12.0142  13.0384  14.3342  16.0385
    16.6151  16.8883

          k = 0.2500 0.2187 0.0000 (  5726 PWs)   bands (ev):

   -45.2528 -23.6713 -23.4279 -23.0769 -20.5114 -12.4300  -2.8909  -2.5967
    -2.4208  -1.3006  -0.7005   0.8574   3.6920   5.8491   6.4908   7.0352
     7.5382   7.9990   9.7225  10.7599  12.0355  12.8504  14.5781  15.6576
    16.2801  16.7016

          k = 0.2500 0.2916 0.0000 (  5742 PWs)   bands (ev):

   -45.2439 -23.6715 -23.4618 -23.1254 -20.5013 -12.2990  -2.9145  -2.5505
    -2.4816  -1.5681  -0.6916   0.4617   3.7682   5.9089   6.6008   7.2055
     7.7282   8.5294  10.0451  11.2020  12.2855  12.7530  14.5100  14.9354
    15.6029  16.6554

          k = 0.2500 0.3645 0.0000 (  5746 PWs)   bands (ev):

   -45.2349 -23.6860 -23.4648 -23.1897 -20.4923 -12.1615  -2.9311  -2.5806
    -2.4931  -1.7603  -0.6719  -0.0158   3.9208   5.9960   6.7736   7.1476
     7.9152   9.3191  10.3998  11.7319  12.5335  12.8419  14.1036  14.6243
    14.9966  16.1006

          k = 0.2500 0.4374 0.0000 (  5733 PWs)   bands (ev):

   -45.2273 -23.7017 -23.4517 -23.2558 -20.4857 -12.0393  -2.9539  -2.6592
    -2.4542  -1.8600  -0.6987  -0.4219   4.0988   6.1620   6.8147   7.2171
     7.9094  10.2000  10.7098  12.0762  12.6011  13.1955  13.8448  14.3444
    14.8166  15.3927

          k = 0.2500 0.5103 0.0000 (  5736 PWs)   bands (ev):

   -45.2222 -23.7097 -23.4383 -23.3066 -20.4819 -11.9545  -2.9891  -2.6925
    -2.4285  -1.8908  -0.8940  -0.5459   4.2408   6.4044   6.7254   7.3938
     7.7508  10.6106  11.2945  12.0228  12.9202  13.3620  13.5535  14.1234
    14.7985  15.3771

          k = 0.2500 0.5832 0.0000 (  5726 PWs)   bands (ev):

   -45.2204 -23.7115 -23.4330 -23.3260 -20.4807 -11.9241  -3.0076  -2.6961
    -2.4199  -1.8925  -1.0067  -0.5548   4.2949   6.5611   6.6757   7.4352
     7.6636  10.5902  11.9594  12.2188  12.2975  13.2924  13.7465  14.2079
    14.8120  15.4573

          k = 0.2500-0.0729 0.0000 (  5717 PWs)   bands (ev):

   -45.2654 -23.6946 -23.3153 -23.0486 -20.5274 -12.6052  -2.8168  -2.6672
    -2.3989  -0.9645  -0.4046   1.0391   3.7953   5.6650   6.3463   6.6554
     7.3235   7.5501   9.2844  10.3891  12.2964  13.2175  13.7755  15.7124
    16.6206  16.9050

          k = 0.2500 0.0000 0.0000 (  5720 PWs)   bands (ev):

   -45.2672 -23.6992 -23.2910 -23.0517 -20.5298 -12.6289  -2.7967  -2.6798
    -2.4053  -0.9506  -0.2718   0.9839   3.8402   5.5836   6.3830   6.6469
     7.2133   7.5267   9.2231  10.3622  12.7432  12.9964  13.5069  15.5180
    16.5619  16.8722

          k = 0.3125 0.1822 0.0000 (  5745 PWs)   bands (ev):

   -45.2483 -23.6790 -23.4610 -23.0765 -20.5082 -12.3612  -2.9536  -2.5601
    -2.4101  -1.5817  -0.6944   0.8917   3.5941   5.9706   6.6717   7.1163
     7.6663   8.1766   9.8070  10.7798  11.8881  12.7184  14.9473  15.4230
    16.5633  16.6129

          k = 0.3125 0.2551 0.0000 (  5727 PWs)   bands (ev):

   -45.2416 -23.6970 -23.4757 -23.1021 -20.5031 -12.2620  -2.9897  -2.5293
    -2.4457  -1.8312  -0.6697   0.6895   3.6043   6.0927   6.7024   7.3368
     7.7819   8.5813   9.9823  11.0270  12.0008  12.6699  14.4849  15.1749
    15.8676  16.6243

          k = 0.3125 0.3280 0.0000 (  5736 PWs)   bands (ev):

   -45.2345 -23.7151 -23.4696 -23.1557 -20.4959 -12.1507  -2.9920  -2.5568
    -2.4859  -1.9586  -0.6445   0.2583   3.7515   6.2270   6.7064   7.3471
     7.9046   9.3061  10.2793  11.5026  12.2493  12.7314  13.9214  14.6027
    15.3772  16.4528

          k = 0.3125 0.4009 0.0000 (  5741 PWs)   bands (ev):

   -45.2278 -23.7202 -23.4543 -23.2285 -20.4879 -12.0442  -2.9760  -2.6618
    -2.4579  -1.9679  -0.6433  -0.2630   3.9870   6.3085   6.7645   7.3118
     7.8929  10.1690  10.6382  12.0368  12.4714  12.9551  13.5163  14.2554
    15.0479  15.9025

          k = 0.3125 0.4738 0.0000 (  5729 PWs)   bands (ev):

   -45.2227 -23.7096 -23.4396 -23.3027 -20.4813 -11.9600  -2.9878  -2.6905
    -2.4281  -1.8921  -0.8786  -0.5473   4.2376   6.3982   6.7250   7.3975
     7.7541  10.5945  11.2916  12.0349  12.9003  13.3864  13.5294  14.1696
    14.7718  15.3591

          k = 0.3125 0.5467 0.0000 (  5711 PWs)   bands (ev):

   -45.2200 -23.6944 -23.4315 -23.3529 -20.4775 -11.9135  -3.0189  -2.6622
    -2.4059  -1.7444  -1.2716  -0.5656   4.4062   6.5238   6.6444   7.3563
     7.7236  10.5705  11.9548  12.1959  12.9761  13.2094  13.9476  14.1650
    14.9097  15.5343

          k = 0.3125-0.1093 0.0000 (  5725 PWs)   bands (ev):

   -45.2533 -23.6712 -23.4252 -23.0773 -20.5107 -12.4349  -2.8888  -2.5973
    -2.4179  -1.2861  -0.6995   0.8400   3.7009   5.8466   6.4928   7.0392
     7.5390   7.9927   9.7129  10.7579  12.0454  12.8563  14.6225  15.6647
    16.2775  16.6781

          k = 0.3125-0.0364 0.0000 (  5718 PWs)   bands (ev):

   -45.2561 -23.6701 -23.3920 -23.0890 -20.5116 -12.4740  -2.8210  -2.6396
    -2.4355  -1.0804  -0.6709   0.6945   3.8151   5.6725   6.4919   6.9968
     7.4338   7.9250   9.6651  10.7928  12.5454  12.9974  13.7565  15.5422
    16.3066  16.7948

          k = 0.3750 0.2187 0.0000 (  5733 PWs)   bands (ev):

   -45.2380 -23.7286 -23.4784 -23.0971 -20.5033 -12.2025  -3.0507  -2.5197
    -2.4253  -2.0702  -0.6447   0.7637   3.5064   6.1892   6.9105   7.4161
     7.9298   8.7542   9.9602  10.9858  11.9951  12.6562  13.9279  15.3093
    15.8136  16.0789

          k = 0.3750 0.2916 0.0000 (  5740 PWs)   bands (ev):

   -45.2331 -23.7539 -23.4703 -23.1217 -20.5006 -12.1257  -3.0733  -2.5422
    -2.4614  -2.1821  -0.6201   0.5653   3.5566   6.3410   6.8805   7.4792
     8.0170   9.2844  10.1217  11.1951  12.1113  12.7053  13.4786  14.8525
    15.2768  15.9903

          k = 0.3750 0.3645 0.0000 (  5726 PWs)   bands (ev):

   -45.2283 -23.7585 -23.4572 -23.1768 -20.4941 -12.0475  -3.0451  -2.6551
    -2.4627  -2.1500  -0.6061   0.1232   3.7566   6.5131   6.8042   7.4335
     7.9406  10.0644  10.4869  11.6305  12.2171  12.7088  13.2825  14.3448
    15.0005  15.7707

          k = 0.3750 0.4374 0.0000 (  5729 PWs)   bands (ev):

   -45.2241 -23.7403 -23.4443 -23.2510 -20.4859 -11.9800  -3.0005  -2.7249
    -2.4429  -2.0497  -0.6297  -0.3969   4.0335   6.5712   6.7552   7.4470
     7.7505  10.4771  11.2559  12.0739  12.2638  12.7191  13.4311  14.2974
    14.8684  15.4763

          k = 0.3750 0.5103 0.0000 (  5723 PWs)   bands (ev):

   -45.2214 -23.7093 -23.4353 -23.3212 -20.4793 -11.9345  -3.0046  -2.6911
    -2.4185  -1.8849  -0.9893  -0.5623   4.2950   6.5640   6.6583   7.4388
     7.6705  10.5584  11.9713  12.1805  12.2497  13.3809  13.7650  14.2085
    14.7893  15.4273

          k = 0.3750 0.5832 0.0000 (  5726 PWs)   bands (ev):

   -45.2204 -23.6920 -23.4323 -23.3525 -20.4768 -11.9184  -3.0173  -2.6587
    -2.4050  -1.7279  -1.2793  -0.5701   4.4103   6.5300   6.6318   7.3530
     7.7281  10.5546  11.9672  12.1129  13.0269  13.2067  14.0377  14.1187
    14.8938  15.5245

          k = 0.3750-0.1458 0.0000 (  5749 PWs)   bands (ev):

   -45.2421 -23.6948 -23.4749 -23.1032 -20.5023 -12.2664  -2.9870  -2.5302
    -2.4432  -1.8156  -0.6714   0.6720   3.6145   6.0959   6.7100   7.3295
     7.7763   8.5714   9.9729  11.0264  12.0056  12.6704  14.4966  15.2039
    15.8374  16.6534

          k = 0.3750-0.0729 0.0000 (  5732 PWs)   bands (ev):

   -45.2448 -23.6690 -23.4589 -23.1264 -20.4998 -12.3085  -2.9098  -2.5526
    -2.4747  -1.5374  -0.6946   0.4337   3.7835   5.9071   6.6073   7.2122
     7.7143   8.5145  10.0259  11.1964  12.3050  12.7610  14.5609  14.9456
    15.6199  16.6293

          k = 0.3750 0.0000 0.0000 (  5730 PWs)   bands (ev):

   -45.2458 -23.6602 -23.4480 -23.1400 -20.4986 -12.3232  -2.8700  -2.5722
    -2.4861  -1.4008  -0.7067   0.3017   3.8689   5.7710   6.6637   7.1001
     7.7163   8.5001  10.0477  11.2602  12.6369  12.8881  14.0226  14.8179
    15.9453  16.4083

          k = 0.4375 0.2551 0.0000 (  5730 PWs)   bands (ev):

   -45.2311 -23.7828 -23.4660 -23.1108 -20.5029 -12.0904  -3.1292  -2.5541
    -2.4372  -2.3258  -0.6014   0.6822   3.4632   6.4043   6.9813   7.5502
     8.2246   9.3859  10.0701  11.1327  12.0376  12.6124  13.2927  14.7355
    15.0970  15.6446

          k = 0.4375 0.3280 0.0000 (  5726 PWs)   bands (ev):

   -45.2285 -23.7913 -23.4588 -23.1326 -20.5005 -12.0493  -3.1272  -2.6244
    -2.4586  -2.2986  -0.5904   0.4976   3.5421   6.5215   6.9445   7.5211
     8.1767   9.8719  10.2665  11.3162  11.9027  12.5523  13.3755  14.3324
    14.9433  15.4736

          k = 0.4375 0.4009 0.0000 (  5728 PWs)   bands (ev):

   -45.2262 -23.7739 -23.4511 -23.1849 -20.4936 -12.0117  -3.0639  -2.7053
    -2.4569  -2.1926  -0.5922   0.0708   3.7651   6.5979   6.9087   7.4322
     7.9375  10.2652  10.8418  11.7169  11.8395  12.5667  13.4174  14.1813
    14.9863  15.2663

          k = 0.4375 0.4738 0.0000 (  5731 PWs)   bands (ev):

   -45.2244 -23.7378 -23.4447 -23.2519 -20.4854 -11.9833  -2.9992  -2.7205
    -2.4424  -2.0404  -0.6297  -0.4083   4.0391   6.5753   6.7548   7.4563
     7.7349  10.4678  11.1939  12.0854  12.2991  12.7226  13.4258  14.3013
    14.8810  15.4948

          k = 0.4375 0.5467 0.0000 (  5727 PWs)   bands (ev):

   -45.2235 -23.7044 -23.4406 -23.3038 -20.4799 -11.9681  -2.9854  -2.6819
    -2.4267  -1.8665  -0.8907  -0.5587   4.2478   6.4047   6.7116   7.4137
     7.7353  10.5747  11.2086  12.0494  12.8907  13.4146  13.5907  14.1411
    14.7877  15.3842

          k = 0.4375-0.1822 0.0000 (  5733 PWs)   bands (ev):

   -45.2334 -23.7515 -23.4705 -23.1227 -20.5000 -12.1288  -3.0706  -2.5420
    -2.4603  -2.1719  -0.6215   0.5527   3.5644   6.3402   6.8993   7.4685
     8.0135   9.2646  10.1093  11.1969  12.1144  12.6998  13.4878  14.8717
    15.2709  15.9953

          k = 0.4375-0.1093 0.0000 (  5742 PWs)   bands (ev):

   -45.2352 -23.7102 -23.4695 -23.1577 -20.4945 -12.1584  -2.9872  -2.5546
    -2.4831  -1.9336  -0.6475   0.2322   3.7665   6.2320   6.7110   7.3552
     7.8834   9.2795  10.2542  11.5007  12.2587  12.7260  13.9431  14.6151
    15.4078  16.4794

          k = 0.4375-0.0364 0.0000 (  5748 PWs)   bands (ev):

   -45.2362 -23.6801 -23.4642 -23.1906 -20.4903 -12.1745  -2.9256  -2.5740
    -2.4905  -1.7217  -0.6771  -0.0448   3.9376   5.9953   6.7678   7.1723
     7.8892   9.2887  10.3649  11.7221  12.5296  12.8828  14.1008  14.6881
    15.0295  16.0751

          k =-0.5000-0.2916 0.0000 (  5734 PWs)   bands (ev):

   -45.2287 -23.8038 -23.4593 -23.1156 -20.5032 -12.0498  -3.1629  -2.6028
    -2.4417  -2.3732  -0.5852   0.6543   3.4517   6.5178   6.9531   7.5856
     8.3537   9.7377  10.1374  11.2639  11.7414  12.5066  13.4580  14.2487
    14.9108  15.4707

          k =-0.5000-0.2187 0.0000 (  5724 PWs)   bands (ev):

   -45.2287 -23.7904 -23.4589 -23.1330 -20.5003 -12.0504  -3.1260  -2.6237
    -2.4583  -2.2957  -0.5908   0.4931   3.5450   6.5176   6.9582   7.5147
     8.1772   9.8563  10.2598  11.3154  11.9152  12.5495  13.3679  14.3449
    14.9575  15.4626

          k =-0.5000-0.1458 0.0000 (  5735 PWs)   bands (ev):

   -45.2287 -23.7551 -23.4576 -23.1783 -20.4933 -12.0518  -3.0418  -2.6512
    -2.4619  -2.1382  -0.6076   0.1078   3.7655   6.5092   6.8239   7.4329
     7.9265  10.0407  10.4508  11.6316  12.2403  12.7030  13.2836  14.3623
    15.0210  15.7754

          k =-0.5000-0.0729 0.0000 (  5749 PWs)   bands (ev):

   -45.2287 -23.7141 -23.4550 -23.2305 -20.4864 -12.0532  -2.9721  -2.6533
    -2.4564  -1.9405  -0.6457  -0.2902   4.0015   6.3156   6.7543   7.3369
     7.8631  10.1413  10.5818  12.0328  12.4665  12.9747  13.5508  14.2596
    15.0932  15.9075

          k =-0.5000-0.0000 0.0000 (  5756 PWs)   bands (ev):

   -45.2287 -23.6947 -23.4531 -23.2554 -20.4835 -12.0538  -2.9498  -2.6470
    -2.4527  -1.8238  -0.7029  -0.4445   4.1124   6.1618   6.7968   7.2537
     7.8802  10.1654  10.6430  12.0840  12.5683  13.2714  13.8598  14.3607
    14.8302  15.4127

     highest occupied, lowest unoccupied level (ev):     4.4103    5.5836

!    total energy              =    -571.23433562 Ry
     total all-electron energy =    -12610.611747 Ry
     estimated scf accuracy    <          7.1E-12 Ry

     The total energy is the sum of the following terms:
     one-electron contribution =    -279.24066782 Ry
     hartree contribution      =     148.22375197 Ry
     xc contribution           =     -36.36517563 Ry
     ewald contribution        =      -6.99597530 Ry
     one-center paw contrib.   =    -396.85626883 Ry

     convergence has been achieved in   7 iterations

     negative rho (up, down):  2.762E-05 0.000E+00

     Forces acting on atoms (cartesian axes, Ry/au):

     atom    1 type  1   force =     0.00000000   -0.00018978    0.00016578
     atom    2 type  2   force =     0.00000000   -0.00019288    0.00015773
     atom    3 type  3   force =     0.00000000    0.00038266   -0.00032351
     The non-local contrib.  to forces
     atom    1 type  1   force =     0.00000000   -0.00193783   -0.02426736
     atom    2 type  2   force =     0.00000000   -0.01374627   -1.01388037
     atom    3 type  3   force =     0.00000000   -0.00061839    0.21116047
     The ionic contribution  to forces
     atom    1 type  1   force =    -0.00000001   -0.10407346   -0.63636542
     atom    2 type  2   force =     0.00000001    0.07413153   24.90320612
     atom    3 type  3   force =     0.00000000    0.02994193  -24.26684071
     The local contribution  to forces
     atom    1 type  1   force =    -0.00000000    0.10574145    0.65673791
     atom    2 type  2   force =     0.00000027   -0.06062220  -23.89245906
     atom    3 type  3   force =    -0.00000000   -0.02884952   24.05784315
     The core correction contribution to forces
     atom    1 type  1   force =     0.00000000    0.00008087    0.00405938
     atom    2 type  2   force =     0.00000000    0.00004370    0.00328819
     atom    3 type  3   force =    -0.00000000   -0.00009150   -0.00248881
     The Hubbard contrib.    to forces
     atom    1 type  1   force =     0.00000000    0.00000000    0.00000000
     atom    2 type  2   force =     0.00000000    0.00000000    0.00000000
     atom    3 type  3   force =     0.00000000    0.00000000    0.00000000
     The SCF correction term to forces
     atom    1 type  1   force =    -0.00000000   -0.00000120   -0.00000064
     atom    2 type  2   force =    -0.00000000   -0.00000003    0.00000093
     atom    3 type  3   force =     0.00000000   -0.00000025    0.00000046

     Total force =     0.000614     Total SCF correction =     0.000002
     Energy error            =      4.3E-06 Ry
     Gradient error          =      3.8E-04 Ry/Bohr

     number of scf cycles    =   5
     number of bfgs steps    =   4

     energy             old  =    -571.2343313661 Ry
     energy             new  =    -571.2343356178 Ry

     CASE: energy            _new < energy            _old

     new trust radius        =       0.0006298514 bohr
     new conv_thr            =            1.0E-10 Ry


ATOMIC_POSITIONS (angstrom)
Zr            0.0000000000        0.0118704744       10.1025686007
F            -0.0000000020        1.9250617974       11.4156205798
Br           -0.0000000020        1.9248754914        8.1999895325



     Writing config-only to output data dir ./tmp/ZrFBr.save/
     NEW-OLD atomic charge density approx. for the potential

     Check: negative core charge=   -0.000002

     negative rho (up, down):  2.757E-05 0.000E+00

     total cpu time spent up to now is       62.7 secs

     Self-consistent Calculation

     iteration #  1     ecut=    65.00 Ry     beta= 0.70
     Davidson diagonalization with overlap
     ethr =  1.00E-06,  avg # of iterations =  2.0

     Threshold (ethr) on eigenvalues was too large:
     Diagonalizing with lowered threshold

     Davidson diagonalization with overlap
     ethr =  2.21E-10,  avg # of iterations =  4.0

     negative rho (up, down):  2.758E-05 0.000E+00

     total cpu time spent up to now is       65.8 secs

     total energy              =    -571.23433596 Ry
     estimated scf accuracy    <       0.00000007 Ry

     iteration #  2     ecut=    65.00 Ry     beta= 0.70
     Davidson diagonalization with overlap
     ethr =  2.50E-10,  avg # of iterations =  2.0

     negative rho (up, down):  2.760E-05 0.000E+00

     total cpu time spent up to now is       67.2 secs

     total energy              =    -571.23433595 Ry
     estimated scf accuracy    <       0.00000022 Ry

     iteration #  3     ecut=    65.00 Ry     beta= 0.70
     Davidson diagonalization with overlap
     ethr =  2.50E-10,  avg # of iterations =  2.0

     negative rho (up, down):  2.761E-05 0.000E+00

     total cpu time spent up to now is       68.6 secs

     total energy              =    -571.23433599 Ry
     estimated scf accuracy    <          3.7E-09 Ry

     iteration #  4     ecut=    65.00 Ry     beta= 0.70
     Davidson diagonalization with overlap
     ethr =  1.41E-11,  avg # of iterations =  2.0

     negative rho (up, down):  2.761E-05 0.000E+00

     total cpu time spent up to now is       69.9 secs

     total energy              =    -571.23433599 Ry
     estimated scf accuracy    <          9.9E-10 Ry

     iteration #  5     ecut=    65.00 Ry     beta= 0.70
     Davidson diagonalization with overlap
     ethr =  3.80E-12,  avg # of iterations =  2.0

     negative rho (up, down):  2.761E-05 0.000E+00

     total cpu time spent up to now is       71.2 secs

     End of self-consistent calculation

          k = 0.0000 0.0000 0.0000 (  5637 PWs)   bands (ev):

   -45.2926 -23.7878 -22.9994 -22.9841 -20.5986 -12.9447  -3.1008  -2.3958
    -2.3747  -1.1011   1.4898   1.5615   3.7970   5.8382   5.9602   6.0390
     6.8970   6.9493   8.0312   8.9277  11.2475  14.1294  14.7492  14.9335
    15.3982  17.3468

          k = 0.0000 0.0729 0.0000 (  5682 PWs)   bands (ev):

   -45.2901 -23.7786 -23.0173 -23.0048 -20.5898 -12.9148  -3.0653  -2.4140
    -2.3960  -1.0773   1.3266   1.4461   3.8181   5.8850   5.8871   6.1348
     6.8931   6.9490   8.1654   9.1533  11.3925  14.1947  14.5103  14.8886
    15.2841  17.6124

          k = 0.0000 0.1458 0.0000 (  5722 PWs)   bands (ev):

   -45.2830 -23.7527 -23.1084 -23.0198 -20.5678 -12.8281  -2.9702  -2.5132
    -2.3977  -1.0201   0.7374   1.3261   3.8526   5.7592   6.0344   6.2356
     6.9611   7.0840   8.5202   9.6302  11.8083  13.7851  14.2144  15.1387
    15.3030  17.7354

          k = 0.0000 0.2187 0.0000 (  5720 PWs)   bands (ev):

   -45.2724 -23.7156 -23.2354 -23.0423 -20.5420 -12.6927  -2.8570  -2.6246
    -2.4034  -0.9625   0.0032   1.1576   3.8361   5.7050   6.2816   6.2981
     7.2589   7.2753   9.0012  10.1094  12.1814  13.4204  13.8505  15.5359
    15.9765  17.4131

          k = 0.0000 0.2916 0.0000 (  5728 PWs)   bands (ev):

   -45.2598 -23.6800 -23.3674 -23.0686 -20.5212 -12.5237  -2.8511  -2.6323
    -2.4149  -1.0402  -0.6050   0.9740   3.7428   5.7885   6.4276   6.6661
     7.4407   7.6993   9.4877  10.5017  12.0157  13.0641  14.3970  16.0910
    16.6965  16.7894

          k = 0.0000 0.3645 0.0000 (  5752 PWs)   bands (ev):

   -45.2471 -23.6761 -23.4586 -23.0948 -20.5092 -12.3431  -2.9491  -2.5575
    -2.4313  -1.5662  -0.6799   0.8044   3.6244   5.9641   6.6857   7.0792
     7.6346   8.1958   9.8334  10.7752  11.8996  12.7481  15.0577  15.4862
    16.4804  16.6649

          k = 0.0000 0.4374 0.0000 (  5752 PWs)   bands (ev):

   -45.2364 -23.7277 -23.4746 -23.1168 -20.5051 -12.1792  -3.0459  -2.5213
    -2.4486  -2.0621  -0.6270   0.6703   3.5368   6.1796   6.9160   7.3883
     7.9126   8.7802   9.9815  10.9794  12.0239  12.6992  14.0165  15.3721
    15.9085  15.9588

          k = 0.0000 0.5103 0.0000 (  5740 PWs)   bands (ev):

   -45.2292 -23.7834 -23.4610 -23.1315 -20.5052 -12.0633  -3.1229  -2.5619
    -2.4618  -2.3214  -0.5812   0.5850   3.4938   6.3962   6.9750   7.5197
     8.2319   9.4185  10.0871  11.1345  12.0944  12.6794  13.3387  14.7900
    15.1793  15.5142

          k = 0.0000-0.5832 0.0000 (  5746 PWs)   bands (ev):

   -45.2267 -23.8049 -23.4538 -23.1366 -20.5058 -12.0213  -3.1559  -2.6130
    -2.4668  -2.3704  -0.5641   0.5558   3.4825   6.5130   6.9391   7.5536
     8.3720   9.7797  10.1392  11.2749  11.8241  12.5623  13.4961  14.2983
    14.9916  15.3341

          k = 0.0625 0.0364 0.0000 (  5668 PWs)   bands (ev):

   -45.2902 -23.7788 -23.0291 -22.9919 -20.5899 -12.9157  -3.0658  -2.4302
    -2.3785  -1.0782   1.2730   1.5053   3.8157   5.7894   5.9880   6.1335
     6.8595   6.9906   8.1608   9.1474  11.3890  14.1949  14.4078  15.0279
    15.2705  17.5706

          k = 0.0625 0.1093 0.0000 (  5693 PWs)   bands (ev):

   -45.2854 -23.7613 -23.0830 -23.0103 -20.5745 -12.8573  -3.0001  -2.4880
    -2.3911  -1.0377   0.9047   1.3814   3.8437   5.7518   6.0270   6.2314
     6.8741   7.0755   8.4059   9.4931  11.6783  13.9385  14.2454  15.0335
    15.3104  17.6966

          k = 0.0625 0.1822 0.0000 (  5714 PWs)   bands (ev):

   -45.2766 -23.7296 -23.1872 -23.0339 -20.5508 -12.7462  -2.8909  -2.5908
    -2.4016  -0.9792   0.2818   1.1985   3.8580   5.6654   6.2308   6.2998
     7.0441   7.2635   8.8251   9.9578  12.1804  13.4047  13.9268  15.2189
    15.8828  17.3103

          k = 0.0625 0.2551 0.0000 (  5720 PWs)   bands (ev):

   -45.2649 -23.6922 -23.3135 -23.0623 -20.5279 -12.5937  -2.8128  -2.6618
    -2.4161  -0.9549  -0.3919   0.9868   3.8131   5.6836   6.3435   6.6048
     7.2901   7.5650   9.3130  10.3965  12.2896  13.2315  13.7983  15.7232
    16.6033  16.8983

          k = 0.0625 0.3280 0.0000 (  5746 PWs)   bands (ev):

   -45.2523 -23.6685 -23.4248 -23.0924 -20.5119 -12.4180  -2.8860  -2.5939
    -2.4370  -1.2786  -0.6881   0.7792   3.7208   5.8453   6.4926   7.0101
     7.5110   8.0101   9.7436  10.7574  12.0372  12.8734  14.6594  15.7256
    16.2973  16.6894

          k = 0.0625 0.4009 0.0000 (  5744 PWs)   bands (ev):

   -45.2406 -23.6943 -23.4727 -23.1200 -20.5042 -12.2444  -2.9847  -2.5303
    -2.4630  -1.8149  -0.6557   0.6019   3.6351   6.0856   6.7090   7.3108
     7.7606   8.5969  10.0015  11.0144  12.0170  12.7001  14.5847  15.2204
    15.8746  16.6565

          k = 0.0625 0.4738 0.0000 (  5735 PWs)   bands (ev):

   -45.2316 -23.7530 -23.4662 -23.1410 -20.5024 -12.1029  -3.0673  -2.5537
    -2.4718  -2.1767  -0.6027   0.4739   3.5866   6.3310   6.8898   7.4487
     8.0142   9.3036  10.1361  11.1813  12.1475  12.7542  13.5506  14.8713
    15.3353  15.9638

          k = 0.0625 0.5467 0.0000 (  5736 PWs)   bands (ev):

   -45.2268 -23.7921 -23.4538 -23.1524 -20.5029 -12.0228  -3.1207  -2.6374
    -2.4691  -2.3031  -0.5707   0.4071   3.5701   6.5128   6.9424   7.4914
     8.1910   9.9070  10.2662  11.3131  11.9815  12.6055  13.4040  14.3778
    15.0117  15.3904

          k = 0.1250 0.0729 0.0000 (  5684 PWs)   bands (ev):

   -45.2834 -23.7537 -23.1175 -23.0068 -20.5680 -12.8313  -2.9721  -2.5256
    -2.3808  -1.0232   0.6941   1.3890   3.8424   5.6935   6.1210   6.2283
     6.9439   7.1209   8.5065   9.6189  11.7956  13.7468  14.1851  15.1201
    15.4294  17.6910

          k = 0.1250 0.1458 0.0000 (  5701 PWs)   bands (ev):

   -45.2768 -23.7304 -23.1915 -23.0268 -20.5509 -12.7486  -2.8922  -2.5962
    -2.3930  -0.9815   0.2585   1.2373   3.8485   5.6505   6.2645   6.2912
     7.0418   7.2762   8.8168   9.9527  12.1724  13.3881  13.9112  15.2137
    15.9320  17.3286

          k = 0.1250 0.2187 0.0000 (  5714 PWs)   bands (ev):

   -45.2670 -23.6977 -23.2927 -23.0589 -20.5303 -12.6200  -2.7942  -2.6773
    -2.4161  -0.9445  -0.2809   0.9750   3.8438   5.6071   6.3708   6.6107
     7.1847   7.5431   9.2463  10.3684  12.7419  12.9732  13.5048  15.5208
    16.5871  16.8685

          k = 0.1250 0.2916 0.0000 (  5729 PWs)   bands (ev):

   -45.2553 -23.6684 -23.3950 -23.0978 -20.5128 -12.4599  -2.8209  -2.6370
    -2.4488  -1.0844  -0.6714   0.6781   3.8193   5.6810   6.4780   6.9773
     7.4158   7.9397   9.6936  10.7973  12.5132  12.9842  13.7586  15.5621
    16.3645  16.8270

          k = 0.1250 0.3645 0.0000 (  5730 PWs)   bands (ev):

   -45.2437 -23.6695 -23.4598 -23.1370 -20.5018 -12.2894  -2.9108  -2.5527
    -2.4891  -1.5509  -0.6839   0.4053   3.7888   5.9041   6.5994   7.1933
     7.7143   8.5360  10.0580  11.1925  12.2822  12.7585  14.5686  14.9942
    15.6458  16.6650

          k = 0.1250 0.4374 0.0000 (  5735 PWs)   bands (ev):

   -45.2337 -23.7133 -23.4668 -23.1705 -20.4970 -12.1355  -2.9879  -2.5706
    -2.4849  -1.9480  -0.6330   0.1901   3.7745   6.2233   6.7086   7.3301
     7.8960   9.3168  10.2931  11.4739  12.2586  12.7504  13.9952  14.6169
    15.4512  16.4856

          k = 0.1250 0.5103 0.0000 (  5741 PWs)   bands (ev):

   -45.2271 -23.7584 -23.4534 -23.1930 -20.4960 -12.0271  -3.0408  -2.6671
    -2.4650  -2.1512  -0.5913   0.0525   3.7782   6.5036   6.8168   7.4100
     7.9421  10.0925  10.4912  11.5885  12.2605  12.7576  13.3180  14.3587
    15.0628  15.7823

          k = 0.1250 0.5832 0.0000 (  5734 PWs)   bands (ev):

   -45.2247 -23.7757 -23.4467 -23.2010 -20.4960 -11.9879  -3.0605  -2.7189
    -2.4608  -2.2018  -0.5756   0.0050   3.7828   6.5907   6.9114   7.4088
     7.9491  10.3135  10.8431  11.6793  11.9131  12.5961  13.4395  14.2240
    15.0295  15.2490

          k = 0.1250 0.0000 0.0000 (  5688 PWs)   bands (ev):

   -45.2857 -23.7620 -23.0898 -23.0007 -20.5746 -12.8597  -3.0015  -2.4981
    -2.3777  -1.0401   0.8780   1.4199   3.8385   5.6916   6.0977   6.2295
     6.8806   7.0869   8.3943   9.4840  11.6703  13.8988  14.2325  15.0514
    15.3879  17.6930

          k = 0.1875 0.1093 0.0000 (  5703 PWs)   bands (ev):

   -45.2732 -23.7178 -23.2419 -23.0280 -20.5421 -12.6998  -2.8603  -2.6336
    -2.3857  -0.9692  -0.0303   1.2288   3.8147   5.6736   6.2640   6.3749
     7.2586   7.2971   8.9791  10.0993  12.1697  13.3927  13.8137  15.5082
    16.0874  17.4268

          k = 0.1875 0.1822 0.0000 (  5717 PWs)   bands (ev):

   -45.2657 -23.6942 -23.3182 -23.0507 -20.5279 -12.6000  -2.8163  -2.6667
    -2.4030  -0.9628  -0.4176   1.0502   3.7913   5.6791   6.3437   6.6309
     7.3052   7.5652   9.2964  10.3921  12.2893  13.2092  13.7522  15.6977
    16.6658  16.9185

          k = 0.1875 0.2551 0.0000 (  5725 PWs)   bands (ev):

   -45.2558 -23.6697 -23.3971 -23.0916 -20.5127 -12.4638  -2.8234  -2.6377
    -2.4427  -1.0947  -0.6785   0.7124   3.8067   5.6837   6.4789   6.9833
     7.4272   7.9363   9.6852  10.7979  12.5216  12.9843  13.7100  15.5596
    16.3357  16.8069

          k = 0.1875 0.3280 0.0000 (  5722 PWs)   bands (ev):

   -45.2451 -23.6621 -23.4519 -23.1434 -20.5005 -12.3082  -2.8741  -2.5712
    -2.4956  -1.4316  -0.7015   0.3164   3.8588   5.7758   6.6516   7.0872
     7.7259   8.5181  10.0752  11.2671  12.6291  12.8300  13.9975  14.8385
    15.9501  16.4548

          k = 0.1875 0.4009 0.0000 (  5743 PWs)   bands (ev):

   -45.2352 -23.6854 -23.4641 -23.1959 -20.4927 -12.1558  -2.9295  -2.5862
    -2.4914  -1.7524  -0.6685  -0.0420   3.9298   5.9949   6.7712   7.1427
     7.9105   9.3223  10.4058  11.7229  12.5353  12.8196  14.1095  14.7051
    15.0347  16.0561

          k = 0.1875 0.4738 0.0000 (  5746 PWs)   bands (ev):

   -45.2275 -23.7197 -23.4524 -23.2383 -20.4890 -12.0329  -2.9748  -2.6681
    -2.4575  -1.9630  -0.6391  -0.3014   3.9992   6.3125   6.7622   7.3031
     7.8876  10.1836  10.6481  12.0063  12.4537  12.9547  13.5888  14.2521
    15.1214  15.8552

          k = 0.1875 0.5467 0.0000 (  5737 PWs)   bands (ev):

   -45.2234 -23.7415 -23.4414 -23.2621 -20.4877 -11.9638  -3.0009  -2.7321
    -2.4443  -2.0533  -0.6298  -0.4296   4.0436   6.5686   6.7684   7.4282
     7.7509  10.5151  11.2609  12.0554  12.2825  12.7084  13.4608  14.3190
    14.8933  15.5124

          k = 0.1875-0.0364 0.0000 (  5697 PWs)   bands (ev):

   -45.2773 -23.7314 -23.1924 -23.0221 -20.5508 -12.7523  -2.8937  -2.5993
    -2.3855  -0.9848   0.2609   1.2451   3.8456   5.6187   6.2781   6.3219
     7.0722   7.2587   8.8030   9.9473  12.1677  13.3903  13.9080  15.2243
    15.9578  17.3205

          k = 0.2500 0.1458 0.0000 (  5721 PWs)   bands (ev):

   -45.2612 -23.6834 -23.3714 -23.0527 -20.5209 -12.5358  -2.8557  -2.6374
    -2.3956  -1.0559  -0.6237   1.0543   3.7141   5.7824   6.4096   6.7232
     7.4725   7.6855   9.4600  10.4971  12.0139  13.0376  14.3348  16.0383
    16.6150  16.8885

          k = 0.2500 0.2187 0.0000 (  5726 PWs)   bands (ev):

   -45.2536 -23.6718 -23.4285 -23.0775 -20.5115 -12.4294  -2.8907  -2.5965
    -2.4207  -1.2998  -0.7005   0.8584   3.6916   5.8481   6.4900   7.0346
     7.5376   7.9984   9.7218  10.7599  12.0353  12.8496  14.5785  15.6572
    16.2801  16.7014

          k = 0.2500 0.2916 0.0000 (  5742 PWs)   bands (ev):

   -45.2446 -23.6720 -23.4624 -23.1261 -20.5013 -12.2984  -2.9143  -2.5503
    -2.4814  -1.5674  -0.6916   0.4626   3.7679   5.9078   6.6000   7.2049
     7.7274   8.5290  10.0443  11.2021  12.2854  12.7524  14.5101  14.9350
    15.6028  16.6553

          k = 0.2500 0.3645 0.0000 (  5746 PWs)   bands (ev):

   -45.2357 -23.6865 -23.4655 -23.1904 -20.4923 -12.1609  -2.9309  -2.5803
    -2.4928  -1.7597  -0.6717  -0.0150   3.9205   5.9949   6.7727   7.1469
     7.9141   9.3189  10.3989  11.7321  12.5333  12.8417  14.1031  14.6242
    14.9964  16.1005

          k = 0.2500 0.4374 0.0000 (  5733 PWs)   bands (ev):

   -45.2281 -23.7021 -23.4524 -23.2564 -20.4858 -12.0387  -2.9538  -2.6588
    -2.4539  -1.8595  -0.6982  -0.4215   4.0984   6.1610   6.8137   7.2164
     7.9082  10.1999  10.7089  12.0765  12.6008  13.1953  13.8442  14.3443
    14.8165  15.3928

          k = 0.2500 0.5103 0.0000 (  5736 PWs)   bands (ev):

   -45.2230 -23.7101 -23.4390 -23.3072 -20.4819 -11.9538  -2.9888  -2.6921
    -2.4283  -1.8904  -0.8934  -0.5457   4.2403   6.4034   6.7244   7.3930
     7.7493  10.6103  11.2942  12.0227  12.9201  13.3616  13.5535  14.1230
    14.7980  15.3774

          k = 0.2500 0.5832 0.0000 (  5726 PWs)   bands (ev):

   -45.2212 -23.7119 -23.4337 -23.3266 -20.4807 -11.9234  -3.0074  -2.6957
    -2.4197  -1.8920  -1.0061  -0.5546   4.2944   6.5600   6.6751   7.4344
     7.6619  10.5900  11.9590  12.2187  12.2974  13.2922  13.7466  14.2075
    14.8118  15.4566

          k = 0.2500-0.0729 0.0000 (  5717 PWs)   bands (ev):

   -45.2662 -23.6951 -23.3159 -23.0493 -20.5275 -12.6046  -2.8165  -2.6670
    -2.3988  -0.9643  -0.4041   1.0403   3.7948   5.6640   6.3458   6.6545
     7.3230   7.5497   9.2840  10.3892  12.2962  13.2167  13.7758  15.7124
    16.6206  16.9049

          k = 0.2500 0.0000 0.0000 (  5720 PWs)   bands (ev):

   -45.2680 -23.6998 -23.2916 -23.0524 -20.5299 -12.6284  -2.7965  -2.6795
    -2.4052  -0.9504  -0.2711   0.9850   3.8398   5.5826   6.3826   6.6459
     7.2129   7.5262   9.2227  10.3623  12.7430  12.9961  13.5064  15.5182
    16.5616  16.8723

          k = 0.3125 0.1822 0.0000 (  5745 PWs)   bands (ev):

   -45.2491 -23.6795 -23.4616 -23.0772 -20.5082 -12.3606  -2.9533  -2.5599
    -2.4099  -1.5809  -0.6944   0.8928   3.5938   5.9696   6.6710   7.1155
     7.6657   8.1760   9.8063  10.7797  11.8879  12.7177  14.9473  15.4233
    16.5628  16.6124

          k = 0.3125 0.2551 0.0000 (  5727 PWs)   bands (ev):

   -45.2424 -23.6974 -23.4763 -23.1027 -20.5032 -12.2614  -2.9895  -2.5291
    -2.4456  -1.8306  -0.6696   0.6905   3.6040   6.0917   6.7015   7.3361
     7.7811   8.5808   9.9816  11.0270  12.0006  12.6694  14.4848  15.1749
    15.8672  16.6238

          k = 0.3125 0.3280 0.0000 (  5736 PWs)   bands (ev):

   -45.2352 -23.7155 -23.4702 -23.1564 -20.4959 -12.1501  -2.9918  -2.5566
    -2.4858  -1.9581  -0.6444   0.2592   3.7512   6.2260   6.7055   7.3464
     7.9036   9.3058  10.2786  11.5027  12.2491  12.7310  13.9212  14.6024
    15.3770  16.4522

          k = 0.3125 0.4009 0.0000 (  5741 PWs)   bands (ev):

   -45.2286 -23.7207 -23.4550 -23.2291 -20.4880 -12.0435  -2.9758  -2.6615
    -2.4577  -1.9675  -0.6430  -0.2623   3.9867   6.3076   6.7634   7.3111
     7.8917  10.1689  10.6374  12.0370  12.4710  12.9550  13.5161  14.2549
    15.0478  15.9024

          k = 0.3125 0.4738 0.0000 (  5729 PWs)   bands (ev):

   -45.2235 -23.7100 -23.4403 -23.3034 -20.4813 -11.9593  -2.9876  -2.6902
    -2.4279  -1.8917  -0.8779  -0.5471   4.2372   6.3974   6.7240   7.3968
     7.7526  10.5941  11.2913  12.0348  12.9002  13.3864  13.5289  14.1692
    14.7715  15.3592

          k = 0.3125 0.5467 0.0000 (  5711 PWs)   bands (ev):

   -45.2207 -23.6948 -23.4322 -23.3535 -20.4775 -11.9128  -3.0187  -2.6620
    -2.4057  -1.7438  -1.2710  -0.5654   4.4058   6.5231   6.6435   7.3554
     7.7220  10.5702  11.9545  12.1959  12.9761  13.2094  13.9472  14.1646
    14.9093  15.5343

          k = 0.3125-0.1093 0.0000 (  5725 PWs)   bands (ev):

   -45.2541 -23.6717 -23.4257 -23.0780 -20.5108 -12.4343  -2.8885  -2.5971
    -2.4178  -1.2853  -0.6995   0.8411   3.7005   5.8456   6.4923   7.0383
     7.5384   7.9922   9.7122  10.7579  12.0452  12.8555  14.6230  15.6643
    16.2771  16.6780

          k = 0.3125-0.0364 0.0000 (  5718 PWs)   bands (ev):

   -45.2569 -23.6706 -23.3926 -23.0897 -20.5117 -12.4734  -2.8208  -2.6393
    -2.4354  -1.0797  -0.6708   0.6955   3.8148   5.6715   6.4914   6.9961
     7.4333   7.9245   9.6643  10.7929  12.5451  12.9967  13.7567  15.5419
    16.3066  16.7944

          k = 0.3750 0.2187 0.0000 (  5733 PWs)   bands (ev):

   -45.2388 -23.7290 -23.4790 -23.0978 -20.5034 -12.2019  -3.0505  -2.5196
    -2.4252  -2.0696  -0.6446   0.7647   3.5060   6.1882   6.9098   7.4152
     7.9292   8.7534   9.9596  10.9856  11.9947  12.6558  13.9277  15.3094
    15.8130  16.0786

          k = 0.3750 0.2916 0.0000 (  5740 PWs)   bands (ev):

   -45.2339 -23.7543 -23.4710 -23.1223 -20.5007 -12.1251  -3.0730  -2.5419
    -2.4613  -2.1816  -0.6200   0.5663   3.5563   6.3400   6.8798   7.4784
     8.0161   9.2838  10.1213  11.1948  12.1108  12.7051  13.4784  14.8522
    15.2764  15.9900

          k = 0.3750 0.3645 0.0000 (  5726 PWs)   bands (ev):

   -45.2290 -23.7589 -23.4579 -23.1775 -20.4942 -12.0468  -3.0449  -2.6547
    -2.4626  -2.1496  -0.6059   0.1241   3.7563   6.5121   6.8034   7.4327
     7.9395  10.0641  10.4863  11.6304  12.2167  12.7087  13.2823  14.3444
    15.0002  15.7704

          k = 0.3750 0.4374 0.0000 (  5729 PWs)   bands (ev):

   -45.2249 -23.7407 -23.4450 -23.2516 -20.4860 -11.9794  -3.0004  -2.7245
    -2.4428  -2.0493  -0.6293  -0.3964   4.0332   6.5703   6.7544   7.4462
     7.7492  10.4768  11.2554  12.0739  12.2636  12.7188  13.4308  14.2971
    14.8680  15.4762

          k = 0.3750 0.5103 0.0000 (  5723 PWs)   bands (ev):

   -45.2222 -23.7097 -23.4360 -23.3219 -20.4794 -11.9338  -3.0044  -2.6908
    -2.4184  -1.8844  -0.9886  -0.5621   4.2947   6.5634   6.6573   7.4381
     7.6688  10.5579  11.9710  12.1804  12.2496  13.3807  13.7647  14.2082
    14.7891  15.4271

          k = 0.3750 0.5832 0.0000 (  5726 PWs)   bands (ev):

   -45.2212 -23.6924 -23.4330 -23.3531 -20.4768 -11.9177  -3.0170  -2.6585
    -2.4048  -1.7272  -1.2788  -0.5698   4.4099   6.5296   6.6306   7.3522
     7.7265  10.5540  11.9670  12.1128  13.0266  13.2069  14.0371  14.1184
    14.8935  15.5248

          k = 0.3750-0.1458 0.0000 (  5749 PWs)   bands (ev):

   -45.2429 -23.6952 -23.4756 -23.1039 -20.5024 -12.2658  -2.9867  -2.5300
    -2.4431  -1.8149  -0.6714   0.6731   3.6142   6.0949   6.7094   7.3286
     7.7758   8.5706   9.9721  11.0264  12.0053  12.6698  14.4964  15.2039
    15.8372  16.6527

          k = 0.3750-0.0729 0.0000 (  5732 PWs)   bands (ev):

   -45.2456 -23.6695 -23.4595 -23.1271 -20.4999 -12.3079  -2.9096  -2.5524
    -2.4747  -1.5367  -0.6946   0.4347   3.7833   5.9060   6.6067   7.2115
     7.7136   8.5138  10.0249  11.1966  12.3048  12.7604  14.5610  14.9451
    15.6197  16.6291

          k = 0.3750 0.0000 0.0000 (  5730 PWs)   bands (ev):

   -45.2466 -23.6607 -23.4486 -23.1407 -20.4986 -12.3226  -2.8698  -2.5720
    -2.4861  -1.4000  -0.7067   0.3026   3.8687   5.7700   6.6629   7.0996
     7.7156   8.4995  10.0466  11.2604  12.6365  12.8880  14.0225  14.8173
    15.9450  16.4085

          k = 0.4375 0.2551 0.0000 (  5730 PWs)   bands (ev):

   -45.2319 -23.7832 -23.4667 -23.1115 -20.5029 -12.0898  -3.1289  -2.5539
    -2.4371  -2.3254  -0.6012   0.6833   3.4628   6.4033   6.9806   7.5492
     8.2241   9.3849  10.0700  11.1323  12.0371  12.6122  13.2925  14.7353
    15.0966  15.6442

          k = 0.4375 0.3280 0.0000 (  5726 PWs)   bands (ev):

   -45.2293 -23.7917 -23.4595 -23.1332 -20.5006 -12.0486  -3.1269  -2.6241
    -2.4585  -2.2983  -0.5902   0.4986   3.5418   6.5203   6.9439   7.5202
     8.1760   9.8712  10.2662  11.3158  11.9025  12.5519  13.3755  14.3320
    14.9430  15.4733

          k = 0.4375 0.4009 0.0000 (  5728 PWs)   bands (ev):

   -45.2270 -23.7743 -23.4518 -23.1855 -20.4936 -12.0110  -3.0637  -2.7049
    -2.4568  -2.1923  -0.5920   0.0716   3.7648   6.5967   6.9082   7.4312
     7.9365  10.2648  10.8411  11.7166  11.8395  12.5661  13.4173  14.1811
    14.9860  15.2659

          k = 0.4375 0.4738 0.0000 (  5731 PWs)   bands (ev):

   -45.2252 -23.7382 -23.4454 -23.2526 -20.4854 -11.9826  -2.9990  -2.7202
    -2.4422  -2.0400  -0.6293  -0.4077   4.0388   6.5744   6.7541   7.4554
     7.7337  10.4673  11.1933  12.0853  12.2989  12.7223  13.4256  14.3011
    14.8809  15.4943

          k = 0.4375 0.5467 0.0000 (  5727 PWs)   bands (ev):

   -45.2243 -23.7048 -23.4413 -23.3045 -20.4800 -11.9674  -2.9852  -2.6817
    -2.4266  -1.8660  -0.8900  -0.5585   4.2476   6.4040   6.7105   7.4132
     7.7337  10.5742  11.2081  12.0492  12.8906  13.4145  13.5902  14.1409
    14.7874  15.3845

          k = 0.4375-0.1822 0.0000 (  5733 PWs)   bands (ev):

   -45.2342 -23.7519 -23.4712 -23.1234 -20.5001 -12.1282  -3.0704  -2.5418
    -2.4601  -2.1714  -0.6214   0.5537   3.5641   6.3392   6.8987   7.4675
     8.0130   9.2637  10.1088  11.1967  12.1138  12.6996  13.4876  14.8716
    15.2708  15.9947

          k = 0.4375-0.1093 0.0000 (  5742 PWs)   bands (ev):

   -45.2360 -23.7106 -23.4702 -23.1584 -20.4946 -12.1578  -2.9870  -2.5544
    -2.4829  -1.9330  -0.6474   0.2331   3.7663   6.2310   6.7104   7.3544
     7.8828   9.2789  10.2532  11.5008  12.2582  12.7256  13.9428  14.6149
    15.4079  16.4785

          k = 0.4375-0.0364 0.0000 (  5748 PWs)   bands (ev):

   -45.2370 -23.6805 -23.4649 -23.1913 -20.4903 -12.1738  -2.9254  -2.5739
    -2.4903  -1.7210  -0.6770  -0.0441   3.9374   5.9943   6.7669   7.1718
     7.8883   9.2882  10.3637  11.7223  12.5293  12.8827  14.1003  14.6879
    15.0293  16.0751

          k =-0.5000-0.2916 0.0000 (  5734 PWs)   bands (ev):

   -45.2294 -23.8042 -23.4600 -23.1163 -20.5033 -12.0492  -3.1626  -2.6025
    -2.4416  -2.3729  -0.5851   0.6554   3.4514   6.5166   6.9525   7.5846
     8.3532   9.7366  10.1372  11.2633  11.7413  12.5060  13.4581  14.2482
    14.9107  15.4704

          k =-0.5000-0.2187 0.0000 (  5724 PWs)   bands (ev):

   -45.2294 -23.7908 -23.4596 -23.1336 -20.5003 -12.0498  -3.1257  -2.6234
    -2.4582  -2.2954  -0.5907   0.4940   3.5447   6.5164   6.9577   7.5137
     8.1766   9.8554  10.2596  11.3149  11.9150  12.5490  13.3678  14.3445
    14.9574  15.4621

          k =-0.5000-0.1458 0.0000 (  5735 PWs)   bands (ev):

   -45.2295 -23.7555 -23.4583 -23.1789 -20.4933 -12.0512  -3.0416  -2.6509
    -2.4617  -2.1378  -0.6074   0.1087   3.7652   6.5081   6.8233   7.4319
     7.9257  10.0401  10.4501  11.6315  12.2396  12.7028  13.2834  14.3621
    15.0210  15.7747

          k =-0.5000-0.0729 0.0000 (  5749 PWs)   bands (ev):

   -45.2295 -23.7145 -23.4557 -23.2312 -20.4864 -12.0526  -2.9719  -2.6530
    -2.4563  -1.9399  -0.6454  -0.2895   4.0012   6.3147   6.7533   7.3363
     7.8620  10.1411  10.5807  12.0328  12.4661  12.9745  13.5505  14.2594
    15.0932  15.9073

          k =-0.5000-0.0000 0.0000 (  5756 PWs)   bands (ev):

   -45.2295 -23.6950 -23.4538 -23.2561 -20.4836 -12.0531  -2.9496  -2.6468
    -2.4525  -1.8232  -0.7025  -0.4441   4.1122   6.1609   6.7956   7.2533
     7.8790  10.1652  10.6417  12.0841  12.5681  13.2712  13.8595  14.3605
    14.8300  15.4130

     highest occupied, lowest unoccupied level (ev):     4.4099    5.5826

!    total energy              =    -571.23433599 Ry
     total all-electron energy =    -12610.611747 Ry
     estimated scf accuracy    <          9.6E-11 Ry

     The total energy is the sum of the following terms:
     one-electron contribution =    -279.19347705 Ry
     hartree contribution      =     148.19992608 Ry
     xc contribution           =     -36.36491403 Ry
     ewald contribution        =      -7.01961655 Ry
     one-center paw contrib.   =    -396.85625444 Ry

     convergence has been achieved in   5 iterations

     negative rho (up, down):  2.761E-05 0.000E+00

     Forces acting on atoms (cartesian axes, Ry/au):

     atom    1 type  1   force =     0.00000000   -0.00019527    0.00007505
     atom    2 type  2   force =     0.00000000   -0.00016580    0.00011468
     atom    3 type  3   force =     0.00000000    0.00036107   -0.00018973
     The non-local contrib.  to forces
     atom    1 type  1   force =     0.00000000   -0.00195443   -0.02424160
     atom    2 type  2   force =     0.00000000   -0.01386477   -1.01400839
     atom    3 type  3   force =     0.00000000   -0.00062773    0.21121215
     The ionic contribution  to forces
     atom    1 type  1   force =    -0.00000001   -0.10486645   -0.63796853
     atom    2 type  2   force =     0.00000001    0.07504836   24.90153991
     atom    3 type  3   force =     0.00000000    0.02981809  -24.26357138
     The local contribution  to forces
     atom    1 type  1   force =    -0.00000000    0.10654435    0.65822291
     atom    2 type  2   force =     0.00000027   -0.06139329  -23.89070812
     atom    3 type  3   force =    -0.00000000   -0.02873879   24.05465933
     The core correction contribution to forces
     atom    1 type  1   force =     0.00000000    0.00008072    0.00405641
     atom    2 type  2   force =     0.00000000    0.00004400    0.00328880
     atom    3 type  3   force =    -0.00000000   -0.00009036   -0.00249785
     The Hubbard contrib.    to forces
     atom    1 type  1   force =     0.00000000    0.00000000    0.00000000
     atom    2 type  2   force =     0.00000000    0.00000000    0.00000000
     atom    3 type  3   force =     0.00000000    0.00000000    0.00000000
     The SCF correction term to forces
     atom    1 type  1   force =    -0.00000000    0.00000025    0.00000325
     atom    2 type  2   force =     0.00000000   -0.00000039   -0.00000013
     atom    3 type  3   force =     0.00000000   -0.00000043    0.00000542

     Total force =     0.000501     Total SCF correction =     0.000006
     Energy error            =      3.7E-07 Ry
     Gradient error          =      3.6E-04 Ry/Bohr

     number of scf cycles    =   6
     number of bfgs steps    =   5

     energy             old  =    -571.2343356178 Ry
     energy             new  =    -571.2343359877 Ry

     CASE: energy            _new < energy            _old

     new trust radius        =       0.0006928365 bohr
     new conv_thr            =            1.0E-10 Ry


ATOMIC_POSITIONS (angstrom)
Zr            0.0000000000        0.0117898202       10.1026441429
F            -0.0000000020        1.9248726624       11.4157932991
Br           -0.0000000020        1.9251452806        8.1997412710



     Writing config-only to output data dir ./tmp/ZrFBr.save/
     NEW-OLD atomic charge density approx. for the potential

     Check: negative core charge=   -0.000002

     negative rho (up, down):  2.757E-05 0.000E+00

     total cpu time spent up to now is       71.6 secs

     Self-consistent Calculation

     iteration #  1     ecut=    65.00 Ry     beta= 0.70
     Davidson diagonalization with overlap
     ethr =  1.00E-06,  avg # of iterations =  2.0

     Threshold (ethr) on eigenvalues was too large:
     Diagonalizing with lowered threshold

     Davidson diagonalization with overlap
     ethr =  1.72E-10,  avg # of iterations =  4.0

     negative rho (up, down):  2.758E-05 0.000E+00

     total cpu time spent up to now is       74.7 secs

     total energy              =    -571.23433631 Ry
     estimated scf accuracy    <       0.00000005 Ry

     iteration #  2     ecut=    65.00 Ry     beta= 0.70
     Davidson diagonalization with overlap
     ethr =  1.83E-10,  avg # of iterations =  2.0

     negative rho (up, down):  2.760E-05 0.000E+00

     total cpu time spent up to now is       76.1 secs

     total energy              =    -571.23433631 Ry
     estimated scf accuracy    <       0.00000014 Ry

     iteration #  3     ecut=    65.00 Ry     beta= 0.70
     Davidson diagonalization with overlap
     ethr =  1.83E-10,  avg # of iterations =  2.0

     negative rho (up, down):  2.761E-05 0.000E+00

     total cpu time spent up to now is       77.4 secs

     total energy              =    -571.23433633 Ry
     estimated scf accuracy    <          3.8E-09 Ry

     iteration #  4     ecut=    65.00 Ry     beta= 0.70
     Davidson diagonalization with overlap
     ethr =  1.47E-11,  avg # of iterations =  2.0

     negative rho (up, down):  2.761E-05 0.000E+00

     total cpu time spent up to now is       78.7 secs

     total energy              =    -571.23433633 Ry
     estimated scf accuracy    <          1.2E-09 Ry

     iteration #  5     ecut=    65.00 Ry     beta= 0.70
     Davidson diagonalization with overlap
     ethr =  4.79E-12,  avg # of iterations =  2.0

     negative rho (up, down):  2.761E-05 0.000E+00

     total cpu time spent up to now is       80.1 secs

     End of self-consistent calculation

          k = 0.0000 0.0000 0.0000 (  5637 PWs)   bands (ev):

   -45.2932 -23.7882 -23.0000 -22.9847 -20.5986 -12.9442  -3.1005  -2.3956
    -2.3746  -1.1012   1.4906   1.5627   3.7961   5.8373   5.9596   6.0387
     6.8970   6.9488   8.0314   8.9278  11.2477  14.1301  14.7489  14.9334
    15.3960  17.3466

          k = 0.0000 0.0729 0.0000 (  5682 PWs)   bands (ev):

   -45.2908 -23.7790 -23.0179 -23.0053 -20.5899 -12.9144  -3.0650  -2.4140
    -2.3958  -1.0773   1.3278   1.4469   3.8172   5.8842   5.8865   6.1345
     6.8927   6.9489   8.1656   9.1533  11.3927  14.1953  14.5100  14.8884
    15.2824  17.6122

          k = 0.0000 0.1458 0.0000 (  5722 PWs)   bands (ev):

   -45.2837 -23.7531 -23.1089 -23.0204 -20.5678 -12.8276  -2.9700  -2.5132
    -2.3975  -1.0201   0.7385   1.3269   3.8518   5.7585   6.0337   6.2353
     6.9609   7.0838   8.5202   9.6301  11.8085  13.7848  14.2143  15.1381
    15.3029  17.7350

          k = 0.0000 0.2187 0.0000 (  5720 PWs)   bands (ev):

   -45.2730 -23.7161 -23.2359 -23.0428 -20.5421 -12.6922  -2.8568  -2.6246
    -2.4032  -0.9623   0.0040   1.1584   3.8355   5.7040   6.2815   6.2974
     7.2585   7.2750   9.0009  10.1093  12.1815  13.4201  13.8505  15.5359
    15.9765  17.4126

          k = 0.0000 0.2916 0.0000 (  5728 PWs)   bands (ev):

   -45.2604 -23.6804 -23.3679 -23.0692 -20.5213 -12.5232  -2.8509  -2.6321
    -2.4147  -1.0395  -0.6049   0.9747   3.7424   5.7874   6.4275   6.6656
     7.4401   7.6989   9.4871  10.5014  12.0157  13.0638  14.3974  16.0910
    16.6963  16.7896

          k = 0.0000 0.3645 0.0000 (  5752 PWs)   bands (ev):

   -45.2478 -23.6765 -23.4591 -23.0953 -20.5093 -12.3425  -2.9490  -2.5573
    -2.4311  -1.5654  -0.6798   0.8051   3.6241   5.9630   6.6855   7.0786
     7.6339   8.1952   9.8326  10.7750  11.8997  12.7480  15.0573  15.4869
    16.4802  16.6644

          k = 0.0000 0.4374 0.0000 (  5752 PWs)   bands (ev):

   -45.2370 -23.7281 -23.4751 -23.1174 -20.5052 -12.1786  -3.0457  -2.5212
    -2.4484  -2.0616  -0.6268   0.6710   3.5365   6.1784   6.9156   7.3876
     7.9119   8.7794   9.9809  10.9791  12.0238  12.6993  14.0163  15.3723
    15.9081  15.9587

          k = 0.0000 0.5103 0.0000 (  5740 PWs)   bands (ev):

   -45.2298 -23.7838 -23.4616 -23.1320 -20.5053 -12.0627  -3.1227  -2.5616
    -2.4616  -2.3212  -0.5809   0.5857   3.4935   6.3948   6.9745   7.5189
     8.2314   9.4175  10.0870  11.1341  12.0943  12.6795  13.3386  14.7898
    15.1791  15.5142

          k = 0.0000-0.5832 0.0000 (  5746 PWs)   bands (ev):

   -45.2273 -23.8053 -23.4544 -23.1372 -20.5058 -12.0207  -3.1556  -2.6127
    -2.4666  -2.3702  -0.5639   0.5565   3.4822   6.5115   6.9386   7.5528
     8.3715   9.7786  10.1393  11.2745  11.8241  12.5623  13.4961  14.2980
    14.9915  15.3341

          k = 0.0625 0.0364 0.0000 (  5668 PWs)   bands (ev):

   -45.2909 -23.7793 -23.0297 -22.9925 -20.5899 -12.9152  -3.0656  -2.4300
    -2.3784  -1.0783   1.2739   1.5065   3.8148   5.7885   5.9874   6.1332
     6.8594   6.9901   8.1609   9.1475  11.3892  14.1954  14.4076  15.0278
    15.2685  17.5704

          k = 0.0625 0.1093 0.0000 (  5693 PWs)   bands (ev):

   -45.2861 -23.7617 -23.0835 -23.0108 -20.5746 -12.8569  -2.9999  -2.4879
    -2.3910  -1.0377   0.9057   1.3824   3.8429   5.7510   6.0263   6.2311
     6.8739   7.0753   8.4059   9.4931  11.6785  13.9382  14.2456  15.0327
    15.3100  17.6964

          k = 0.0625 0.1822 0.0000 (  5714 PWs)   bands (ev):

   -45.2772 -23.7301 -23.1878 -23.0344 -20.5509 -12.7457  -2.8906  -2.5908
    -2.4014  -0.9791   0.2827   1.1993   3.8574   5.6645   6.2301   6.2996
     7.0440   7.2630   8.8249   9.9577  12.1806  13.4044  13.9265  15.2189
    15.8826  17.3099

          k = 0.0625 0.2551 0.0000 (  5720 PWs)   bands (ev):

   -45.2656 -23.6927 -23.3140 -23.0629 -20.5279 -12.5932  -2.8127  -2.6617
    -2.4160  -0.9545  -0.3914   0.9876   3.8127   5.6826   6.3431   6.6044
     7.2897   7.5645   9.3125  10.3963  12.2896  13.2312  13.7984  15.7234
    16.6032  16.8979

          k = 0.0625 0.3280 0.0000 (  5746 PWs)   bands (ev):

   -45.2530 -23.6690 -23.4253 -23.0930 -20.5119 -12.4175  -2.8859  -2.5938
    -2.4368  -1.2778  -0.6881   0.7799   3.7205   5.8442   6.4923   7.0097
     7.5104   8.0096   9.7428  10.7571  12.0372  12.8732  14.6597  15.7254
    16.2971  16.6894

          k = 0.0625 0.4009 0.0000 (  5744 PWs)   bands (ev):

   -45.2413 -23.6948 -23.4732 -23.1206 -20.5043 -12.2438  -2.9846  -2.5301
    -2.4628  -1.8143  -0.6555   0.6026   3.6348   6.0845   6.7086   7.3102
     7.7599   8.5962  10.0007  11.0141  12.0170  12.7002  14.5844  15.2206
    15.8745  16.6561

          k = 0.0625 0.4738 0.0000 (  5735 PWs)   bands (ev):

   -45.2323 -23.7534 -23.4667 -23.1416 -20.5025 -12.1023  -3.0671  -2.5534
    -2.4716  -2.1763  -0.6025   0.4746   3.5863   6.3297   6.8893   7.4480
     8.0135   9.3028  10.1357  11.1811  12.1474  12.7542  13.5506  14.8712
    15.3352  15.9635

          k = 0.0625 0.5467 0.0000 (  5736 PWs)   bands (ev):

   -45.2274 -23.7925 -23.4543 -23.1529 -20.5030 -12.0222  -3.1205  -2.6371
    -2.4689  -2.3029  -0.5705   0.4077   3.5698   6.5114   6.9419   7.4905
     8.1903   9.9061  10.2662  11.3128  11.9814  12.6054  13.4040  14.3774
    15.0116  15.3903

          k = 0.1250 0.0729 0.0000 (  5684 PWs)   bands (ev):

   -45.2841 -23.7541 -23.1180 -23.0074 -20.5680 -12.8308  -2.9719  -2.5254
    -2.3807  -1.0233   0.6949   1.3901   3.8416   5.6927   6.1203   6.2281
     6.9437   7.1204   8.5066   9.6190  11.7957  13.7465  14.1850  15.1192
    15.4294  17.6906

          k = 0.1250 0.1458 0.0000 (  5701 PWs)   bands (ev):

   -45.2775 -23.7308 -23.1920 -23.0273 -20.5510 -12.7481  -2.8919  -2.5961
    -2.3929  -0.9815   0.2593   1.2382   3.8479   5.6496   6.2636   6.2911
     7.0417   7.2757   8.8166   9.9527  12.1724  13.3879  13.9108  15.2137
    15.9318  17.3283

          k = 0.1250 0.2187 0.0000 (  5714 PWs)   bands (ev):

   -45.2676 -23.6982 -23.2932 -23.0594 -20.5304 -12.6195  -2.7940  -2.6772
    -2.4160  -0.9443  -0.2803   0.9759   3.8434   5.6061   6.3702   6.6104
     7.1844   7.5425   9.2459  10.3684  12.7419  12.9731  13.5044  15.5211
    16.5869  16.8681

          k = 0.1250 0.2916 0.0000 (  5729 PWs)   bands (ev):

   -45.2560 -23.6688 -23.3955 -23.0983 -20.5129 -12.4594  -2.8208  -2.6369
    -2.4486  -1.0836  -0.6713   0.6789   3.8190   5.6800   6.4774   6.9770
     7.4154   7.9392   9.6929  10.7972  12.5131  12.9840  13.7587  15.5618
    16.3645  16.8269

          k = 0.1250 0.3645 0.0000 (  5730 PWs)   bands (ev):

   -45.2443 -23.6699 -23.4603 -23.1376 -20.5019 -12.2888  -2.9107  -2.5525
    -2.4889  -1.5502  -0.6838   0.4060   3.7885   5.9030   6.5989   7.1928
     7.7136   8.5355  10.0572  11.1924  12.2821  12.7585  14.5688  14.9937
    15.6458  16.6650

          k = 0.1250 0.4374 0.0000 (  5735 PWs)   bands (ev):

   -45.2344 -23.7137 -23.4674 -23.1710 -20.4971 -12.1349  -2.9878  -2.5703
    -2.4847  -1.9475  -0.6328   0.1908   3.7742   6.2222   6.7080   7.3295
     7.8952   9.3163  10.2925  11.4739  12.2585  12.7505  13.9950  14.6167
    15.4513  16.4853

          k = 0.1250 0.5103 0.0000 (  5741 PWs)   bands (ev):

   -45.2277 -23.7588 -23.4540 -23.1935 -20.4961 -12.0265  -3.0407  -2.6667
    -2.4649  -2.1510  -0.5910   0.0531   3.7778   6.5022   6.8164   7.4093
     7.9412  10.0920  10.4909  11.5884  12.2602  12.7576  13.3181  14.3584
    15.0627  15.7821

          k = 0.1250 0.5832 0.0000 (  5734 PWs)   bands (ev):

   -45.2254 -23.7761 -23.4472 -23.2015 -20.4961 -11.9873  -3.0604  -2.7185
    -2.4606  -2.2016  -0.5753   0.0057   3.7825   6.5892   6.9110   7.4079
     7.9482  10.3131  10.8428  11.6790  11.9131  12.5958  13.4398  14.2235
    15.0292  15.2490

          k = 0.1250 0.0000 0.0000 (  5688 PWs)   bands (ev):

   -45.2864 -23.7624 -23.0903 -23.0013 -20.5747 -12.8593  -3.0013  -2.4979
    -2.3776  -1.0402   0.8788   1.4212   3.8377   5.6908   6.0970   6.2292
     6.8805   7.0863   8.3945   9.4841  11.6705  13.8985  14.2327  15.0502
    15.3878  17.6924

          k = 0.1875 0.1093 0.0000 (  5703 PWs)   bands (ev):

   -45.2739 -23.7182 -23.2424 -23.0286 -20.5422 -12.6993  -2.8601  -2.6335
    -2.3856  -0.9691  -0.0296   1.2299   3.8142   5.6728   6.2636   6.3744
     7.2583   7.2965   8.9789  10.0994  12.1695  13.3923  13.8136  15.5081
    16.0875  17.4260

          k = 0.1875 0.1822 0.0000 (  5717 PWs)   bands (ev):

   -45.2663 -23.6946 -23.3187 -23.0513 -20.5280 -12.5995  -2.8161  -2.6666
    -2.4029  -0.9626  -0.4171   1.0511   3.7908   5.6782   6.3431   6.6305
     7.3050   7.5646   9.2960  10.3921  12.2892  13.2084  13.7525  15.6979
    16.6658  16.9181

          k = 0.1875 0.2551 0.0000 (  5725 PWs)   bands (ev):

   -45.2564 -23.6701 -23.3976 -23.0921 -20.5128 -12.4633  -2.8233  -2.6375
    -2.4425  -1.0940  -0.6784   0.7132   3.8063   5.6827   6.4783   6.9830
     7.4268   7.9358   9.6846  10.7979  12.5216  12.9836  13.7102  15.5595
    16.3359  16.8067

          k = 0.1875 0.3280 0.0000 (  5722 PWs)   bands (ev):

   -45.2457 -23.6625 -23.4524 -23.1440 -20.5006 -12.3077  -2.8740  -2.5711
    -2.4955  -1.4309  -0.7014   0.3171   3.8585   5.7749   6.6509   7.0868
     7.7253   8.5177  10.0745  11.2671  12.6288  12.8300  13.9975  14.8380
    15.9500  16.4549

          k = 0.1875 0.4009 0.0000 (  5743 PWs)   bands (ev):

   -45.2358 -23.6858 -23.4646 -23.1964 -20.4928 -12.1553  -2.9295  -2.5860
    -2.4912  -1.7518  -0.6683  -0.0414   3.9295   5.9940   6.7703   7.1421
     7.9097   9.3220  10.4050  11.7230  12.5351  12.8197  14.1090  14.7050
    15.0347  16.0561

          k = 0.1875 0.4738 0.0000 (  5746 PWs)   bands (ev):

   -45.2282 -23.7201 -23.4530 -23.2388 -20.4891 -12.0323  -2.9748  -2.6677
    -2.4574  -1.9627  -0.6388  -0.3008   3.9989   6.3116   6.7614   7.3024
     7.8865  10.1834  10.6475  12.0065  12.4533  12.9546  13.5886  14.2517
    15.1215  15.8552

          k = 0.1875 0.5467 0.0000 (  5737 PWs)   bands (ev):

   -45.2241 -23.7419 -23.4419 -23.2626 -20.4878 -11.9631  -3.0008  -2.7317
    -2.4441  -2.0531  -0.6294  -0.4290   4.0433   6.5674   6.7680   7.4274
     7.7497  10.5150  11.2606  12.0556  12.2821  12.7081  13.4610  14.3184
    14.8931  15.5123

          k = 0.1875-0.0364 0.0000 (  5697 PWs)   bands (ev):

   -45.2779 -23.7318 -23.1929 -23.0227 -20.5509 -12.7519  -2.8935  -2.5991
    -2.3854  -0.9848   0.2616   1.2463   3.8449   5.6179   6.2778   6.3213
     7.0718   7.2583   8.8030   9.9474  12.1677  13.3900  13.9075  15.2240
    15.9580  17.3199

          k = 0.2500 0.1458 0.0000 (  5721 PWs)   bands (ev):

   -45.2618 -23.6838 -23.3719 -23.0532 -20.5210 -12.5353  -2.8556  -2.6373
    -2.3955  -1.0555  -0.6235   1.0553   3.7137   5.7817   6.4092   6.7226
     7.4720   7.6851   9.4597  10.4971  12.0137  13.0367  14.3353  16.0382
    16.6148  16.8887

          k = 0.2500 0.2187 0.0000 (  5726 PWs)   bands (ev):

   -45.2542 -23.6723 -23.4290 -23.0781 -20.5116 -12.4289  -2.8905  -2.5964
    -2.4206  -1.2991  -0.7005   0.8594   3.6913   5.8473   6.4894   7.0342
     7.5371   7.9979   9.7213  10.7600  12.0352  12.8488  14.5789  15.6570
    16.2802  16.7013

          k = 0.2500 0.2916 0.0000 (  5742 PWs)   bands (ev):

   -45.2453 -23.6725 -23.4629 -23.1266 -20.5014 -12.2979  -2.9142  -2.5502
    -2.4813  -1.5667  -0.6915   0.4634   3.7676   5.9069   6.5993   7.2044
     7.7268   8.5286  10.0437  11.2021  12.2854  12.7518  14.5101  14.9348
    15.6026  16.6552

          k = 0.2500 0.3645 0.0000 (  5746 PWs)   bands (ev):

   -45.2363 -23.6869 -23.4660 -23.1909 -20.4924 -12.1604  -2.9308  -2.5801
    -2.4927  -1.7591  -0.6715  -0.0144   3.9202   5.9941   6.7718   7.1463
     7.9134   9.3187  10.3982  11.7322  12.5331  12.8415  14.1026  14.6242
    14.9963  16.1005

          k = 0.2500 0.4374 0.0000 (  5733 PWs)   bands (ev):

   -45.2287 -23.7025 -23.4529 -23.2570 -20.4859 -12.0381  -2.9537  -2.6586
    -2.4538  -1.8591  -0.6978  -0.4210   4.0981   6.1601   6.8127   7.2159
     7.9072  10.1999  10.7083  12.0766  12.6005  13.1951  13.8438  14.3441
    14.8165  15.3930

          k = 0.2500 0.5103 0.0000 (  5736 PWs)   bands (ev):

   -45.2236 -23.7105 -23.4396 -23.3078 -20.4820 -11.9532  -2.9888  -2.6918
    -2.4282  -1.8900  -0.8928  -0.5454   4.2400   6.4027   6.7236   7.3924
     7.7480  10.6102  11.2939  12.0225  12.9200  13.3613  13.5534  14.1226
    14.7977  15.3777

          k = 0.2500 0.5832 0.0000 (  5726 PWs)   bands (ev):

   -45.2218 -23.7123 -23.4343 -23.3271 -20.4808 -11.9228  -3.0073  -2.6955
    -2.4196  -1.8917  -1.0056  -0.5543   4.2941   6.5590   6.6747   7.4338
     7.6605  10.5899  11.9586  12.2188  12.2973  13.2919  13.7466  14.2069
    14.8117  15.4559

          k = 0.2500-0.0729 0.0000 (  5717 PWs)   bands (ev):

   -45.2669 -23.6956 -23.3163 -23.0499 -20.5276 -12.6041  -2.8163  -2.6668
    -2.3987  -0.9641  -0.4036   1.0414   3.7944   5.6632   6.3456   6.6538
     7.3224   7.5494   9.2838  10.3893  12.2959  13.2159  13.7760  15.7123
    16.6207  16.9046

          k = 0.2500 0.0000 0.0000 (  5720 PWs)   bands (ev):

   -45.2686 -23.7002 -23.2921 -23.0529 -20.5299 -12.6279  -2.7963  -2.6793
    -2.4052  -0.9504  -0.2705   0.9862   3.8392   5.5819   6.3824   6.6452
     7.2123   7.5259   9.2225  10.3625  12.7428  12.9958  13.5059  15.5181
    16.5615  16.8722

          k = 0.3125 0.1822 0.0000 (  5745 PWs)   bands (ev):

   -45.2497 -23.6799 -23.4620 -23.0777 -20.5083 -12.3601  -2.9532  -2.5598
    -2.4099  -1.5803  -0.6944   0.8938   3.5934   5.9690   6.6706   7.1149
     7.6651   8.1755   9.8057  10.7798  11.8877  12.7169  14.9475  15.4233
    16.5624  16.6120

          k = 0.3125 0.2551 0.0000 (  5727 PWs)   bands (ev):

   -45.2431 -23.6978 -23.4768 -23.1033 -20.5033 -12.2608  -2.9893  -2.5290
    -2.4455  -1.8300  -0.6696   0.6914   3.6037   6.0910   6.7008   7.3356
     7.7805   8.5803   9.9810  11.0271  12.0004  12.6687  14.4847  15.1749
    15.8669  16.6233

          k = 0.3125 0.3280 0.0000 (  5736 PWs)   bands (ev):

   -45.2359 -23.7159 -23.4708 -23.1569 -20.4960 -12.1495  -2.9917  -2.5564
    -2.4857  -1.9576  -0.6442   0.2599   3.7509   6.2253   6.7047   7.3457
     7.9028   9.3055  10.2781  11.5026  12.2489  12.7306  13.9210  14.6021
    15.3769  16.4518

          k = 0.3125 0.4009 0.0000 (  5741 PWs)   bands (ev):

   -45.2293 -23.7210 -23.4556 -23.2296 -20.4881 -12.0429  -2.9758  -2.6612
    -2.4576  -1.9670  -0.6427  -0.2618   3.9864   6.3069   6.7626   7.3104
     7.8907  10.1688  10.6369  12.0371  12.4707  12.9547  13.5158  14.2547
    15.0477  15.9022

          k = 0.3125 0.4738 0.0000 (  5729 PWs)   bands (ev):

   -45.2242 -23.7104 -23.4409 -23.3039 -20.4814 -11.9588  -2.9875  -2.6900
    -2.4278  -1.8912  -0.8773  -0.5469   4.2369   6.3967   6.7231   7.3962
     7.7513  10.5939  11.2911  12.0346  12.9000  13.3864  13.5285  14.1689
    14.7713  15.3593

          k = 0.3125 0.5467 0.0000 (  5711 PWs)   bands (ev):

   -45.2214 -23.6951 -23.4327 -23.3540 -20.4776 -11.9122  -3.0185  -2.6618
    -2.4057  -1.7433  -1.2706  -0.5651   4.4055   6.5224   6.6427   7.3547
     7.7207  10.5699  11.9543  12.1958  12.9761  13.2094  13.9468  14.1642
    14.9091  15.5342

          k = 0.3125-0.1093 0.0000 (  5725 PWs)   bands (ev):

   -45.2548 -23.6721 -23.4262 -23.0785 -20.5109 -12.4338  -2.8884  -2.5970
    -2.4177  -1.2846  -0.6995   0.8422   3.7002   5.8449   6.4921   7.0376
     7.5378   7.9918   9.7116  10.7580  12.0450  12.8547  14.6234  15.6640
    16.2768  16.6780

          k = 0.3125-0.0364 0.0000 (  5718 PWs)   bands (ev):

   -45.2575 -23.6711 -23.3930 -23.0903 -20.5118 -12.4729  -2.8206  -2.6391
    -2.4354  -1.0791  -0.6707   0.6966   3.8144   5.6707   6.4912   6.9953
     7.4327   7.9241   9.6638  10.7931  12.5448  12.9960  13.7568  15.5415
    16.3067  16.7940

          k = 0.3750 0.2187 0.0000 (  5733 PWs)   bands (ev):

   -45.2394 -23.7294 -23.4796 -23.0983 -20.5035 -12.2013  -3.0503  -2.5195
    -2.4252  -2.0690  -0.6446   0.7657   3.5057   6.1876   6.9093   7.4144
     7.9287   8.7527   9.9591  10.9856  11.9943  12.6553  13.9276  15.3094
    15.8125  16.0782

          k = 0.3750 0.2916 0.0000 (  5740 PWs)   bands (ev):

   -45.2346 -23.7546 -23.4715 -23.1229 -20.5008 -12.1245  -3.0729  -2.5417
    -2.4612  -2.1811  -0.6199   0.5672   3.5560   6.3394   6.8790   7.4778
     8.0153   9.2833  10.1210  11.1946  12.1104  12.7048  13.4782  14.8520
    15.2761  15.9897

          k = 0.3750 0.3645 0.0000 (  5726 PWs)   bands (ev):

   -45.2297 -23.7593 -23.4584 -23.1780 -20.4943 -12.0462  -3.0448  -2.6544
    -2.4626  -2.1493  -0.6057   0.1248   3.7560   6.5115   6.8026   7.4321
     7.9386  10.0639  10.4859  11.6303  12.2163  12.7085  13.2821  14.3441
    15.0000  15.7702

          k = 0.3750 0.4374 0.0000 (  5729 PWs)   bands (ev):

   -45.2256 -23.7410 -23.4455 -23.2521 -20.4861 -11.9788  -3.0003  -2.7242
    -2.4427  -2.0489  -0.6288  -0.3959   4.0329   6.5696   6.7537   7.4455
     7.7481  10.4765  11.2550  12.0737  12.2635  12.7184  13.4305  14.2970
    14.8677  15.4760

          k = 0.3750 0.5103 0.0000 (  5723 PWs)   bands (ev):

   -45.2228 -23.7100 -23.4366 -23.3224 -20.4795 -11.9332  -3.0042  -2.6907
    -2.4183  -1.8839  -0.9880  -0.5619   4.2943   6.5629   6.6565   7.4375
     7.6675  10.5574  11.9707  12.1803  12.2496  13.3806  13.7645  14.2080
    14.7890  15.4270

          k = 0.3750 0.5832 0.0000 (  5726 PWs)   bands (ev):

   -45.2219 -23.6927 -23.4336 -23.3537 -20.4769 -11.9171  -3.0169  -2.6584
    -2.4048  -1.7267  -1.2783  -0.5696   4.4096   6.5292   6.6297   7.3515
     7.7252  10.5535  11.9669  12.1127  13.0263  13.2070  14.0367  14.1184
    14.8931  15.5251

          k = 0.3750-0.1458 0.0000 (  5749 PWs)   bands (ev):

   -45.2435 -23.6956 -23.4761 -23.1045 -20.5025 -12.2653  -2.9866  -2.5299
    -2.4430  -1.8143  -0.6714   0.6740   3.6139   6.0942   6.7091   7.3277
     7.7754   8.5701   9.9713  11.0266  12.0050  12.6692  14.4963  15.2039
    15.8371  16.6520

          k = 0.3750-0.0729 0.0000 (  5732 PWs)   bands (ev):

   -45.2463 -23.6699 -23.4600 -23.1277 -20.5000 -12.3074  -2.9095  -2.5523
    -2.4746  -1.5360  -0.6946   0.4356   3.7830   5.9052   6.6064   7.2108
     7.7131   8.5134  10.0241  11.1968  12.3046  12.7599  14.5612  14.9447
    15.6194  16.6289

          k = 0.3750 0.0000 0.0000 (  5730 PWs)   bands (ev):

   -45.2472 -23.6611 -23.4491 -23.1413 -20.4987 -12.3220  -2.8697  -2.5718
    -2.4860  -1.3994  -0.7067   0.3035   3.8684   5.7691   6.6626   7.0990
     7.7149   8.4992  10.0457  11.2607  12.6360  12.8879  14.0226  14.8168
    15.9446  16.4085

          k = 0.4375 0.2551 0.0000 (  5730 PWs)   bands (ev):

   -45.2325 -23.7836 -23.4673 -23.1121 -20.5030 -12.0892  -3.1287  -2.5537
    -2.4370  -2.3250  -0.6012   0.6842   3.4625   6.4025   6.9801   7.5484
     8.2237   9.3841  10.0698  11.1319  12.0367  12.6120  13.2924  14.7351
    15.0963  15.6439

          k = 0.4375 0.3280 0.0000 (  5726 PWs)   bands (ev):

   -45.2300 -23.7921 -23.4600 -23.1338 -20.5007 -12.0480  -3.1268  -2.6238
    -2.4584  -2.2980  -0.5901   0.4995   3.5415   6.5196   6.9432   7.5194
     8.1753   9.8707  10.2660  11.3154  11.9023  12.5514  13.3754  14.3317
    14.9427  15.4731

          k = 0.4375 0.4009 0.0000 (  5728 PWs)   bands (ev):

   -45.2277 -23.7747 -23.4523 -23.1861 -20.4937 -12.0105  -3.0636  -2.7046
    -2.4568  -2.1920  -0.5918   0.0724   3.7645   6.5959   6.9078   7.4304
     7.9357  10.2645  10.8406  11.7164  11.8395  12.5656  13.4173  14.1809
    14.9858  15.2655

          k = 0.4375 0.4738 0.0000 (  5731 PWs)   bands (ev):

   -45.2259 -23.7385 -23.4459 -23.2531 -20.4855 -11.9821  -2.9989  -2.7199
    -2.4421  -2.0397  -0.6289  -0.4073   4.0385   6.5737   6.7536   7.4547
     7.7327  10.4669  11.1929  12.0852  12.2988  12.7220  13.4253  14.3010
    14.8807  15.4940

          k = 0.4375 0.5467 0.0000 (  5727 PWs)   bands (ev):

   -45.2249 -23.7051 -23.4419 -23.3050 -20.4801 -11.9669  -2.9851  -2.6816
    -2.4265  -1.8655  -0.8894  -0.5584   4.2473   6.4035   6.7097   7.4129
     7.7325  10.5735  11.2078  12.0492  12.8905  13.4144  13.5900  14.1408
    14.7870  15.3848

          k = 0.4375-0.1822 0.0000 (  5733 PWs)   bands (ev):

   -45.2349 -23.7523 -23.4717 -23.1239 -20.5002 -12.1277  -3.0702  -2.5416
    -2.4600  -2.1709  -0.6213   0.5547   3.5637   6.3385   6.8984   7.4665
     8.0126   9.2631  10.1083  11.1966  12.1133  12.6993  13.4874  14.8714
    15.2708  15.9940

          k = 0.4375-0.1093 0.0000 (  5742 PWs)   bands (ev):

   -45.2367 -23.7109 -23.4707 -23.1590 -20.4947 -12.1572  -2.9869  -2.5543
    -2.4828  -1.9325  -0.6473   0.2340   3.7660   6.2302   6.7100   7.3536
     7.8821   9.2785  10.2523  11.5011  12.2578  12.7253  13.9427  14.6147
    15.4079  16.4775

          k = 0.4375-0.0364 0.0000 (  5748 PWs)   bands (ev):

   -45.2376 -23.6809 -23.4654 -23.1919 -20.4904 -12.1733  -2.9254  -2.5737
    -2.4902  -1.7204  -0.6769  -0.0433   3.9372   5.9935   6.7663   7.1714
     7.8876   9.2879  10.3626  11.7226  12.5290  12.8826  14.1000  14.6878
    15.0291  16.0750

          k =-0.5000-0.2916 0.0000 (  5734 PWs)   bands (ev):

   -45.2301 -23.8045 -23.4605 -23.1168 -20.5034 -12.0486  -3.1624  -2.6023
    -2.4415  -2.3727  -0.5850   0.6563   3.4510   6.5159   6.9519   7.5838
     8.3528   9.7359  10.1371  11.2627  11.7414  12.5055  13.4582  14.2476
    14.9105  15.4701

          k =-0.5000-0.2187 0.0000 (  5724 PWs)   bands (ev):

   -45.2301 -23.7912 -23.4602 -23.1342 -20.5004 -12.0492  -3.1256  -2.6232
    -2.4581  -2.2951  -0.5905   0.4949   3.5443   6.5157   6.9573   7.5127
     8.1761   9.8548  10.2593  11.3146  11.9148  12.5486  13.3678  14.3441
    14.9574  15.4616

          k =-0.5000-0.1458 0.0000 (  5735 PWs)   bands (ev):

   -45.2301 -23.7559 -23.4589 -23.1795 -20.4935 -12.0506  -3.0415  -2.6506
    -2.4617  -2.1375  -0.6073   0.1095   3.7649   6.5073   6.8230   7.4310
     7.9250  10.0397  10.4495  11.6315  12.2391  12.7026  13.2832  14.3619
    15.0210  15.7740

          k =-0.5000-0.0729 0.0000 (  5749 PWs)   bands (ev):

   -45.2301 -23.7148 -23.4563 -23.2317 -20.4865 -12.0520  -2.9718  -2.6528
    -2.4562  -1.9395  -0.6452  -0.2889   4.0010   6.3140   6.7527   7.3358
     7.8611  10.1409  10.5797  12.0330  12.4659  12.9743  13.5503  14.2591
    15.0931  15.9072

          k =-0.5000-0.0000 0.0000 (  5756 PWs)   bands (ev):

   -45.2301 -23.6954 -23.4543 -23.2567 -20.4837 -12.0526  -2.9495  -2.6466
    -2.4524  -1.8227  -0.7021  -0.4437   4.1120   6.1602   6.7948   7.2530
     7.8780  10.1651  10.6405  12.0843  12.5680  13.2711  13.8592  14.3603
    14.8298  15.4130

     highest occupied, lowest unoccupied level (ev):     4.4096    5.5819

!    total energy              =    -571.23433633 Ry
     total all-electron energy =    -12610.611748 Ry
     estimated scf accuracy    <          6.3E-11 Ry

     The total energy is the sum of the following terms:
     one-electron contribution =    -279.15476468 Ry
     hartree contribution      =     148.18041813 Ry
     xc contribution           =     -36.36470749 Ry
     ewald contribution        =      -7.03903952 Ry
     one-center paw contrib.   =    -396.85624278 Ry

     convergence has been achieved in   5 iterations

     negative rho (up, down):  2.761E-05 0.000E+00

     Forces acting on atoms (cartesian axes, Ry/au):

     atom    1 type  1   force =     0.00000000   -0.00014278   -0.00000690
     atom    2 type  2   force =     0.00000000   -0.00015160    0.00008278
     atom    3 type  3   force =     0.00000000    0.00029438   -0.00007588
     The non-local contrib.  to forces
     atom    1 type  1   force =     0.00000000   -0.00193484   -0.02421720
     atom    2 type  2   force =     0.00000000   -0.01390941   -1.01409931
     atom    3 type  3   force =     0.00000000   -0.00065769    0.21125598
     The ionic contribution  to forces
     atom    1 type  1   force =    -0.00000001   -0.10480316   -0.63929871
     atom    2 type  2   force =     0.00000001    0.07543503   24.90014839
     atom    3 type  3   force =     0.00000000    0.02936812  -24.26084968
     The local contribution  to forces
     atom    1 type  1   force =    -0.00000000    0.10651688    0.65945560
     atom    2 type  2   force =     0.00000027   -0.06172042  -23.88925480
     atom    3 type  3   force =    -0.00000000   -0.02832796   24.05201414
     The core correction contribution to forces
     atom    1 type  1   force =     0.00000000    0.00008049    0.00405373
     atom    2 type  2   force =     0.00000000    0.00004410    0.00328925
     atom    3 type  3   force =    -0.00000000   -0.00008647   -0.00250545
     The Hubbard contrib.    to forces
     atom    1 type  1   force =     0.00000000    0.00000000    0.00000000
     atom    2 type  2   force =     0.00000000    0.00000000    0.00000000
     atom    3 type  3   force =     0.00000000    0.00000000    0.00000000
     The SCF correction term to forces
     atom    1 type  1   force =    -0.00000000   -0.00000174   -0.00000243
     atom    2 type  2   force =     0.00000000   -0.00000049   -0.00000287
     atom    3 type  3   force =     0.00000000   -0.00000120    0.00000699

     Total force =     0.000378     Total SCF correction =     0.000008
     Energy error            =      3.5E-07 Ry
     Gradient error          =      2.9E-04 Ry/Bohr

     number of scf cycles    =   7
     number of bfgs steps    =   6

     energy             old  =    -571.2343359877 Ry
     energy             new  =    -571.2343363350 Ry

     CASE: energy            _new < energy            _old

     new trust radius        =       0.0010392548 bohr
     new conv_thr            =            1.0E-10 Ry


ATOMIC_POSITIONS (angstrom)
Zr            0.0000000000        0.0116219364       10.1027064728
F            -0.0000000020        1.9245742896       11.4160226021
Br           -0.0000000020        1.9256115372        8.1994496382



     Writing config-only to output data dir ./tmp/ZrFBr.save/
     NEW-OLD atomic charge density approx. for the potential

     Check: negative core charge=   -0.000002

     negative rho (up, down):  2.758E-05 0.000E+00

     total cpu time spent up to now is       80.5 secs

     Self-consistent Calculation

     iteration #  1     ecut=    65.00 Ry     beta= 0.70
     Davidson diagonalization with overlap
     ethr =  1.00E-06,  avg # of iterations =  2.0

     Threshold (ethr) on eigenvalues was too large:
     Diagonalizing with lowered threshold

     Davidson diagonalization with overlap
     ethr =  2.93E-10,  avg # of iterations =  4.0

     negative rho (up, down):  2.758E-05 0.000E+00

     total cpu time spent up to now is       83.6 secs

     total energy              =    -571.23433665 Ry
     estimated scf accuracy    <       0.00000008 Ry

     iteration #  2     ecut=    65.00 Ry     beta= 0.70
     Davidson diagonalization with overlap
     ethr =  3.02E-10,  avg # of iterations =  2.0

     negative rho (up, down):  2.761E-05 0.000E+00

     total cpu time spent up to now is       85.0 secs

     total energy              =    -571.23433663 Ry
     estimated scf accuracy    <       0.00000019 Ry

     iteration #  3     ecut=    65.00 Ry     beta= 0.70
     Davidson diagonalization with overlap
     ethr =  3.02E-10,  avg # of iterations =  2.0

     negative rho (up, down):  2.762E-05 0.000E+00

     total cpu time spent up to now is       86.4 secs

     total energy              =    -571.23433667 Ry
     estimated scf accuracy    <       0.00000001 Ry

     iteration #  4     ecut=    65.00 Ry     beta= 0.70
     Davidson diagonalization with overlap
     ethr =  3.85E-11,  avg # of iterations =  2.0

     negative rho (up, down):  2.762E-05 0.000E+00

     total cpu time spent up to now is       87.7 secs

     total energy              =    -571.23433667 Ry
     estimated scf accuracy    <          1.9E-09 Ry

     iteration #  5     ecut=    65.00 Ry     beta= 0.70
     Davidson diagonalization with overlap
     ethr =  7.42E-12,  avg # of iterations =  2.0

     negative rho (up, down):  2.762E-05 0.000E+00

     total cpu time spent up to now is       89.0 secs

     total energy              =    -571.23433668 Ry
     estimated scf accuracy    <          1.4E-10 Ry

     iteration #  6     ecut=    65.00 Ry     beta= 0.70
     Davidson diagonalization with overlap
     ethr =  5.42E-13,  avg # of iterations =  2.0

     negative rho (up, down):  2.762E-05 0.000E+00

     total cpu time spent up to now is       90.4 secs

     End of self-consistent calculation

          k = 0.0000 0.0000 0.0000 (  5637 PWs)   bands (ev):

   -45.2941 -23.7887 -23.0007 -22.9855 -20.5986 -12.9439  -3.1001  -2.3951
    -2.3743  -1.1014   1.4913   1.5642   3.7949   5.8360   5.9589   6.0385
     6.8972   6.9479   8.0316   8.9279  11.2478  14.1308  14.7484  14.9333
    15.3934  17.3462

          k = 0.0000 0.0729 0.0000 (  5682 PWs)   bands (ev):

   -45.2916 -23.7796 -23.0186 -23.0060 -20.5898 -12.9140  -3.0646  -2.4137
    -2.3954  -1.0775   1.3291   1.4475   3.8161   5.8830   5.8857   6.1342
     6.8921   6.9490   8.1657   9.1532  11.3929  14.1960  14.5096  14.8880
    15.2805  17.6117

          k = 0.0000 0.1458 0.0000 (  5722 PWs)   bands (ev):

   -45.2845 -23.7537 -23.1096 -23.0211 -20.5678 -12.8272  -2.9696  -2.5129
    -2.3971  -1.0201   0.7396   1.3275   3.8509   5.7575   6.0326   6.2349
     6.9606   7.0836   8.5201   9.6299  11.8086  13.7844  14.2142  15.1375
    15.3026  17.7345

          k = 0.0000 0.2187 0.0000 (  5720 PWs)   bands (ev):

   -45.2739 -23.7167 -23.2366 -23.0436 -20.5421 -12.6918  -2.8564  -2.6243
    -2.4028  -0.9622   0.0047   1.1590   3.8348   5.7027   6.2812   6.2966
     7.2580   7.2747   9.0005  10.1090  12.1815  13.4199  13.8503  15.5359
    15.9764  17.4121

          k = 0.0000 0.2916 0.0000 (  5728 PWs)   bands (ev):

   -45.2613 -23.6810 -23.3685 -23.0699 -20.5213 -12.5228  -2.8506  -2.6319
    -2.4143  -1.0387  -0.6049   0.9753   3.7419   5.7859   6.4272   6.6648
     7.4393   7.6984   9.4863  10.5010  12.0157  13.0638  14.3977  16.0910
    16.6961  16.7896

          k = 0.0000 0.3645 0.0000 (  5752 PWs)   bands (ev):

   -45.2486 -23.6770 -23.4597 -23.0961 -20.5093 -12.3421  -2.9487  -2.5571
    -2.4307  -1.5647  -0.6798   0.8057   3.6237   5.9615   6.6851   7.0780
     7.6329   8.1944   9.8315  10.7745  11.8998  12.7483  15.0566  15.4880
    16.4799  16.6638

          k = 0.0000 0.4374 0.0000 (  5752 PWs)   bands (ev):

   -45.2379 -23.7286 -23.4758 -23.1181 -20.5052 -12.1781  -3.0454  -2.5209
    -2.4480  -2.0612  -0.6266   0.6715   3.5361   6.1767   6.9150   7.3869
     7.9111   8.7783   9.9803  10.9786  12.0239  12.6996  14.0162  15.3726
    15.9075  15.9585

          k = 0.0000 0.5103 0.0000 (  5740 PWs)   bands (ev):

   -45.2307 -23.7843 -23.4623 -23.1328 -20.5053 -12.0622  -3.1222  -2.5614
    -2.4612  -2.3209  -0.5806   0.5862   3.4932   6.3929   6.9737   7.5179
     8.2307   9.4160  10.0869  11.1336  12.0942  12.6796  13.3386  14.7897
    15.1789  15.5141

          k = 0.0000-0.5832 0.0000 (  5746 PWs)   bands (ev):

   -45.2282 -23.8058 -23.4551 -23.1379 -20.5058 -12.0201  -3.1552  -2.6125
    -2.4662  -2.3701  -0.5636   0.5570   3.4819   6.5093   6.9379   7.5517
     8.3708   9.7770  10.1394  11.2742  11.8241  12.5625  13.4961  14.2977
    14.9915  15.3341

          k = 0.0625 0.0364 0.0000 (  5668 PWs)   bands (ev):

   -45.2917 -23.7798 -23.0304 -22.9932 -20.5899 -12.9149  -3.0652  -2.4296
    -2.3781  -1.0784   1.2746   1.5078   3.8137   5.7874   5.9866   6.1330
     6.8593   6.9894   8.1611   9.1476  11.3893  14.1960  14.4072  15.0276
    15.2663  17.5701

          k = 0.0625 0.1093 0.0000 (  5693 PWs)   bands (ev):

   -45.2869 -23.7623 -23.0843 -23.0116 -20.5745 -12.8565  -2.9995  -2.4876
    -2.3906  -1.0379   0.9067   1.3832   3.8419   5.7500   6.0253   6.2308
     6.8736   7.0749   8.4059   9.4931  11.6786  13.9377  14.2458  15.0318
    15.3093  17.6961

          k = 0.0625 0.1822 0.0000 (  5714 PWs)   bands (ev):

   -45.2780 -23.7306 -23.1884 -23.0352 -20.5509 -12.7453  -2.8903  -2.5905
    -2.4010  -0.9791   0.2835   1.1999   3.8565   5.6633   6.2290   6.2993
     7.0438   7.2625   8.8246   9.9576  12.1807  13.4040  13.9261  15.2190
    15.8823  17.3093

          k = 0.0625 0.2551 0.0000 (  5720 PWs)   bands (ev):

   -45.2664 -23.6932 -23.3146 -23.0636 -20.5279 -12.5927  -2.8123  -2.6614
    -2.4155  -0.9541  -0.3910   0.9882   3.8121   5.6813   6.3425   6.6039
     7.2892   7.5640   9.3119  10.3960  12.2894  13.2310  13.7985  15.7236
    16.6029  16.8974

          k = 0.0625 0.3280 0.0000 (  5746 PWs)   bands (ev):

   -45.2538 -23.6696 -23.4259 -23.0937 -20.5120 -12.4170  -2.8856  -2.5935
    -2.4364  -1.2770  -0.6882   0.7804   3.7200   5.8427   6.4917   7.0092
     7.5095   8.0090   9.7418  10.7567  12.0372  12.8733  14.6599  15.7251
    16.2970  16.6895

          k = 0.0625 0.4009 0.0000 (  5744 PWs)   bands (ev):

   -45.2421 -23.6953 -23.4739 -23.1213 -20.5043 -12.2433  -2.9843  -2.5298
    -2.4624  -1.8137  -0.6555   0.6031   3.6344   6.0829   6.7080   7.3095
     7.7589   8.5954   9.9997  11.0137  12.0171  12.7005  14.5841  15.2210
    15.8743  16.6557

          k = 0.0625 0.4738 0.0000 (  5735 PWs)   bands (ev):

   -45.2331 -23.7538 -23.4674 -23.1423 -20.5025 -12.1018  -3.0668  -2.5530
    -2.4713  -2.1760  -0.6023   0.4751   3.5859   6.3279   6.8886   7.4471
     8.0125   9.3018  10.1353  11.1806  12.1473  12.7544  13.5505  14.8710
    15.3351  15.9633

          k = 0.0625 0.5467 0.0000 (  5736 PWs)   bands (ev):

   -45.2283 -23.7929 -23.4550 -23.1536 -20.5030 -12.0217  -3.1201  -2.6368
    -2.4686  -2.3027  -0.5702   0.4082   3.5694   6.5093   6.9413   7.4895
     8.1894   9.9047  10.2663  11.3123  11.9813  12.6055  13.4041  14.3771
    15.0115  15.3903

          k = 0.1250 0.0729 0.0000 (  5684 PWs)   bands (ev):

   -45.2849 -23.7547 -23.1187 -23.0082 -20.5680 -12.8305  -2.9715  -2.5250
    -2.3804  -1.0234   0.6956   1.3913   3.8406   5.6916   6.1194   6.2279
     6.9434   7.1197   8.5067   9.6191  11.7957  13.7461  14.1849  15.1180
    15.4293  17.6901

          k = 0.1250 0.1458 0.0000 (  5701 PWs)   bands (ev):

   -45.2783 -23.7314 -23.1927 -23.0281 -20.5510 -12.7478  -2.8916  -2.5957
    -2.3925  -0.9816   0.2601   1.2392   3.8470   5.6485   6.2625   6.2909
     7.0415   7.2751   8.8164   9.9528  12.1724  13.3875  13.9103  15.2137
    15.9314  17.3279

          k = 0.1250 0.2187 0.0000 (  5714 PWs)   bands (ev):

   -45.2685 -23.6988 -23.2939 -23.0602 -20.5304 -12.6191  -2.7937  -2.6770
    -2.4156  -0.9441  -0.2797   0.9766   3.8427   5.6049   6.3693   6.6100
     7.1841   7.5419   9.2454  10.3683  12.7419  12.9728  13.5040  15.5215
    16.5865  16.8676

          k = 0.1250 0.2916 0.0000 (  5729 PWs)   bands (ev):

   -45.2569 -23.6694 -23.3961 -23.0991 -20.5129 -12.4589  -2.8205  -2.6366
    -2.4483  -1.0828  -0.6714   0.6795   3.8185   5.6787   6.4765   6.9767
     7.4147   7.9386   9.6921  10.7971  12.5128  12.9841  13.7587  15.5615
    16.3644  16.8268

          k = 0.1250 0.3645 0.0000 (  5730 PWs)   bands (ev):

   -45.2452 -23.6705 -23.4609 -23.1383 -20.5019 -12.2884  -2.9105  -2.5522
    -2.4886  -1.5496  -0.6838   0.4065   3.7880   5.9016   6.5980   7.1922
     7.7127   8.5349  10.0561  11.1922  12.2821  12.7587  14.5689  14.9930
    15.6458  16.6650

          k = 0.1250 0.4374 0.0000 (  5735 PWs)   bands (ev):

   -45.2352 -23.7142 -23.4681 -23.1717 -20.4971 -12.1344  -2.9875  -2.5699
    -2.4845  -1.9471  -0.6327   0.1913   3.7738   6.2207   6.7072   7.3287
     7.8941   9.3158  10.2916  11.4737  12.2584  12.7508  13.9948  14.6163
    15.4514  16.4850

          k = 0.1250 0.5103 0.0000 (  5741 PWs)   bands (ev):

   -45.2286 -23.7592 -23.4547 -23.1942 -20.4961 -12.0260  -3.0404  -2.6662
    -2.4646  -2.1508  -0.5908   0.0536   3.7774   6.5003   6.8158   7.4083
     7.9399  10.0913  10.4906  11.5882  12.2599  12.7576  13.3182  14.3579
    15.0626  15.7820

          k = 0.1250 0.5832 0.0000 (  5734 PWs)   bands (ev):

   -45.2262 -23.7766 -23.4480 -23.2022 -20.4961 -11.9867  -3.0601  -2.7180
    -2.4604  -2.2015  -0.5751   0.0062   3.7821   6.5871   6.9106   7.4068
     7.9470  10.3125  10.8426  11.6786  11.9132  12.5956  13.4402  14.2228
    15.0288  15.2492

          k = 0.1250 0.0000 0.0000 (  5688 PWs)   bands (ev):

   -45.2872 -23.7630 -23.0910 -23.0020 -20.5747 -12.8589  -3.0009  -2.4975
    -2.3773  -1.0404   0.8794   1.4226   3.8365   5.6897   6.0963   6.2290
     6.8803   7.0854   8.3946   9.4843  11.6705  13.8980  14.2329  15.0487
    15.3876  17.6916

          k = 0.1875 0.1093 0.0000 (  5703 PWs)   bands (ev):

   -45.2747 -23.7188 -23.2431 -23.0293 -20.5422 -12.6989  -2.8597  -2.6332
    -2.3853  -0.9692  -0.0290   1.2311   3.8133   5.6717   6.2631   6.3737
     7.2581   7.2956   8.9788  10.0996  12.1692  13.3918  13.8133  15.5079
    16.0874  17.4252

          k = 0.1875 0.1822 0.0000 (  5717 PWs)   bands (ev):

   -45.2672 -23.6952 -23.3194 -23.0520 -20.5280 -12.5991  -2.8157  -2.6663
    -2.4025  -0.9624  -0.4166   1.0521   3.7902   5.6771   6.3424   6.6299
     7.3046   7.5639   9.2956  10.3922  12.2889  13.2074  13.7527  15.6983
    16.6657  16.9175

          k = 0.1875 0.2551 0.0000 (  5725 PWs)   bands (ev):

   -45.2573 -23.6707 -23.3982 -23.0929 -20.5128 -12.4629  -2.8229  -2.6372
    -2.4422  -1.0933  -0.6784   0.7140   3.8058   5.6815   6.4773   6.9826
     7.4262   7.9351   9.6840  10.7980  12.5215  12.9828  13.7104  15.5594
    16.3360  16.8065

          k = 0.1875 0.3280 0.0000 (  5722 PWs)   bands (ev):

   -45.2466 -23.6630 -23.4530 -23.1447 -20.5006 -12.3072  -2.8737  -2.5708
    -2.4951  -1.4302  -0.7015   0.3176   3.8581   5.7736   6.6498   7.0862
     7.7245   8.5173  10.0735  11.2671  12.6286  12.8300  13.9975  14.8374
    15.9499  16.4550

          k = 0.1875 0.4009 0.0000 (  5743 PWs)   bands (ev):

   -45.2367 -23.6863 -23.4653 -23.1971 -20.4928 -12.1547  -2.9292  -2.5856
    -2.4910  -1.7513  -0.6682  -0.0409   3.9291   5.9927   6.7691   7.1414
     7.9087   9.3217  10.4041  11.7231  12.5348  12.8198  14.1084  14.7047
    15.0349  16.0561

          k = 0.1875 0.4738 0.0000 (  5746 PWs)   bands (ev):

   -45.2290 -23.7206 -23.4537 -23.2395 -20.4891 -12.0317  -2.9745  -2.6672
    -2.4571  -1.9624  -0.6386  -0.3004   3.9985   6.3103   6.7602   7.3016
     7.8852  10.1833  10.6468  12.0068  12.4527  12.9546  13.5885  14.2512
    15.1216  15.8552

          k = 0.1875 0.5467 0.0000 (  5737 PWs)   bands (ev):

   -45.2249 -23.7423 -23.4427 -23.2633 -20.4878 -11.9626  -3.0006  -2.7311
    -2.4439  -2.0529  -0.6292  -0.4285   4.0428   6.5657   6.7674   7.4264
     7.7482  10.5148  11.2602  12.0559  12.2815  12.7077  13.4613  14.3177
    14.8930  15.5123

          k = 0.1875-0.0364 0.0000 (  5697 PWs)   bands (ev):

   -45.2788 -23.7324 -23.1935 -23.0234 -20.5509 -12.7515  -2.8931  -2.5987
    -2.3851  -0.9850   0.2622   1.2476   3.8440   5.6169   6.2774   6.3206
     7.0712   7.2576   8.8030   9.9477  12.1676  13.3896  13.9067  15.2235
    15.9581  17.3191

          k = 0.2500 0.1458 0.0000 (  5721 PWs)   bands (ev):

   -45.2627 -23.6844 -23.3725 -23.0540 -20.5210 -12.5348  -2.8552  -2.6370
    -2.3952  -1.0551  -0.6234   1.0564   3.7130   5.7808   6.4085   6.7218
     7.4712   7.6847   9.4593  10.4973  12.0134  13.0356  14.3357  16.0380
    16.6147  16.8888

          k = 0.2500 0.2187 0.0000 (  5726 PWs)   bands (ev):

   -45.2551 -23.6728 -23.4296 -23.0788 -20.5116 -12.4284  -2.8902  -2.5961
    -2.4203  -1.2985  -0.7006   0.8603   3.6907   5.8463   6.4885   7.0337
     7.5364   7.9973   9.7207  10.7601  12.0351  12.8477  14.5791  15.6568
    16.2803  16.7010

          k = 0.2500 0.2916 0.0000 (  5742 PWs)   bands (ev):

   -45.2462 -23.6730 -23.4636 -23.1273 -20.5015 -12.2974  -2.9139  -2.5499
    -2.4810  -1.5661  -0.6915   0.4641   3.7671   5.9059   6.5983   7.2037
     7.7260   8.5281  10.0430  11.2022  12.2854  12.7509  14.5100  14.9345
    15.6025  16.6550

          k = 0.2500 0.3645 0.0000 (  5746 PWs)   bands (ev):

   -45.2372 -23.6874 -23.4667 -23.1916 -20.4925 -12.1599  -2.9306  -2.5798
    -2.4924  -1.7586  -0.6714  -0.0139   3.9198   5.9930   6.7707   7.1455
     7.9124   9.3184  10.3974  11.7323  12.5330  12.8411  14.1019  14.6242
    14.9962  16.1006

          k = 0.2500 0.4374 0.0000 (  5733 PWs)   bands (ev):

   -45.2296 -23.7030 -23.4536 -23.2577 -20.4859 -12.0376  -2.9534  -2.6582
    -2.4535  -1.8586  -0.6975  -0.4207   4.0977   6.1591   6.8115   7.2150
     7.9060  10.1999  10.7076  12.0767  12.6002  13.1947  13.8432  14.3441
    14.8164  15.3933

          k = 0.2500 0.5103 0.0000 (  5736 PWs)   bands (ev):

   -45.2245 -23.7110 -23.4403 -23.3085 -20.4821 -11.9527  -2.9885  -2.6913
    -2.4279  -1.8897  -0.8924  -0.5452   4.2396   6.4016   6.7225   7.3915
     7.7464  10.6101  11.2936  12.0222  12.9199  13.3608  13.5534  14.1222
    14.7974  15.3781

          k = 0.2500 0.5832 0.0000 (  5726 PWs)   bands (ev):

   -45.2227 -23.7127 -23.4350 -23.3278 -20.4808 -11.9222  -3.0070  -2.6950
    -2.4193  -1.8914  -1.0052  -0.5540   4.2936   6.5575   6.6741   7.4328
     7.6587  10.5898  11.9580  12.2190  12.2971  13.2915  13.7468  14.2061
    14.8117  15.4549

          k = 0.2500-0.0729 0.0000 (  5717 PWs)   bands (ev):

   -45.2677 -23.6961 -23.3170 -23.0506 -20.5276 -12.6037  -2.8159  -2.6665
    -2.3984  -0.9641  -0.4031   1.0426   3.7936   5.6623   6.3453   6.6527
     7.3214   7.5491   9.2836  10.3896  12.2955  13.2148  13.7761  15.7120
    16.6208  16.9042

          k = 0.2500 0.0000 0.0000 (  5720 PWs)   bands (ev):

   -45.2695 -23.7008 -23.2927 -23.0537 -20.5300 -12.6275  -2.7959  -2.6790
    -2.4049  -0.9505  -0.2700   0.9875   3.8384   5.5809   6.3823   6.6440
     7.2113   7.5255   9.2224  10.3628  12.7424  12.9954  13.5051  15.5179
    16.5615  16.8721

          k = 0.3125 0.1822 0.0000 (  5745 PWs)   bands (ev):

   -45.2506 -23.6804 -23.4627 -23.0785 -20.5084 -12.3596  -2.9529  -2.5595
    -2.4096  -1.5797  -0.6946   0.8949   3.5928   5.9682   6.6698   7.1141
     7.6642   8.1750   9.8050  10.7801  11.8874  12.7158  14.9479  15.4231
    16.5620  16.6113

          k = 0.3125 0.2551 0.0000 (  5727 PWs)   bands (ev):

   -45.2439 -23.6983 -23.4775 -23.1040 -20.5033 -12.2603  -2.9890  -2.5288
    -2.4452  -1.8294  -0.6696   0.6923   3.6031   6.0903   6.6997   7.3351
     7.7795   8.5797   9.9805  11.0271  12.0002  12.6678  14.4846  15.1748
    15.8664  16.6227

          k = 0.3125 0.3280 0.0000 (  5736 PWs)   bands (ev):

   -45.2368 -23.7164 -23.4715 -23.1577 -20.4961 -12.1490  -2.9914  -2.5561
    -2.4854  -1.9571  -0.6442   0.2607   3.7504   6.2245   6.7036   7.3450
     7.9018   9.3051  10.2776  11.5026  12.2486  12.7299  13.9208  14.6018
    15.3766  16.4513

          k = 0.3125 0.4009 0.0000 (  5741 PWs)   bands (ev):

   -45.2301 -23.7215 -23.4563 -23.2303 -20.4881 -12.0424  -2.9755  -2.6608
    -2.4574  -1.9666  -0.6425  -0.2613   3.9859   6.3060   6.7615   7.3095
     7.8896  10.1687  10.6363  12.0370  12.4702  12.9543  13.5156  14.2544
    15.0475  15.9020

          k = 0.3125 0.4738 0.0000 (  5729 PWs)   bands (ev):

   -45.2250 -23.7108 -23.4417 -23.3046 -20.4815 -11.9582  -2.9872  -2.6896
    -2.4276  -1.8908  -0.8768  -0.5468   4.2364   6.3958   6.7220   7.3952
     7.7499  10.5937  11.2908  12.0342  12.8999  13.3864  13.5278  14.1686
    14.7711  15.3593

          k = 0.3125 0.5467 0.0000 (  5711 PWs)   bands (ev):

   -45.2223 -23.6956 -23.4335 -23.3548 -20.4777 -11.9117  -3.0182  -2.6615
    -2.4054  -1.7429  -1.2702  -0.5650   4.4051   6.5216   6.6418   7.3536
     7.7191  10.5696  11.9539  12.1957  12.9762  13.2095  13.9463  14.1636
    14.9088  15.5342

          k = 0.3125-0.1093 0.0000 (  5725 PWs)   bands (ev):

   -45.2556 -23.6727 -23.4268 -23.0793 -20.5109 -12.4334  -2.8880  -2.5967
    -2.4175  -1.2841  -0.6996   0.8433   3.6995   5.8440   6.4917   7.0364
     7.5369   7.9915   9.7110  10.7583  12.0446  12.8536  14.6239  15.6635
    16.2763  16.6780

          k = 0.3125-0.0364 0.0000 (  5718 PWs)   bands (ev):

   -45.2584 -23.6716 -23.3937 -23.0910 -20.5118 -12.4725  -2.8203  -2.6388
    -2.4351  -1.0787  -0.6707   0.6977   3.8138   5.6696   6.4910   6.9942
     7.4317   7.9239   9.6633  10.7935  12.5444  12.9950  13.7569  15.5409
    16.3067  16.7935

          k = 0.3750 0.2187 0.0000 (  5733 PWs)   bands (ev):

   -45.2403 -23.7299 -23.4803 -23.0991 -20.5035 -12.2009  -3.0500  -2.5193
    -2.4249  -2.0685  -0.6447   0.7668   3.5051   6.1869   6.9086   7.4135
     7.9279   8.7520   9.9585  10.9856  11.9937  12.6547  13.9276  15.3094
    15.8119  16.0776

          k = 0.3750 0.2916 0.0000 (  5740 PWs)   bands (ev):

   -45.2354 -23.7551 -23.4723 -23.1236 -20.5008 -12.1240  -3.0726  -2.5415
    -2.4610  -2.1806  -0.6199   0.5681   3.5554   6.3387   6.8780   7.4771
     8.0143   9.2827  10.1207  11.1944  12.1098  12.7044  13.4781  14.8516
    15.2756  15.9894

          k = 0.3750 0.3645 0.0000 (  5726 PWs)   bands (ev):

   -45.2306 -23.7597 -23.4592 -23.1787 -20.4943 -12.0457  -3.0445  -2.6541
    -2.4624  -2.1489  -0.6057   0.1256   3.7554   6.5109   6.8015   7.4313
     7.9374  10.0636  10.4854  11.6300  12.2157  12.7082  13.2818  14.3439
    14.9996  15.7699

          k = 0.3750 0.4374 0.0000 (  5729 PWs)   bands (ev):

   -45.2264 -23.7415 -23.4463 -23.2529 -20.4861 -11.9783  -3.0000  -2.7238
    -2.4425  -2.0486  -0.6285  -0.3956   4.0324   6.5689   6.7528   7.4446
     7.7468  10.4761  11.2546  12.0734  12.2634  12.7180  13.4302  14.2970
    14.8673  15.4757

          k = 0.3750 0.5103 0.0000 (  5723 PWs)   bands (ev):

   -45.2237 -23.7105 -23.4373 -23.3231 -20.4795 -11.9327  -3.0039  -2.6904
    -2.4181  -1.8835  -0.9874  -0.5619   4.2939   6.5623   6.6555   7.4366
     7.6659  10.5567  11.9703  12.1801  12.2497  13.3803  13.7642  14.2079
    14.7888  15.4270

          k = 0.3750 0.5832 0.0000 (  5726 PWs)   bands (ev):

   -45.2227 -23.6932 -23.4343 -23.3544 -20.4770 -11.9166  -3.0165  -2.6582
    -2.4045  -1.7261  -1.2778  -0.5696   4.4092   6.5288   6.6285   7.3505
     7.7237  10.5527  11.9666  12.1127  13.0260  13.2073  14.0362  14.1185
    14.8924  15.5256

          k = 0.3750-0.1458 0.0000 (  5749 PWs)   bands (ev):

   -45.2444 -23.6961 -23.4768 -23.1052 -20.5025 -12.2648  -2.9863  -2.5297
    -2.4427  -1.8138  -0.6715   0.6751   3.6133   6.0934   6.7087   7.3265
     7.7747   8.5696   9.9704  11.0269  12.0045  12.6684  14.4963  15.2038
    15.8369  16.6509

          k = 0.3750-0.0729 0.0000 (  5732 PWs)   bands (ev):

   -45.2471 -23.6704 -23.4607 -23.1284 -20.5000 -12.3069  -2.9092  -2.5520
    -2.4743  -1.5355  -0.6947   0.4366   3.7824   5.9043   6.6060   7.2097
     7.7122   8.5131  10.0231  11.1973  12.3042  12.7591  14.5614  14.9441
    15.6190  16.6285

          k = 0.3750 0.0000 0.0000 (  5730 PWs)   bands (ev):

   -45.2481 -23.6616 -23.4497 -23.1420 -20.4988 -12.3216  -2.8694  -2.5715
    -2.4857  -1.3989  -0.7068   0.3045   3.8679   5.7681   6.6623   7.0980
     7.7140   8.4989  10.0447  11.2612  12.6354  12.8876  14.0225  14.8161
    15.9441  16.4085

          k = 0.4375 0.2551 0.0000 (  5730 PWs)   bands (ev):

   -45.2334 -23.7840 -23.4680 -23.1128 -20.5031 -12.0887  -3.1284  -2.5535
    -2.4367  -2.3245  -0.6012   0.6852   3.4618   6.4018   6.9794   7.5473
     8.2230   9.3832  10.0695  11.1315  12.0361  12.6117  13.2922  14.7348
    15.0959  15.6433

          k = 0.4375 0.3280 0.0000 (  5726 PWs)   bands (ev):

   -45.2308 -23.7925 -23.4608 -23.1345 -20.5007 -12.0475  -3.1265  -2.6235
    -2.4582  -2.2976  -0.5901   0.5004   3.5408   6.5189   6.9424   7.5186
     8.1744   9.8701  10.2655  11.3149  11.9021  12.5508  13.3754  14.3313
    14.9422  15.4728

          k = 0.4375 0.4009 0.0000 (  5728 PWs)   bands (ev):

   -45.2285 -23.7751 -23.4531 -23.1868 -20.4938 -12.0100  -3.0633  -2.7042
    -2.4566  -2.1917  -0.5918   0.0731   3.7639   6.5951   6.9072   7.4293
     7.9347  10.2641  10.8398  11.7161  11.8396  12.5649  13.4172  14.1808
    14.9855  15.2649

          k = 0.4375 0.4738 0.0000 (  5731 PWs)   bands (ev):

   -45.2267 -23.7389 -23.4467 -23.2539 -20.4856 -11.9816  -2.9987  -2.7195
    -2.4419  -2.0393  -0.6286  -0.4069   4.0380   6.5729   6.7529   7.4538
     7.7314  10.4661  11.1923  12.0851  12.2986  12.7218  13.4251  14.3009
    14.8806  15.4935

          k = 0.4375 0.5467 0.0000 (  5727 PWs)   bands (ev):

   -45.2258 -23.7055 -23.4426 -23.3058 -20.4801 -11.9663  -2.9848  -2.6813
    -2.4262  -1.8651  -0.8887  -0.5585   4.2469   6.4028   6.7087   7.4123
     7.7310  10.5725  11.2074  12.0491  12.8904  13.4144  13.5898  14.1409
    14.7864  15.3852

          k = 0.4375-0.1822 0.0000 (  5733 PWs)   bands (ev):

   -45.2357 -23.7527 -23.4724 -23.1247 -20.5002 -12.1272  -3.0700  -2.5413
    -2.4598  -2.1705  -0.6214   0.5556   3.5631   6.3377   6.8980   7.4652
     8.0120   9.2624  10.1075  11.1966  12.1126  12.6990  13.4873  14.8710
    15.2708  15.9929

          k = 0.4375-0.1093 0.0000 (  5742 PWs)   bands (ev):

   -45.2375 -23.7114 -23.4714 -23.1597 -20.4947 -12.1568  -2.9867  -2.5539
    -2.4826  -1.9320  -0.6474   0.2349   3.7654   6.2293   6.7096   7.3526
     7.8813   9.2781  10.2511  11.5015  12.2572  12.7249  13.9425  14.6144
    15.4079  16.4761

          k = 0.4375-0.0364 0.0000 (  5748 PWs)   bands (ev):

   -45.2385 -23.6814 -23.4661 -23.1926 -20.4905 -12.1728  -2.9251  -2.5734
    -2.4899  -1.7200  -0.6769  -0.0425   3.9368   5.9925   6.7658   7.1706
     7.8866   9.2876  10.3612  11.7230  12.5286  12.8825  14.0996  14.6875
    15.0287  16.0749

          k =-0.5000-0.2916 0.0000 (  5734 PWs)   bands (ev):

   -45.2310 -23.8050 -23.4613 -23.1176 -20.5034 -12.0481  -3.1621  -2.6020
    -2.4413  -2.3723  -0.5850   0.6573   3.4504   6.5152   6.9512   7.5828
     8.3521   9.7350  10.1367  11.2619  11.7415  12.5047  13.4584  14.2469
    14.9103  15.4695

          k =-0.5000-0.2187 0.0000 (  5724 PWs)   bands (ev):

   -45.2310 -23.7916 -23.4609 -23.1349 -20.5005 -12.0487  -3.1253  -2.6228
    -2.4579  -2.2947  -0.5906   0.4959   3.5437   6.5149   6.9568   7.5115
     8.1754   9.8541  10.2588  11.3141  11.9147  12.5480  13.3679  14.3437
    14.9574  15.4607

          k =-0.5000-0.1458 0.0000 (  5735 PWs)   bands (ev):

   -45.2310 -23.7563 -23.4596 -23.1802 -20.4935 -12.0501  -3.0413  -2.6502
    -2.4615  -2.1371  -0.6073   0.1103   3.7644   6.5064   6.8227   7.4299
     7.9242  10.0393  10.4485  11.6316  12.2383  12.7025  13.2831  14.3616
    15.0211  15.7729

          k =-0.5000-0.0729 0.0000 (  5749 PWs)   bands (ev):

   -45.2310 -23.7153 -23.4570 -23.2325 -20.4866 -12.0515  -2.9715  -2.6525
    -2.4559  -1.9391  -0.6450  -0.2884   4.0005   6.3132   6.7519   7.3351
     7.8600  10.1407  10.5782  12.0332  12.4656  12.9741  13.5500  14.2588
    15.0930  15.9073

          k =-0.5000-0.0000 0.0000 (  5756 PWs)   bands (ev):

   -45.2310 -23.6958 -23.4550 -23.2574 -20.4837 -12.0521  -2.9492  -2.6464
    -2.4521  -1.8223  -0.7017  -0.4434   4.1116   6.1593   6.7939   7.2526
     7.8768  10.1649  10.6389  12.0845  12.5679  13.2711  13.8588  14.3601
    14.8293  15.4131

     highest occupied, lowest unoccupied level (ev):     4.4092    5.5809

!    total energy              =    -571.23433668 Ry
     total all-electron energy =    -12610.611748 Ry
     estimated scf accuracy    <          9.5E-12 Ry

     The total energy is the sum of the following terms:
     one-electron contribution =    -279.10674992 Ry
     hartree contribution      =     148.15624598 Ry
     xc contribution           =     -36.36446397 Ry
     ewald contribution        =      -7.06313897 Ry
     one-center paw contrib.   =    -396.85622980 Ry

     convergence has been achieved in   6 iterations

     negative rho (up, down):  2.762E-05 0.000E+00

     Forces acting on atoms (cartesian axes, Ry/au):

     atom    1 type  1   force =     0.00000000   -0.00004391   -0.00008211
     atom    2 type  2   force =     0.00000000   -0.00013169    0.00002991
     atom    3 type  3   force =     0.00000000    0.00017560    0.00005221
     The non-local contrib.  to forces
     atom    1 type  1   force =     0.00000000   -0.00189466   -0.02419632
     atom    2 type  2   force =     0.00000000   -0.01395525   -1.01426944
     atom    3 type  3   force =     0.00000000   -0.00071233    0.21130676
     The ionic contribution  to forces
     atom    1 type  1   force =    -0.00000001   -0.10443240   -0.64089181
     atom    2 type  2   force =     0.00000001    0.07587215   24.89852249
     atom    3 type  3   force =     0.00000000    0.02856025  -24.25763068
     The local contribution  to forces
     atom    1 type  1   force =    -0.00000000    0.10620411    0.66094511
     atom    2 type  2   force =     0.00000027   -0.06209195  -23.88751549
     atom    3 type  3   force =    -0.00000000   -0.02759186   24.04889131
     The core correction contribution to forces
     atom    1 type  1   force =     0.00000000    0.00008011    0.00405072
     atom    2 type  2   force =     0.00000000    0.00004417    0.00329002
     atom    3 type  3   force =    -0.00000000   -0.00007959   -0.00251362
     The Hubbard contrib.    to forces
     atom    1 type  1   force =     0.00000000    0.00000000    0.00000000
     atom    2 type  2   force =     0.00000000    0.00000000    0.00000000
     atom    3 type  3   force =     0.00000000    0.00000000    0.00000000
     The SCF correction term to forces
     atom    1 type  1   force =    -0.00000000   -0.00000072    0.00000819
     atom    2 type  2   force =    -0.00000000   -0.00000047    0.00000032
     atom    3 type  3   force =     0.00000000   -0.00000052   -0.00000357

     Total force =     0.000246     Total SCF correction =     0.000009
     Energy error            =      3.4E-07 Ry
     Gradient error          =      1.8E-04 Ry/Bohr

     number of scf cycles    =   8
     number of bfgs steps    =   7

     energy             old  =    -571.2343363350 Ry
     energy             new  =    -571.2343366753 Ry

     CASE: energy            _new < energy            _old

     new trust radius        =       0.0009958530 bohr
     new conv_thr            =            1.0E-10 Ry


ATOMIC_POSITIONS (angstrom)
Zr            0.0000000000        0.0114591047       10.1027029803
F            -0.0000000020        1.9242447413       11.4162139048
Br           -0.0000000020        1.9261039172        8.1992618279



     Writing config-only to output data dir ./tmp/ZrFBr.save/
     NEW-OLD atomic charge density approx. for the potential

     Check: negative core charge=   -0.000002

     negative rho (up, down):  2.762E-05 0.000E+00

     total cpu time spent up to now is       90.8 secs

     Self-consistent Calculation

     iteration #  1     ecut=    65.00 Ry     beta= 0.70
     Davidson diagonalization with overlap
     ethr =  1.00E-06,  avg # of iterations =  2.0

     Threshold (ethr) on eigenvalues was too large:
     Diagonalizing with lowered threshold

     Davidson diagonalization with overlap
     ethr =  2.17E-10,  avg # of iterations =  4.0

     negative rho (up, down):  2.760E-05 0.000E+00

     total cpu time spent up to now is       94.0 secs

     total energy              =    -571.23433681 Ry
     estimated scf accuracy    <       0.00000005 Ry

     iteration #  2     ecut=    65.00 Ry     beta= 0.70
     Davidson diagonalization with overlap
     ethr =  2.09E-10,  avg # of iterations =  2.0

     negative rho (up, down):  2.762E-05 0.000E+00

     total cpu time spent up to now is       95.4 secs

     total energy              =    -571.23433680 Ry
     estimated scf accuracy    <       0.00000008 Ry

     iteration #  3     ecut=    65.00 Ry     beta= 0.70
     Davidson diagonalization with overlap
     ethr =  2.09E-10,  avg # of iterations =  1.9

     negative rho (up, down):  2.763E-05 0.000E+00

     total cpu time spent up to now is       96.7 secs

     total energy              =    -571.23433682 Ry
     estimated scf accuracy    <       0.00000002 Ry

     iteration #  4     ecut=    65.00 Ry     beta= 0.70
     Davidson diagonalization with overlap
     ethr =  6.03E-11,  avg # of iterations =  1.0

     negative rho (up, down):  2.763E-05 0.000E+00

     total cpu time spent up to now is       97.9 secs

     total energy              =    -571.23433682 Ry
     estimated scf accuracy    <          9.7E-10 Ry

     iteration #  5     ecut=    65.00 Ry     beta= 0.70
     Davidson diagonalization with overlap
     ethr =  3.74E-12,  avg # of iterations =  2.0

     negative rho (up, down):  2.763E-05 0.000E+00

     total cpu time spent up to now is       99.2 secs

     total energy              =    -571.23433682 Ry
     estimated scf accuracy    <          1.5E-10 Ry

     iteration #  6     ecut=    65.00 Ry     beta= 0.70
     Davidson diagonalization with overlap
     ethr =  5.77E-13,  avg # of iterations =  2.0

     negative rho (up, down):  2.763E-05 0.000E+00

     total cpu time spent up to now is      100.6 secs

     End of self-consistent calculation

          k = 0.0000 0.0000 0.0000 (  5637 PWs)   bands (ev):

   -45.2947 -23.7891 -23.0013 -22.9861 -20.5983 -12.9439  -3.0997  -2.3944
    -2.3737  -1.1016   1.4912   1.5649   3.7938   5.8349   5.9583   6.0383
     6.8973   6.9470   8.0318   8.9279  11.2478  14.1314  14.7478  14.9332
    15.3919  17.3455

          k = 0.0000 0.0729 0.0000 (  5682 PWs)   bands (ev):

   -45.2923 -23.7799 -23.0192 -23.0066 -20.5895 -12.9140  -3.0642  -2.4131
    -2.3946  -1.0777   1.3298   1.4474   3.8151   5.8819   5.8850   6.1340
     6.8914   6.9490   8.1657   9.1532  11.3929  14.1964  14.5091  14.8874
    15.2795  17.6110

          k = 0.0000 0.1458 0.0000 (  5722 PWs)   bands (ev):

   -45.2852 -23.7541 -23.1102 -23.0217 -20.5675 -12.8272  -2.9692  -2.5124
    -2.3963  -1.0202   0.7401   1.3274   3.8500   5.7566   6.0317   6.2347
     6.9603   7.0834   8.5200   9.6298  11.8087  13.7841  14.2140  15.1373
    15.3021  17.7341

          k = 0.0000 0.2187 0.0000 (  5720 PWs)   bands (ev):

   -45.2745 -23.7171 -23.2371 -23.0442 -20.5418 -12.6918  -2.8559  -2.6238
    -2.4020  -0.9622   0.0050   1.1589   3.8341   5.7017   6.2809   6.2958
     7.2576   7.2745   9.0002  10.1087  12.1815  13.4197  13.8502  15.5361
    15.9761  17.4118

          k = 0.0000 0.2916 0.0000 (  5728 PWs)   bands (ev):

   -45.2619 -23.6814 -23.3691 -23.0705 -20.5210 -12.5228  -2.8501  -2.6315
    -2.4136  -1.0384  -0.6051   0.9752   3.7414   5.7847   6.4270   6.6642
     7.4386   7.6981   9.4856  10.5006  12.0156  13.0641  14.3976  16.0912
    16.6961  16.7894

          k = 0.0000 0.3645 0.0000 (  5752 PWs)   bands (ev):

   -45.2493 -23.6774 -23.4603 -23.0966 -20.5091 -12.3420  -2.9482  -2.5566
    -2.4299  -1.5645  -0.6800   0.8056   3.6232   5.9602   6.6847   7.0776
     7.6320   8.1940   9.8307  10.7740  11.9000  12.7488  15.0559  15.4891
    16.4797  16.6634

          k = 0.0000 0.4374 0.0000 (  5752 PWs)   bands (ev):

   -45.2386 -23.7289 -23.4764 -23.1187 -20.5050 -12.1780  -3.0449  -2.5205
    -2.4473  -2.0611  -0.6267   0.6714   3.5357   6.1754   6.9144   7.3863
     7.9102   8.7775   9.9797  10.9781  12.0241  12.7000  14.0162  15.3729
    15.9072  15.9584

          k = 0.0000 0.5103 0.0000 (  5740 PWs)   bands (ev):

   -45.2314 -23.7846 -23.4628 -23.1333 -20.5050 -12.0620  -3.1217  -2.5611
    -2.4605  -2.3209  -0.5806   0.5861   3.4928   6.3914   6.9731   7.5172
     8.2299   9.4148  10.0869  11.1332  12.0943  12.6799  13.3388  14.7898
    15.1787  15.5140

          k = 0.0000-0.5832 0.0000 (  5746 PWs)   bands (ev):

   -45.2288 -23.8061 -23.4557 -23.1385 -20.5056 -12.0200  -3.1546  -2.6123
    -2.4655  -2.3699  -0.5635   0.5569   3.4815   6.5075   6.9374   7.5510
     8.3702   9.7755  10.1394  11.2741  11.8242  12.5629  13.4960  14.2977
    14.9915  15.3340

          k = 0.0625 0.0364 0.0000 (  5668 PWs)   bands (ev):

   -45.2924 -23.7802 -23.0310 -22.9938 -20.5896 -12.9149  -3.0648  -2.4289
    -2.3775  -1.0786   1.2747   1.5085   3.8127   5.7864   5.9860   6.1328
     6.8591   6.9886   8.1613   9.1476  11.3893  14.1965  14.4068  15.0273
    15.2649  17.5697

          k = 0.0625 0.1093 0.0000 (  5693 PWs)   bands (ev):

   -45.2876 -23.7626 -23.0848 -23.0122 -20.5743 -12.8565  -2.9991  -2.4870
    -2.3898  -1.0380   0.9071   1.3834   3.8410   5.7491   6.0245   6.2306
     6.8732   7.0746   8.4059   9.4931  11.6786  13.9373  14.2459  15.0313
    15.3088  17.6960

          k = 0.0625 0.1822 0.0000 (  5714 PWs)   bands (ev):

   -45.2787 -23.7310 -23.1890 -23.0358 -20.5506 -12.7453  -2.8898  -2.5899
    -2.4002  -0.9792   0.2839   1.1999   3.8558   5.6624   6.2281   6.2991
     7.0436   7.2622   8.8244   9.9575  12.1807  13.4036  13.9259  15.2192
    15.8819  17.3089

          k = 0.0625 0.2551 0.0000 (  5720 PWs)   bands (ev):

   -45.2671 -23.6936 -23.3152 -23.0642 -20.5277 -12.5927  -2.8118  -2.6610
    -2.4148  -0.9540  -0.3909   0.9881   3.8115   5.6802   6.3419   6.6035
     7.2887   7.5636   9.3114  10.3958  12.2893  13.2311  13.7983  15.7239
    16.6024  16.8970

          k = 0.0625 0.3280 0.0000 (  5746 PWs)   bands (ev):

   -45.2545 -23.6699 -23.4264 -23.0943 -20.5117 -12.4170  -2.8851  -2.5931
    -2.4357  -1.2766  -0.6884   0.7804   3.7195   5.8415   6.4912   7.0089
     7.5087   8.0086   9.7410  10.7564  12.0372  12.8737  14.6598  15.7250
    16.2969  16.6895

          k = 0.0625 0.4009 0.0000 (  5744 PWs)   bands (ev):

   -45.2428 -23.6956 -23.4744 -23.1218 -20.5040 -12.2433  -2.9838  -2.5294
    -2.4618  -1.8136  -0.6555   0.6031   3.6339   6.0816   6.7075   7.3090
     7.7580   8.5948   9.9990  11.0133  12.0172  12.7010  14.5839  15.2212
    15.8742  16.6555

          k = 0.0625 0.4738 0.0000 (  5735 PWs)   bands (ev):

   -45.2338 -23.7542 -23.4680 -23.1428 -20.5023 -12.1017  -3.0663  -2.5525
    -2.4707  -2.1760  -0.6023   0.4750   3.5855   6.3265   6.8880   7.4464
     8.0116   9.3010  10.1350  11.1802  12.1475  12.7548  13.5507  14.8710
    15.3350  15.9632

          k = 0.0625 0.5467 0.0000 (  5736 PWs)   bands (ev):

   -45.2289 -23.7933 -23.4556 -23.1542 -20.5027 -12.0216  -3.1196  -2.6364
    -2.4681  -2.3025  -0.5701   0.4081   3.5690   6.5076   6.9408   7.4888
     8.1885   9.9035  10.2664  11.3121  11.9814  12.6058  13.4042  14.3770
    15.0114  15.3902

          k = 0.1250 0.0729 0.0000 (  5684 PWs)   bands (ev):

   -45.2856 -23.7550 -23.1193 -23.0088 -20.5677 -12.8305  -2.9711  -2.5244
    -2.3797  -1.0236   0.6958   1.3919   3.8397   5.6907   6.1186   6.2279
     6.9431   7.1190   8.5067   9.6193  11.7956  13.7457  14.1847  15.1173
    15.4291  17.6898

          k = 0.1250 0.1458 0.0000 (  5701 PWs)   bands (ev):

   -45.2790 -23.7318 -23.1932 -23.0287 -20.5507 -12.7477  -2.8911  -2.5951
    -2.3919  -0.9818   0.2603   1.2394   3.8463   5.6475   6.2615   6.2909
     7.0413   7.2745   8.8163   9.9529  12.1723  13.3871  13.9099  15.2138
    15.9310  17.3277

          k = 0.1250 0.2187 0.0000 (  5714 PWs)   bands (ev):

   -45.2692 -23.6992 -23.2944 -23.0608 -20.5302 -12.6191  -2.7932  -2.6764
    -2.4149  -0.9441  -0.2796   0.9767   3.8421   5.6038   6.3685   6.6097
     7.1839   7.5414   9.2450  10.3683  12.7417  12.9725  13.5037  15.5218
    16.5861  16.8671

          k = 0.1250 0.2916 0.0000 (  5729 PWs)   bands (ev):

   -45.2575 -23.6698 -23.3967 -23.0996 -20.5127 -12.4589  -2.8200  -2.6361
    -2.4476  -1.0825  -0.6716   0.6795   3.8181   5.6776   6.4757   6.9765
     7.4140   7.9382   9.6915  10.7969  12.5125  12.9843  13.7585  15.5613
    16.3642  16.8270

          k = 0.1250 0.3645 0.0000 (  5730 PWs)   bands (ev):

   -45.2458 -23.6708 -23.4615 -23.1389 -20.5017 -12.2883  -2.9100  -2.5517
    -2.4880  -1.5494  -0.6839   0.4065   3.7876   5.9005   6.5973   7.1918
     7.7119   8.5346  10.0553  11.1920  12.2820  12.7591  14.5690  14.9924
    15.6459  16.6650

          k = 0.1250 0.4374 0.0000 (  5735 PWs)   bands (ev):

   -45.2359 -23.7146 -23.4686 -23.1723 -20.4969 -12.1343  -2.9870  -2.5692
    -2.4840  -1.9470  -0.6328   0.1912   3.7733   6.2194   6.7065   7.3280
     7.8932   9.3154  10.2910  11.4735  12.2584  12.7511  13.9948  14.6161
    15.4515  16.4850

          k = 0.1250 0.5103 0.0000 (  5741 PWs)   bands (ev):

   -45.2292 -23.7595 -23.4552 -23.1948 -20.4958 -12.0258  -3.0399  -2.6657
    -2.4641  -2.1507  -0.5908   0.0536   3.7770   6.4988   6.8153   7.4075
     7.9389  10.0907  10.4905  11.5880  12.2598  12.7578  13.3185  14.3575
    15.0626  15.7820

          k = 0.1250 0.5832 0.0000 (  5734 PWs)   bands (ev):

   -45.2269 -23.7769 -23.4485 -23.2027 -20.4959 -11.9866  -3.0596  -2.7175
    -2.4599  -2.2014  -0.5751   0.0062   3.7816   6.5854   6.9103   7.4060
     7.9459  10.3118  10.8424  11.6782  11.9134  12.5955  13.4406  14.2223
    15.0285  15.2495

          k = 0.1250 0.0000 0.0000 (  5688 PWs)   bands (ev):

   -45.2879 -23.7634 -23.0916 -23.0027 -20.5744 -12.8589  -3.0005  -2.4968
    -2.3767  -1.0406   0.8793   1.4234   3.8356   5.6888   6.0956   6.2289
     6.8800   7.0845   8.3948   9.4845  11.6704  13.8976  14.2330  15.0476
    15.3875  17.6908

          k = 0.1875 0.1093 0.0000 (  5703 PWs)   bands (ev):

   -45.2754 -23.7192 -23.2436 -23.0299 -20.5420 -12.6989  -2.8592  -2.6326
    -2.3847  -0.9695  -0.0289   1.2316   3.8126   5.6709   6.2625   6.3732
     7.2580   7.2949   8.9788  10.0998  12.1689  13.3913  13.8130  15.5078
    16.0872  17.4247

          k = 0.1875 0.1822 0.0000 (  5717 PWs)   bands (ev):

   -45.2678 -23.6956 -23.3199 -23.0526 -20.5278 -12.5991  -2.8151  -2.6658
    -2.4019  -0.9625  -0.4166   1.0524   3.7896   5.6762   6.3416   6.6295
     7.3043   7.5634   9.2954  10.3923  12.2887  13.2066  13.7527  15.6986
    16.6654  16.9170

          k = 0.1875 0.2551 0.0000 (  5725 PWs)   bands (ev):

   -45.2580 -23.6710 -23.3988 -23.0934 -20.5126 -12.4628  -2.8224  -2.6368
    -2.4416  -1.0931  -0.6785   0.7141   3.8054   5.6805   6.4765   6.9823
     7.4256   7.9348   9.6835  10.7980  12.5215  12.9821  13.7103  15.5594
    16.3360  16.8064

          k = 0.1875 0.3280 0.0000 (  5722 PWs)   bands (ev):

   -45.2472 -23.6634 -23.4536 -23.1452 -20.5004 -12.3071  -2.8732  -2.5703
    -2.4946  -1.4300  -0.7016   0.3177   3.8577   5.7726   6.6489   7.0858
     7.7238   8.5170  10.0730  11.2671  12.6284  12.8299  13.9973  14.8369
    15.9501  16.4550

          k = 0.1875 0.4009 0.0000 (  5743 PWs)   bands (ev):

   -45.2373 -23.6866 -23.4659 -23.1977 -20.4926 -12.1547  -2.9287  -2.5850
    -2.4905  -1.7512  -0.6684  -0.0409   3.9287   5.9917   6.7682   7.1408
     7.9079   9.3215  10.4034  11.7232  12.5346  12.8199  14.1079  14.7043
    15.0353  16.0562

          k = 0.1875 0.4738 0.0000 (  5746 PWs)   bands (ev):

   -45.2297 -23.7209 -23.4543 -23.2401 -20.4889 -12.0316  -2.9740  -2.6666
    -2.4567  -1.9623  -0.6387  -0.3003   3.9980   6.3093   6.7593   7.3008
     7.8843  10.1832  10.6463  12.0070  12.4521  12.9546  13.5885  14.2508
    15.1217  15.8554

          k = 0.1875 0.5467 0.0000 (  5737 PWs)   bands (ev):

   -45.2256 -23.7426 -23.4433 -23.2638 -20.4876 -11.9625  -3.0001  -2.7305
    -2.4434  -2.0529  -0.6294  -0.4284   4.0424   6.5643   6.7670   7.4256
     7.7471  10.5146  11.2600  12.0560  12.2809  12.7073  13.4618  14.3171
    14.8930  15.5124

          k = 0.1875-0.0364 0.0000 (  5697 PWs)   bands (ev):

   -45.2794 -23.7328 -23.1941 -23.0240 -20.5507 -12.7515  -2.8927  -2.5981
    -2.3845  -0.9853   0.2622   1.2484   3.8431   5.6161   6.2770   6.3200
     7.0706   7.2571   8.8031   9.9480  12.1674  13.3893  13.9061  15.2231
    15.9582  17.3184

          k = 0.2500 0.1458 0.0000 (  5721 PWs)   bands (ev):

   -45.2633 -23.6847 -23.3730 -23.0546 -20.5208 -12.5348  -2.8546  -2.6365
    -2.3947  -1.0552  -0.6235   1.0569   3.7124   5.7802   6.4078   6.7212
     7.4705   7.6846   9.4591  10.4975  12.0130  13.0346  14.3359  16.0379
    16.6147  16.8887

          k = 0.2500 0.2187 0.0000 (  5726 PWs)   bands (ev):

   -45.2557 -23.6732 -23.4302 -23.0794 -20.5114 -12.4284  -2.8896  -2.5957
    -2.4197  -1.2984  -0.7008   0.8606   3.6902   5.8457   6.4874   7.0334
     7.5357   7.9970   9.7204  10.7602  12.0349  12.8468  14.5792  15.6568
    16.2804  16.7007

          k = 0.2500 0.2916 0.0000 (  5742 PWs)   bands (ev):

   -45.2468 -23.6733 -23.4641 -23.1279 -20.5013 -12.2974  -2.9133  -2.5495
    -2.4804  -1.5660  -0.6917   0.4643   3.7666   5.9051   6.5973   7.2033
     7.7253   8.5279  10.0426  11.2022  12.2854  12.7501  14.5097  14.9344
    15.6026  16.6548

          k = 0.2500 0.3645 0.0000 (  5746 PWs)   bands (ev):

   -45.2379 -23.6877 -23.4673 -23.1922 -20.4923 -12.1598  -2.9300  -2.5793
    -2.4920  -1.7584  -0.6715  -0.0138   3.9193   5.9921   6.7698   7.1448
     7.9118   9.3183  10.3970  11.7323  12.5329  12.8406  14.1013  14.6242
    14.9962  16.1007

          k = 0.2500 0.4374 0.0000 (  5733 PWs)   bands (ev):

   -45.2302 -23.7033 -23.4542 -23.2582 -20.4857 -12.0375  -2.9529  -2.6576
    -2.4531  -1.8586  -0.6976  -0.4207   4.0973   6.1582   6.8106   7.2142
     7.9052  10.1999  10.7071  12.0766  12.6000  13.1943  13.8427  14.3442
    14.8163  15.3936

          k = 0.2500 0.5103 0.0000 (  5736 PWs)   bands (ev):

   -45.2252 -23.7112 -23.4409 -23.3090 -20.4819 -11.9526  -2.9880  -2.6908
    -2.4275  -1.8897  -0.8925  -0.5452   4.2392   6.4007   6.7216   7.3906
     7.7453  10.6101  11.2935  12.0218  12.9199  13.3602  13.5536  14.1218
    14.7972  15.3785

          k = 0.2500 0.5832 0.0000 (  5726 PWs)   bands (ev):

   -45.2234 -23.7130 -23.4356 -23.3283 -20.4806 -11.9221  -3.0065  -2.6944
    -2.4189  -1.8914  -1.0052  -0.5540   4.2932   6.5563   6.6737   7.4318
     7.6575  10.5898  11.9574  12.2193  12.2969  13.2911  13.7470  14.2055
    14.8117  15.4539

          k = 0.2500-0.0729 0.0000 (  5717 PWs)   bands (ev):

   -45.2684 -23.6965 -23.3174 -23.0512 -20.5274 -12.6037  -2.8154  -2.6660
    -2.3979  -0.9644  -0.4031   1.0432   3.7929   5.6616   6.3451   6.6518
     7.3204   7.5491   9.2835  10.3899  12.2950  13.2140  13.7760  15.7117
    16.6208  16.9040

          k = 0.2500 0.0000 0.0000 (  5720 PWs)   bands (ev):

   -45.2701 -23.7012 -23.2932 -23.0543 -20.5297 -12.6275  -2.7954  -2.6784
    -2.4044  -0.9508  -0.2700   0.9882   3.8377   5.5801   6.3824   6.6429
     7.2103   7.5255   9.2224  10.3632  12.7420  12.9950  13.5044  15.5176
    16.5614  16.8721

          k = 0.3125 0.1822 0.0000 (  5745 PWs)   bands (ev):

   -45.2512 -23.6808 -23.4632 -23.0791 -20.5082 -12.3596  -2.9523  -2.5591
    -2.4090  -1.5796  -0.6948   0.8953   3.5922   5.9678   6.6689   7.1135
     7.6635   8.1748   9.8046  10.7803  11.8871  12.7150  14.9482  15.4228
    16.5616  16.6107

          k = 0.3125 0.2551 0.0000 (  5727 PWs)   bands (ev):

   -45.2446 -23.6986 -23.4781 -23.1046 -20.5031 -12.2603  -2.9885  -2.5284
    -2.4446  -1.8292  -0.6699   0.6927   3.6026   6.0899   6.6986   7.3348
     7.7786   8.5794   9.9801  11.0272  11.9999  12.6670  14.4847  15.1745
    15.8659  16.6222

          k = 0.3125 0.3280 0.0000 (  5736 PWs)   bands (ev):

   -45.2374 -23.7167 -23.4721 -23.1582 -20.4959 -12.1490  -2.9909  -2.5556
    -2.4850  -1.9569  -0.6444   0.2608   3.7499   6.2240   6.7026   7.3444
     7.9011   9.3049  10.2773  11.5025  12.2484  12.7292  13.9207  14.6016
    15.3762  16.4510

          k = 0.3125 0.4009 0.0000 (  5741 PWs)   bands (ev):

   -45.2308 -23.7218 -23.4569 -23.2309 -20.4879 -12.0423  -2.9750  -2.6604
    -2.4570  -1.9664  -0.6425  -0.2613   3.9855   6.3054   6.7607   7.3087
     7.8888  10.1687  10.6359  12.0367  12.4699  12.9538  13.5155  14.2543
    15.0473  15.9019

          k = 0.3125 0.4738 0.0000 (  5729 PWs)   bands (ev):

   -45.2257 -23.7111 -23.4422 -23.3051 -20.4813 -11.9581  -2.9867  -2.6892
    -2.4272  -1.8907  -0.8767  -0.5469   4.2360   6.3952   6.7212   7.3944
     7.7489  10.5935  11.2907  12.0337  12.8998  13.3865  13.5272  14.1684
    14.7711  15.3593

          k = 0.3125 0.5467 0.0000 (  5711 PWs)   bands (ev):

   -45.2229 -23.6958 -23.4341 -23.3553 -20.4775 -11.9116  -3.0177  -2.6611
    -2.4050  -1.7428  -1.2702  -0.5651   4.4047   6.5209   6.6411   7.3525
     7.7180  10.5693  11.9534  12.1958  12.9764  13.2095  13.9458  14.1632
    14.9087  15.5342

          k = 0.3125-0.1093 0.0000 (  5725 PWs)   bands (ev):

   -45.2563 -23.6730 -23.4274 -23.0799 -20.5107 -12.4334  -2.8875  -2.5962
    -2.4169  -1.2841  -0.6999   0.8438   3.6989   5.8434   6.4913   7.0354
     7.5361   7.9915   9.7106  10.7587  12.0442  12.8527  14.6240  15.6631
    16.2758  16.6779

          k = 0.3125-0.0364 0.0000 (  5718 PWs)   bands (ev):

   -45.2590 -23.6720 -23.3941 -23.0917 -20.5116 -12.4725  -2.8197  -2.6383
    -2.4346  -1.0789  -0.6709   0.6983   3.8132   5.6689   6.4910   6.9931
     7.4307   7.9239   9.6630  10.7939  12.5439  12.9941  13.7568  15.5405
    16.3066  16.7931

          k = 0.3750 0.2187 0.0000 (  5733 PWs)   bands (ev):

   -45.2409 -23.7301 -23.4808 -23.0997 -20.5033 -12.2008  -3.0495  -2.5189
    -2.4244  -2.0683  -0.6450   0.7672   3.5045   6.1866   6.9079   7.4128
     7.9272   8.7517   9.9581  10.9857  11.9933  12.6541  13.9277  15.3093
    15.8114  16.0769

          k = 0.3750 0.2916 0.0000 (  5740 PWs)   bands (ev):

   -45.2361 -23.7554 -23.4728 -23.1242 -20.5006 -12.1240  -3.0721  -2.5412
    -2.4605  -2.1804  -0.6202   0.5684   3.5548   6.3385   6.8769   7.4767
     8.0134   9.2823  10.1204  11.1942  12.1094  12.7040  13.4781  14.8514
    15.2751  15.9891

          k = 0.3750 0.3645 0.0000 (  5726 PWs)   bands (ev):

   -45.2312 -23.7600 -23.4597 -23.1793 -20.4941 -12.0457  -3.0441  -2.6537
    -2.4620  -2.1486  -0.6059   0.1258   3.7549   6.5107   6.8004   7.4308
     7.9365  10.0635  10.4850  11.6298  12.2153  12.7080  13.2815  14.3438
    14.9992  15.7698

          k = 0.3750 0.4374 0.0000 (  5729 PWs)   bands (ev):

   -45.2271 -23.7417 -23.4469 -23.2534 -20.4859 -11.9782  -2.9995  -2.7234
    -2.4421  -2.0483  -0.6285  -0.3956   4.0319   6.5685   6.7520   7.4439
     7.7458  10.4757  11.2543  12.0730  12.2634  12.7176  13.4299  14.2972
    14.8669  15.4756

          k = 0.3750 0.5103 0.0000 (  5723 PWs)   bands (ev):

   -45.2243 -23.7107 -23.4379 -23.3237 -20.4793 -11.9326  -3.0034  -2.6900
    -2.4177  -1.8834  -0.9873  -0.5621   4.2935   6.5620   6.6546   7.4358
     7.6650  10.5561  11.9700  12.1800  12.2498  13.3801  13.7640  14.2079
    14.7887  15.4271

          k = 0.3750 0.5832 0.0000 (  5726 PWs)   bands (ev):

   -45.2234 -23.6934 -23.4349 -23.3550 -20.4768 -11.9165  -3.0160  -2.6578
    -2.4041  -1.7260  -1.2778  -0.5698   4.4089   6.5286   6.6275   7.3495
     7.7228  10.5519  11.9663  12.1128  13.0257  13.2076  14.0358  14.1187
    14.8920  15.5262

          k = 0.3750-0.1458 0.0000 (  5749 PWs)   bands (ev):

   -45.2450 -23.6964 -23.4773 -23.1058 -20.5023 -12.2648  -2.9858  -2.5293
    -2.4422  -1.8137  -0.6718   0.6756   3.6127   6.0930   6.7083   7.3254
     7.7742   8.5693   9.9697  11.0273  12.0041  12.6677  14.4965  15.2036
    15.8367  16.6500

          k = 0.3750-0.0729 0.0000 (  5732 PWs)   bands (ev):

   -45.2478 -23.6707 -23.4612 -23.1290 -20.4998 -12.3069  -2.9087  -2.5515
    -2.4738  -1.5355  -0.6950   0.4371   3.7819   5.9036   6.6059   7.2088
     7.7115   8.5129  10.0223  11.1977  12.3038  12.7584  14.5615  14.9437
    15.6187  16.6281

          k = 0.3750 0.0000 0.0000 (  5730 PWs)   bands (ev):

   -45.2488 -23.6620 -23.4502 -23.1426 -20.4986 -12.3216  -2.8689  -2.5710
    -2.4853  -1.3988  -0.7071   0.3050   3.8674   5.7673   6.6623   7.0970
     7.7131   8.4987  10.0440  11.2616  12.6348  12.8872  14.0222  14.8155
    15.9437  16.4085

          k = 0.4375 0.2551 0.0000 (  5730 PWs)   bands (ev):

   -45.2340 -23.7843 -23.4686 -23.1134 -20.5029 -12.0887  -3.1280  -2.5533
    -2.4362  -2.3242  -0.6015   0.6856   3.4612   6.4015   6.9788   7.5466
     8.2224   9.3826  10.0692  11.1312  12.0357  12.6116  13.2921  14.7346
    15.0956  15.6426

          k = 0.4375 0.3280 0.0000 (  5726 PWs)   bands (ev):

   -45.2315 -23.7928 -23.4613 -23.1351 -20.5005 -12.0475  -3.1261  -2.6233
    -2.4578  -2.2972  -0.5904   0.5007   3.5402   6.5187   6.9416   7.5180
     8.1736   9.8696  10.2651  11.3145  11.9021  12.5504  13.3753  14.3311
    14.9417  15.4724

          k = 0.4375 0.4009 0.0000 (  5728 PWs)   bands (ev):

   -45.2292 -23.7753 -23.4537 -23.1874 -20.4936 -12.0099  -3.0629  -2.7039
    -2.4562  -2.1914  -0.5920   0.0734   3.7633   6.5948   6.9067   7.4286
     7.9339  10.2637  10.8391  11.7158  11.8397  12.5643  13.4171  14.1808
    14.9853  15.2644

          k = 0.4375 0.4738 0.0000 (  5731 PWs)   bands (ev):

   -45.2274 -23.7392 -23.4472 -23.2544 -20.4854 -11.9815  -2.9982  -2.7192
    -2.4416  -2.0391  -0.6287  -0.4069   4.0375   6.5725   6.7524   7.4532
     7.7305  10.4654  11.1918  12.0850  12.2985  12.7216  13.4248  14.3010
    14.8805  15.4931

          k = 0.4375 0.5467 0.0000 (  5727 PWs)   bands (ev):

   -45.2264 -23.7058 -23.4432 -23.3063 -20.4800 -11.9663  -2.9843  -2.6809
    -2.4258  -1.8649  -0.8885  -0.5588   4.2465   6.4023   6.7079   7.4118
     7.7300  10.5715  11.2071  12.0489  12.8905  13.4144  13.5896  14.1410
    14.7859  15.3856

          k = 0.4375-0.1822 0.0000 (  5733 PWs)   bands (ev):

   -45.2364 -23.7530 -23.4730 -23.1253 -20.5000 -12.1271  -3.0695  -2.5410
    -2.4593  -2.1703  -0.6217   0.5561   3.5625   6.3373   6.8977   7.4641
     8.0116   9.2619  10.1069  11.1967  12.1120  12.6987  13.4874  14.8708
    15.2708  15.9919

          k = 0.4375-0.1093 0.0000 (  5742 PWs)   bands (ev):

   -45.2382 -23.7117 -23.4720 -23.1603 -20.4945 -12.1567  -2.9862  -2.5535
    -2.4822  -1.9319  -0.6477   0.2352   3.7649   6.2288   6.7093   7.3517
     7.8808   9.2778  10.2501  11.5019  12.2566  12.7245  13.9425  14.6142
    15.4079  16.4748

          k = 0.4375-0.0364 0.0000 (  5748 PWs)   bands (ev):

   -45.2391 -23.6817 -23.4666 -23.1932 -20.4903 -12.1728  -2.9246  -2.5730
    -2.4895  -1.7199  -0.6772  -0.0422   3.9363   5.9918   6.7655   7.1700
     7.8858   9.2874  10.3601  11.7234  12.5283  12.8823  14.0992  14.6872
    15.0284  16.0748

          k =-0.5000-0.2916 0.0000 (  5734 PWs)   bands (ev):

   -45.2316 -23.8052 -23.4618 -23.1182 -20.5032 -12.0480  -3.1617  -2.6019
    -2.4407  -2.3719  -0.5853   0.6577   3.4497   6.5148   6.9507   7.5820
     8.3516   9.7343  10.1364  11.2614  11.7416  12.5041  13.4586  14.2465
    14.9101  15.4688

          k =-0.5000-0.2187 0.0000 (  5724 PWs)   bands (ev):

   -45.2316 -23.7919 -23.4615 -23.1355 -20.5003 -12.0486  -3.1249  -2.6226
    -2.4575  -2.2944  -0.5909   0.4962   3.5431   6.5145   6.9565   7.5106
     8.1749   9.8534  10.2583  11.3137  11.9146  12.5475  13.3680  14.3434
    14.9575  15.4597

          k =-0.5000-0.1458 0.0000 (  5735 PWs)   bands (ev):

   -45.2316 -23.7566 -23.4602 -23.1808 -20.4933 -12.0500  -3.0408  -2.6498
    -2.4611  -2.1369  -0.6075   0.1106   3.7638   6.5059   6.8224   7.4289
     7.9236  10.0388  10.4476  11.6316  12.2377  12.7024  13.2831  14.3614
    15.0213  15.7719

          k =-0.5000-0.0729 0.0000 (  5749 PWs)   bands (ev):

   -45.2316 -23.7155 -23.4575 -23.2330 -20.4864 -12.0515  -2.9710  -2.6521
    -2.4555  -1.9389  -0.6452  -0.2882   4.0001   6.3126   6.7514   7.3345
     7.8592  10.1405  10.5769  12.0333  12.4655  12.9739  13.5499  14.2587
    15.0929  15.9074

          k =-0.5000-0.0000 0.0000 (  5756 PWs)   bands (ev):

   -45.2316 -23.6961 -23.4556 -23.2580 -20.4836 -12.0520  -2.9487  -2.6460
    -2.4517  -1.8222  -0.7017  -0.4434   4.1112   6.1587   6.7933   7.2522
     7.8759  10.1648  10.6374  12.0845  12.5681  13.2710  13.8586  14.3600
    14.8288  15.4132

     highest occupied, lowest unoccupied level (ev):     4.4089    5.5801

!    total energy              =    -571.23433682 Ry
     total all-electron energy =    -12610.611748 Ry
     estimated scf accuracy    <          1.2E-11 Ry

     The total energy is the sum of the following terms:
     one-electron contribution =    -279.07152388 Ry
     hartree contribution      =     148.13846023 Ry
     xc contribution           =     -36.36428785 Ry
     ewald contribution        =      -7.08076384 Ry
     one-center paw contrib.   =    -396.85622149 Ry

     convergence has been achieved in   6 iterations

     negative rho (up, down):  2.763E-05 0.000E+00

     Forces acting on atoms (cartesian axes, Ry/au):

     atom    1 type  1   force =     0.00000000    0.00005414   -0.00008301
     atom    2 type  2   force =     0.00000000   -0.00010799   -0.00003511
     atom    3 type  3   force =     0.00000000    0.00005385    0.00011812
     The non-local contrib.  to forces
     atom    1 type  1   force =     0.00000000   -0.00185680   -0.02419545
     atom    2 type  2   force =     0.00000000   -0.01401904   -1.01448636
     atom    3 type  3   force =     0.00000000   -0.00076747    0.21133693
     The ionic contribution  to forces
     atom    1 type  1   force =    -0.00000001   -0.10418861   -0.64196959
     atom    2 type  2   force =     0.00000001    0.07644904   24.89749807
     atom    3 type  3   force =     0.00000000    0.02773956  -24.25552849
     The local contribution  to forces
     atom    1 type  1   force =    -0.00000000    0.10602077    0.66202447
     atom    2 type  2   force =     0.00000027   -0.06258147  -23.88633939
     atom    3 type  3   force =    -0.00000000   -0.02684493   24.04682945
     The core correction contribution to forces
     atom    1 type  1   force =     0.00000000    0.00007968    0.00404985
     atom    2 type  2   force =     0.00000000    0.00004430    0.00329104
     atom    3 type  3   force =    -0.00000000   -0.00007259   -0.00251830
     The Hubbard contrib.    to forces
     atom    1 type  1   force =     0.00000000    0.00000000    0.00000000
     atom    2 type  2   force =     0.00000000    0.00000000    0.00000000
     atom    3 type  3   force =     0.00000000    0.00000000    0.00000000
     The SCF correction term to forces
     atom    1 type  1   force =    -0.00000000   -0.00000058    0.00000586
     atom    2 type  2   force =    -0.00000000   -0.00000050   -0.00000032
     atom    3 type  3   force =     0.00000000   -0.00000041   -0.00000331

     Total force =     0.000199     Total SCF correction =     0.000007
     Energy error            =      1.5E-07 Ry
     Gradient error          =      1.2E-04 Ry/Bohr

     number of scf cycles    =   9
     number of bfgs steps    =   8

     energy             old  =    -571.2343366753 Ry
     energy             new  =    -571.2343368237 Ry

     CASE: energy            _new < energy            _old

     new trust radius        =       0.0003032892 bohr
     new conv_thr            =            1.0E-10 Ry


ATOMIC_POSITIONS (angstrom)
Zr            0.0000000000        0.0114419813       10.1026653275
F            -0.0000000020        1.9241022741       11.4162345553
Br           -0.0000000020        1.9262635078        8.1992788302



     Writing config-only to output data dir ./tmp/ZrFBr.save/
     NEW-OLD atomic charge density approx. for the potential

     Check: negative core charge=   -0.000002

     negative rho (up, down):  2.764E-05 0.000E+00

     total cpu time spent up to now is      101.0 secs

     Self-consistent Calculation

     iteration #  1     ecut=    65.00 Ry     beta= 0.70
     Davidson diagonalization with overlap
     ethr =  1.00E-06,  avg # of iterations =  2.0

     Threshold (ethr) on eigenvalues was too large:
     Diagonalizing with lowered threshold

     Davidson diagonalization with overlap
     ethr =  2.38E-11,  avg # of iterations =  4.0

     negative rho (up, down):  2.763E-05 0.000E+00

     total cpu time spent up to now is      104.1 secs

     total energy              =    -571.23433686 Ry
     estimated scf accuracy    <          5.0E-09 Ry

     iteration #  2     ecut=    65.00 Ry     beta= 0.70
     Davidson diagonalization with overlap
     ethr =  1.92E-11,  avg # of iterations =  2.0

     negative rho (up, down):  2.763E-05 0.000E+00

     total cpu time spent up to now is      105.4 secs

     total energy              =    -571.23433686 Ry
     estimated scf accuracy    <          1.9E-09 Ry

     iteration #  3     ecut=    65.00 Ry     beta= 0.70
     Davidson diagonalization with overlap
     ethr =  7.15E-12,  avg # of iterations =  2.0

     negative rho (up, down):  2.763E-05 0.000E+00

     total cpu time spent up to now is      106.8 secs

     total energy              =    -571.23433687 Ry
     estimated scf accuracy    <          3.0E-09 Ry

     iteration #  4     ecut=    65.00 Ry     beta= 0.70
     Davidson diagonalization with overlap
     ethr =  7.15E-12,  avg # of iterations =  1.0

     negative rho (up, down):  2.763E-05 0.000E+00

     total cpu time spent up to now is      107.9 secs

     End of self-consistent calculation

          k = 0.0000 0.0000 0.0000 (  5637 PWs)   bands (ev):

   -45.2948 -23.7891 -23.0013 -22.9861 -20.5981 -12.9441  -3.0996  -2.3940
    -2.3735  -1.1017   1.4908   1.5648   3.7937   5.8348   5.9582   6.0384
     6.8973   6.9469   8.0318   8.9279  11.2478  14.1313  14.7476  14.9331
    15.3922  17.3452

          k = 0.0000 0.0729 0.0000 (  5682 PWs)   bands (ev):

   -45.2923 -23.7799 -23.0193 -23.0067 -20.5893 -12.9142  -3.0641  -2.4129
    -2.3942  -1.0777   1.3296   1.4470   3.8150   5.8818   5.8849   6.1341
     6.8913   6.9490   8.1657   9.1532  11.3928  14.1964  14.5090  14.8872
    15.2798  17.6108

          k = 0.0000 0.1458 0.0000 (  5722 PWs)   bands (ev):

   -45.2852 -23.7541 -23.1102 -23.0218 -20.5673 -12.8274  -2.9690  -2.5121
    -2.3959  -1.0203   0.7398   1.3270   3.8499   5.7565   6.0316   6.2347
     6.9603   7.0833   8.5199   9.6298  11.8086  13.7840  14.2140  15.1376
    15.3019  17.7341

          k = 0.0000 0.2187 0.0000 (  5720 PWs)   bands (ev):

   -45.2746 -23.7170 -23.2372 -23.0442 -20.5416 -12.6920  -2.8558  -2.6236
    -2.4016  -0.9623   0.0048   1.1585   3.8340   5.7015   6.2810   6.2958
     7.2574   7.2746   9.0001  10.1087  12.1815  13.4198  13.8501  15.5362
    15.9759  17.4118

          k = 0.0000 0.2916 0.0000 (  5728 PWs)   bands (ev):

   -45.2620 -23.6814 -23.3691 -23.0705 -20.5208 -12.5230  -2.8499  -2.6313
    -2.4132  -1.0385  -0.6053   0.9748   3.7412   5.7846   6.4270   6.6642
     7.4384   7.6982   9.4856  10.5006  12.0157  13.0643  14.3974  16.0912
    16.6961  16.7892

          k = 0.0000 0.3645 0.0000 (  5752 PWs)   bands (ev):

   -45.2493 -23.6774 -23.4603 -23.0967 -20.5089 -12.3422  -2.9480  -2.5564
    -2.4295  -1.5647  -0.6801   0.8052   3.6230   5.9601   6.6847   7.0776
     7.6318   8.1940   9.8306  10.7739  11.9001  12.7490  15.0557  15.4893
    16.4797  16.6634

          k = 0.0000 0.4374 0.0000 (  5752 PWs)   bands (ev):

   -45.2386 -23.7289 -23.4764 -23.1187 -20.5048 -12.1782  -3.0446  -2.5203
    -2.4469  -2.0613  -0.6268   0.6710   3.5355   6.1753   6.9144   7.3864
     7.9100   8.7774   9.9797  10.9781  12.0242  12.7002  14.0163  15.3729
    15.9071  15.9583

          k = 0.0000 0.5103 0.0000 (  5740 PWs)   bands (ev):

   -45.2314 -23.7846 -23.4629 -23.1334 -20.5048 -12.0623  -3.1215  -2.5610
    -2.4602  -2.3209  -0.5807   0.5857   3.4926   6.3912   6.9730   7.5172
     8.2297   9.4147  10.0869  11.1333  12.0945  12.6801  13.3389  14.7899
    15.1788  15.5139

          k = 0.0000-0.5832 0.0000 (  5746 PWs)   bands (ev):

   -45.2289 -23.8061 -23.4557 -23.1385 -20.5054 -12.0202  -3.1544  -2.6123
    -2.4651  -2.3699  -0.5636   0.5565   3.4813   6.5074   6.9374   7.5509
     8.3700   9.7753  10.1394  11.2741  11.8243  12.5631  13.4959  14.2979
    14.9916  15.3339

          k = 0.0625 0.0364 0.0000 (  5668 PWs)   bands (ev):

   -45.2924 -23.7802 -23.0310 -22.9939 -20.5894 -12.9151  -3.0646  -2.4285
    -2.3772  -1.0787   1.2743   1.5082   3.8126   5.7863   5.9859   6.1329
     6.8590   6.9885   8.1612   9.1477  11.3892  14.1964  14.4067  15.0272
    15.2651  17.5695

          k = 0.0625 0.1093 0.0000 (  5693 PWs)   bands (ev):

   -45.2876 -23.7626 -23.0849 -23.0122 -20.5741 -12.8567  -2.9989  -2.4867
    -2.3895  -1.0381   0.9068   1.3830   3.8409   5.7490   6.0244   6.2306
     6.8732   7.0745   8.4059   9.4931  11.6785  13.9373  14.2459  15.0314
    15.3087  17.6960

          k = 0.0625 0.1822 0.0000 (  5714 PWs)   bands (ev):

   -45.2787 -23.7310 -23.1890 -23.0358 -20.5504 -12.7455  -2.8897  -2.5897
    -2.3999  -0.9793   0.2836   1.1995   3.8557   5.6622   6.2280   6.2992
     7.0436   7.2621   8.8244   9.9574  12.1807  13.4036  13.9259  15.2193
    15.8817  17.3089

          k = 0.0625 0.2551 0.0000 (  5720 PWs)   bands (ev):

   -45.2671 -23.6936 -23.3152 -23.0642 -20.5275 -12.5929  -2.8116  -2.6608
    -2.4145  -0.9541  -0.3912   0.9877   3.8113   5.6800   6.3419   6.6036
     7.2886   7.5637   9.3113  10.3958  12.2893  13.2313  13.7981  15.7239
    16.6023  16.8969

          k = 0.0625 0.3280 0.0000 (  5746 PWs)   bands (ev):

   -45.2545 -23.6699 -23.4265 -23.0943 -20.5115 -12.4172  -2.8849  -2.5929
    -2.4353  -1.2768  -0.6885   0.7800   3.7194   5.8414   6.4912   7.0089
     7.5085   8.0087   9.7410  10.7563  12.0373  12.8740  14.6596  15.7251
    16.2969  16.6895

          k = 0.0625 0.4009 0.0000 (  5744 PWs)   bands (ev):

   -45.2428 -23.6956 -23.4745 -23.1219 -20.5038 -12.2435  -2.9835  -2.5292
    -2.4614  -1.8138  -0.6557   0.6027   3.6337   6.0815   6.7075   7.3091
     7.7578   8.5949   9.9989  11.0133  12.0173  12.7012  14.5839  15.2212
    15.8742  16.6555

          k = 0.0625 0.4738 0.0000 (  5735 PWs)   bands (ev):

   -45.2338 -23.7542 -23.4680 -23.1429 -20.5021 -12.1019  -3.0661  -2.5523
    -2.4704  -2.1761  -0.6024   0.4747   3.5853   6.3264   6.8880   7.4464
     8.0114   9.3009  10.1350  11.1802  12.1476  12.7549  13.5508  14.8710
    15.3350  15.9632

          k = 0.0625 0.5467 0.0000 (  5736 PWs)   bands (ev):

   -45.2290 -23.7933 -23.4556 -23.1542 -20.5025 -12.0218  -3.1194  -2.6363
    -2.4678  -2.3025  -0.5703   0.4078   3.5689   6.5074   6.9408   7.4888
     8.1883   9.9033  10.2665  11.3121  11.9815  12.6060  13.4043  14.3770
    15.0114  15.3903

          k = 0.1250 0.0729 0.0000 (  5684 PWs)   bands (ev):

   -45.2856 -23.7550 -23.1193 -23.0088 -20.5675 -12.8307  -2.9709  -2.5240
    -2.3795  -1.0237   0.6955   1.3917   3.8396   5.6906   6.1184   6.2279
     6.9430   7.1190   8.5067   9.6194  11.7955  13.7456  14.1847  15.1174
    15.4290  17.6899

          k = 0.1250 0.1458 0.0000 (  5701 PWs)   bands (ev):

   -45.2790 -23.7318 -23.1933 -23.0287 -20.5505 -12.7480  -2.8909  -2.5948
    -2.3916  -0.9818   0.2600   1.2391   3.8462   5.6474   6.2613   6.2909
     7.0413   7.2745   8.8163   9.9529  12.1722  13.3871  13.9099  15.2139
    15.9308  17.3277

          k = 0.1250 0.2187 0.0000 (  5714 PWs)   bands (ev):

   -45.2692 -23.6991 -23.2944 -23.0608 -20.5300 -12.6193  -2.7930  -2.6762
    -2.4146  -0.9442  -0.2798   0.9763   3.8420   5.6037   6.3684   6.6097
     7.1838   7.5414   9.2450  10.3683  12.7417  12.9724  13.5037  15.5219
    16.5860  16.8670

          k = 0.1250 0.2916 0.0000 (  5729 PWs)   bands (ev):

   -45.2575 -23.6698 -23.3967 -23.0997 -20.5125 -12.4591  -2.8197  -2.6359
    -2.4473  -1.0827  -0.6718   0.6791   3.8179   5.6775   6.4757   6.9765
     7.4138   7.9383   9.6915  10.7969  12.5125  12.9845  13.7584  15.5613
    16.3642  16.8271

          k = 0.1250 0.3645 0.0000 (  5730 PWs)   bands (ev):

   -45.2459 -23.6708 -23.4615 -23.1389 -20.5015 -12.2885  -2.9097  -2.5515
    -2.4877  -1.5496  -0.6841   0.4062   3.7874   5.9004   6.5972   7.1917
     7.7118   8.5346  10.0553  11.1920  12.2820  12.7593  14.5689  14.9923
    15.6459  16.6650

          k = 0.1250 0.4374 0.0000 (  5735 PWs)   bands (ev):

   -45.2359 -23.7146 -23.4687 -23.1723 -20.4967 -12.1345  -2.9868  -2.5690
    -2.4838  -1.9472  -0.6329   0.1909   3.7731   6.2193   6.7065   7.3279
     7.8931   9.3154  10.2910  11.4734  12.2584  12.7513  13.9948  14.6161
    15.4515  16.4852

          k = 0.1250 0.5103 0.0000 (  5741 PWs)   bands (ev):

   -45.2293 -23.7596 -23.4553 -23.1948 -20.4957 -12.0261  -3.0396  -2.6655
    -2.4639  -2.1508  -0.5909   0.0533   3.7768   6.4986   6.8153   7.4075
     7.9388  10.0906  10.4905  11.5880  12.2598  12.7578  13.3187  14.3575
    15.0626  15.7821

          k = 0.1250 0.5832 0.0000 (  5734 PWs)   bands (ev):

   -45.2269 -23.7769 -23.4486 -23.2028 -20.4957 -11.9868  -3.0594  -2.7174
    -2.4597  -2.2014  -0.5752   0.0059   3.7814   6.5852   6.9103   7.4060
     7.9458  10.3117  10.8425  11.6782  11.9135  12.5956  13.4408  14.2222
    15.0285  15.2496

          k = 0.1250 0.0000 0.0000 (  5688 PWs)   bands (ev):

   -45.2879 -23.7634 -23.0916 -23.0027 -20.5742 -12.8591  -3.0003  -2.4964
    -2.3765  -1.0407   0.8790   1.4232   3.8355   5.6888   6.0954   6.2289
     6.8799   7.0844   8.3948   9.4846  11.6703  13.8975  14.2329  15.0476
    15.3875  17.6906

          k = 0.1875 0.1093 0.0000 (  5703 PWs)   bands (ev):

   -45.2754 -23.7191 -23.2436 -23.0300 -20.5418 -12.6991  -2.8591  -2.6322
    -2.3844  -0.9696  -0.0292   1.2314   3.8125   5.6709   6.2623   6.3731
     7.2580   7.2948   8.9788  10.0999  12.1687  13.3913  13.8129  15.5079
    16.0871  17.4247

          k = 0.1875 0.1822 0.0000 (  5717 PWs)   bands (ev):

   -45.2679 -23.6956 -23.3199 -23.0526 -20.5276 -12.5993  -2.8149  -2.6656
    -2.4016  -0.9627  -0.4167   1.0521   3.7895   5.6761   6.3414   6.6295
     7.3044   7.5634   9.2954  10.3924  12.2886  13.2066  13.7526  15.6987
    16.6653  16.9169

          k = 0.1875 0.2551 0.0000 (  5725 PWs)   bands (ev):

   -45.2580 -23.6710 -23.3988 -23.0935 -20.5124 -12.4630  -2.8221  -2.6366
    -2.4413  -1.0934  -0.6787   0.7138   3.8053   5.6804   6.4763   6.9824
     7.4255   7.9348   9.6836  10.7980  12.5215  12.9820  13.7102  15.5594
    16.3360  16.8065

          k = 0.1875 0.3280 0.0000 (  5722 PWs)   bands (ev):

   -45.2473 -23.6633 -23.4536 -23.1453 -20.5002 -12.3073  -2.8730  -2.5701
    -2.4943  -1.4302  -0.7017   0.3174   3.8576   5.7725   6.6488   7.0858
     7.7238   8.5171  10.0730  11.2671  12.6285  12.8298  13.9972  14.8369
    15.9502  16.4550

          k = 0.1875 0.4009 0.0000 (  5743 PWs)   bands (ev):

   -45.2374 -23.6866 -23.4659 -23.1977 -20.4924 -12.1549  -2.9285  -2.5847
    -2.4903  -1.7514  -0.6685  -0.0411   3.9285   5.9916   6.7682   7.1406
     7.9079   9.3216  10.4035  11.7231  12.5346  12.8200  14.1079  14.7042
    15.0354  16.0563

          k = 0.1875 0.4738 0.0000 (  5746 PWs)   bands (ev):

   -45.2297 -23.7209 -23.4543 -23.2401 -20.4887 -12.0318  -2.9738  -2.6664
    -2.4565  -1.9625  -0.6389  -0.3005   3.9979   6.3092   6.7593   7.3007
     7.8843  10.1832  10.6463  12.0069  12.4521  12.9546  13.5886  14.2508
    15.1217  15.8555

          k = 0.1875 0.5467 0.0000 (  5737 PWs)   bands (ev):

   -45.2256 -23.7426 -23.4433 -23.2638 -20.4874 -11.9627  -2.9999  -2.7303
    -2.4432  -2.0530  -0.6296  -0.4285   4.0422   6.5641   6.7670   7.4255
     7.7471  10.5147  11.2600  12.0561  12.2808  12.7073  13.4620  14.3170
    14.8931  15.5125

          k = 0.1875-0.0364 0.0000 (  5697 PWs)   bands (ev):

   -45.2795 -23.7328 -23.1941 -23.0241 -20.5505 -12.7517  -2.8925  -2.5977
    -2.3843  -0.9854   0.2619   1.2482   3.8430   5.6161   6.2770   6.3199
     7.0704   7.2571   8.8032   9.9481  12.1672  13.3892  13.9060  15.2231
    15.9582  17.3184

          k = 0.2500 0.1458 0.0000 (  5721 PWs)   bands (ev):

   -45.2633 -23.6847 -23.3730 -23.0546 -20.5206 -12.5350  -2.8544  -2.6363
    -2.3944  -1.0555  -0.6237   1.0567   3.7123   5.7802   6.4075   6.7211
     7.4704   7.6846   9.4591  10.4976  12.0129  13.0346  14.3357  16.0379
    16.6148  16.8886

          k = 0.2500 0.2187 0.0000 (  5726 PWs)   bands (ev):

   -45.2558 -23.6731 -23.4302 -23.0794 -20.5112 -12.4286  -2.8893  -2.5955
    -2.4194  -1.2987  -0.7009   0.8604   3.6901   5.8457   6.4871   7.0334
     7.5356   7.9971   9.7205  10.7603  12.0348  12.8467  14.5790  15.6569
    16.2806  16.7006

          k = 0.2500 0.2916 0.0000 (  5742 PWs)   bands (ev):

   -45.2468 -23.6733 -23.4642 -23.1279 -20.5011 -12.2976  -2.9131  -2.5493
    -2.4801  -1.5662  -0.6918   0.4640   3.7665   5.9051   6.5971   7.2033
     7.7252   8.5280  10.0427  11.2022  12.2854  12.7500  14.5096  14.9345
    15.6026  16.6548

          k = 0.2500 0.3645 0.0000 (  5746 PWs)   bands (ev):

   -45.2379 -23.6877 -23.4673 -23.1922 -20.4921 -12.1600  -2.9298  -2.5790
    -2.4918  -1.7586  -0.6716  -0.0141   3.9192   5.9920   6.7697   7.1447
     7.9118   9.3183  10.3971  11.7323  12.5329  12.8404  14.1012  14.6242
    14.9963  16.1007

          k = 0.2500 0.4374 0.0000 (  5733 PWs)   bands (ev):

   -45.2303 -23.7033 -23.4542 -23.2582 -20.4855 -12.0377  -2.9527  -2.6574
    -2.4529  -1.8587  -0.6978  -0.4209   4.0972   6.1581   6.8105   7.2140
     7.9052  10.2000  10.7071  12.0765  12.6000  13.1942  13.8427  14.3443
    14.8162  15.3937

          k = 0.2500 0.5103 0.0000 (  5736 PWs)   bands (ev):

   -45.2252 -23.7112 -23.4409 -23.3090 -20.4817 -11.9528  -2.9878  -2.6906
    -2.4273  -1.8898  -0.8927  -0.5453   4.2391   6.4006   6.7216   7.3905
     7.7454  10.6102  11.2935  12.0217  12.9200  13.3601  13.5538  14.1218
    14.7972  15.3785

          k = 0.2500 0.5832 0.0000 (  5726 PWs)   bands (ev):

   -45.2234 -23.7130 -23.4356 -23.3283 -20.4805 -11.9224  -3.0063  -2.6942
    -2.4187  -1.8916  -1.0055  -0.5541   4.2931   6.5561   6.6738   7.4316
     7.6576  10.5898  11.9572  12.2195  12.2969  13.2910  13.7472  14.2055
    14.8118  15.4537

          k = 0.2500-0.0729 0.0000 (  5717 PWs)   bands (ev):

   -45.2684 -23.6965 -23.3175 -23.0513 -20.5272 -12.6039  -2.8152  -2.6657
    -2.3976  -0.9646  -0.4033   1.0431   3.7928   5.6616   6.3451   6.6515
     7.3202   7.5492   9.2836  10.3900  12.2949  13.2139  13.7758  15.7116
    16.6208  16.9041

          k = 0.2500 0.0000 0.0000 (  5720 PWs)   bands (ev):

   -45.2702 -23.7012 -23.2932 -23.0543 -20.5296 -12.6277  -2.7952  -2.6781
    -2.4041  -0.9510  -0.2702   0.9880   3.8376   5.5801   6.3825   6.6426
     7.2102   7.5256   9.2225  10.3633  12.7418  12.9949  13.5043  15.5175
    16.5613  16.8723

          k = 0.3125 0.1822 0.0000 (  5745 PWs)   bands (ev):

   -45.2513 -23.6807 -23.4633 -23.0791 -20.5080 -12.3598  -2.9521  -2.5589
    -2.4088  -1.5798  -0.6950   0.8951   3.5921   5.9680   6.6686   7.1134
     7.6634   8.1749   9.8046  10.7804  11.8870  12.7149  14.9483  15.4227
    16.5616  16.6107

          k = 0.3125 0.2551 0.0000 (  5727 PWs)   bands (ev):

   -45.2446 -23.6986 -23.4781 -23.1046 -20.5029 -12.2605  -2.9882  -2.5282
    -2.4444  -1.8295  -0.6700   0.6924   3.6025   6.0901   6.6982   7.3349
     7.7784   8.5796   9.9802  11.0272  11.9999  12.6670  14.4848  15.1744
    15.8658  16.6222

          k = 0.3125 0.3280 0.0000 (  5736 PWs)   bands (ev):

   -45.2374 -23.7166 -23.4721 -23.1583 -20.4957 -12.1492  -2.9906  -2.5554
    -2.4848  -1.9570  -0.6445   0.2606   3.7498   6.2241   6.7023   7.3444
     7.9010   9.3050  10.2774  11.5024  12.2484  12.7291  13.9208  14.6016
    15.3761  16.4510

          k = 0.3125 0.4009 0.0000 (  5741 PWs)   bands (ev):

   -45.2308 -23.7217 -23.4569 -23.2309 -20.4877 -12.0426  -2.9748  -2.6603
    -2.4568  -1.9666  -0.6427  -0.2615   3.9854   6.3054   6.7606   7.3086
     7.8889  10.1688  10.6359  12.0366  12.4699  12.9537  13.5155  14.2543
    15.0472  15.9020

          k = 0.3125 0.4738 0.0000 (  5729 PWs)   bands (ev):

   -45.2257 -23.7110 -23.4423 -23.3052 -20.4811 -11.9584  -2.9865  -2.6890
    -2.4270  -1.8908  -0.8769  -0.5471   4.2359   6.3952   6.7212   7.3942
     7.7491  10.5935  11.2908  12.0335  12.8999  13.3866  13.5271  14.1684
    14.7712  15.3592

          k = 0.3125 0.5467 0.0000 (  5711 PWs)   bands (ev):

   -45.2230 -23.6958 -23.4341 -23.3553 -20.4773 -11.9118  -3.0174  -2.6609
    -2.4048  -1.7430  -1.2704  -0.5653   4.4046   6.5209   6.6412   7.3523
     7.7182  10.5692  11.9532  12.1959  12.9766  13.2096  13.9457  14.1631
    14.9087  15.5342

          k = 0.3125-0.1093 0.0000 (  5725 PWs)   bands (ev):

   -45.2563 -23.6730 -23.4274 -23.0799 -20.5106 -12.4336  -2.8872  -2.5961
    -2.4167  -1.2844  -0.7000   0.8436   3.6988   5.8435   6.4913   7.0352
     7.5360   7.9916   9.7107  10.7588  12.0441  12.8526  14.6239  15.6632
    16.2757  16.6779

          k = 0.3125-0.0364 0.0000 (  5718 PWs)   bands (ev):

   -45.2590 -23.6720 -23.3942 -23.0917 -20.5114 -12.4727  -2.8194  -2.6382
    -2.4344  -1.0792  -0.6710   0.6981   3.8131   5.6689   6.4911   6.9928
     7.4305   7.9241   9.6631  10.7940  12.5438  12.9940  13.7566  15.5404
    16.3066  16.7931

          k = 0.3750 0.2187 0.0000 (  5733 PWs)   bands (ev):

   -45.2410 -23.7301 -23.4809 -23.0997 -20.5032 -12.2010  -3.0493  -2.5188
    -2.4241  -2.0685  -0.6452   0.7670   3.5044   6.1867   6.9077   7.4128
     7.9272   8.7518   9.9581  10.9857  11.9932  12.6541  13.9278  15.3092
    15.8114  16.0767

          k = 0.3750 0.2916 0.0000 (  5740 PWs)   bands (ev):

   -45.2361 -23.7553 -23.4729 -23.1242 -20.5005 -12.1242  -3.0719  -2.5411
    -2.4603  -2.1805  -0.6203   0.5682   3.5547   6.3387   6.8767   7.4769
     8.0133   9.2824  10.1204  11.1941  12.1094  12.7040  13.4781  14.8513
    15.2749  15.9892

          k = 0.3750 0.3645 0.0000 (  5726 PWs)   bands (ev):

   -45.2312 -23.7599 -23.4598 -23.1793 -20.4939 -12.0459  -3.0439  -2.6536
    -2.4618  -2.1486  -0.6060   0.1255   3.7548   6.5109   6.8002   7.4309
     7.9364  10.0635  10.4849  11.6297  12.2153  12.7080  13.2815  14.3438
    14.9990  15.7700

          k = 0.3750 0.4374 0.0000 (  5729 PWs)   bands (ev):

   -45.2271 -23.7417 -23.4469 -23.2535 -20.4858 -11.9784  -2.9993  -2.7234
    -2.4420  -2.0484  -0.6287  -0.3958   4.0318   6.5687   6.7519   7.4439
     7.7458  10.4757  11.2543  12.0729  12.2633  12.7176  13.4298  14.2973
    14.8669  15.4757

          k = 0.3750 0.5103 0.0000 (  5723 PWs)   bands (ev):

   -45.2244 -23.7107 -23.4379 -23.3238 -20.4791 -11.9328  -3.0031  -2.6899
    -2.4175  -1.8835  -0.9875  -0.5623   4.2934   6.5622   6.6545   7.4356
     7.6652  10.5559  11.9699  12.1800  12.2499  13.3801  13.7639  14.2080
    14.7887  15.4272

          k = 0.3750 0.5832 0.0000 (  5726 PWs)   bands (ev):

   -45.2234 -23.6934 -23.4349 -23.3550 -20.4766 -11.9167  -3.0157  -2.6576
    -2.4039  -1.7261  -1.2780  -0.5700   4.4088   6.5287   6.6274   7.3494
     7.7230  10.5517  11.9662  12.1129  13.0256  13.2077  14.0357  14.1189
    14.8919  15.5264

          k = 0.3750-0.1458 0.0000 (  5749 PWs)   bands (ev):

   -45.2451 -23.6963 -23.4774 -23.1058 -20.5022 -12.2650  -2.9855  -2.5291
    -2.4420  -1.8139  -0.6720   0.6754   3.6126   6.0931   6.7082   7.3253
     7.7742   8.5694   9.9697  11.0274  12.0039  12.6677  14.4966  15.2035
    15.8367  16.6499

          k = 0.3750-0.0729 0.0000 (  5732 PWs)   bands (ev):

   -45.2478 -23.6706 -23.4612 -23.1291 -20.4997 -12.3071  -2.9084  -2.5513
    -2.4737  -1.5357  -0.6952   0.4369   3.7819   5.9036   6.6059   7.2087
     7.7114   8.5130  10.0223  11.1978  12.3037  12.7583  14.5614  14.9437
    15.6187  16.6280

          k = 0.3750 0.0000 0.0000 (  5730 PWs)   bands (ev):

   -45.2488 -23.6619 -23.4503 -23.1427 -20.4984 -12.3218  -2.8686  -2.5708
    -2.4851  -1.3991  -0.7072   0.3048   3.8674   5.7673   6.6624   7.0969
     7.7130   8.4988  10.0440  11.2617  12.6348  12.8870  14.0221  14.8155
    15.9437  16.4084

          k = 0.4375 0.2551 0.0000 (  5730 PWs)   bands (ev):

   -45.2341 -23.7842 -23.4686 -23.1134 -20.5027 -12.0889  -3.1279  -2.5532
    -2.4360  -2.3242  -0.6017   0.6854   3.4611   6.4017   6.9788   7.5466
     8.2223   9.3826  10.0692  11.1312  12.0357  12.6116  13.2922  14.7347
    15.0955  15.6424

          k = 0.4375 0.3280 0.0000 (  5726 PWs)   bands (ev):

   -45.2315 -23.7927 -23.4614 -23.1351 -20.5003 -12.0477  -3.1260  -2.6232
    -2.4576  -2.2972  -0.5905   0.5005   3.5402   6.5189   6.9416   7.5181
     8.1735   9.8696  10.2651  11.3144  11.9021  12.5504  13.3753  14.3312
    14.9415  15.4724

          k = 0.4375 0.4009 0.0000 (  5728 PWs)   bands (ev):

   -45.2292 -23.7753 -23.4537 -23.1874 -20.4934 -12.0101  -3.0627  -2.7039
    -2.4560  -2.1913  -0.5922   0.0731   3.7633   6.5949   6.9067   7.4286
     7.9338  10.2636  10.8390  11.7157  11.8398  12.5642  13.4170  14.1810
    14.9853  15.2644

          k = 0.4375 0.4738 0.0000 (  5731 PWs)   bands (ev):

   -45.2274 -23.7391 -23.4473 -23.2545 -20.4852 -11.9817  -2.9979  -2.7191
    -2.4414  -2.0391  -0.6289  -0.4071   4.0375   6.5726   6.7523   7.4532
     7.7306  10.4652  11.1918  12.0849  12.2986  12.7216  13.4248  14.3011
    14.8806  15.4930

          k = 0.4375 0.5467 0.0000 (  5727 PWs)   bands (ev):

   -45.2265 -23.7057 -23.4432 -23.3064 -20.4798 -11.9665  -2.9840  -2.6808
    -2.4256  -1.8650  -0.8887  -0.5590   4.2465   6.4024   6.7079   7.4118
     7.7301  10.5713  11.2070  12.0488  12.8905  13.4144  13.5896  14.1412
    14.7859  15.3856

          k = 0.4375-0.1822 0.0000 (  5733 PWs)   bands (ev):

   -45.2364 -23.7529 -23.4730 -23.1253 -20.4999 -12.1274  -3.0693  -2.5409
    -2.4591  -2.1704  -0.6219   0.5558   3.5625   6.3374   6.8977   7.4639
     8.0117   9.2618  10.1068  11.1967  12.1119  12.6987  13.4874  14.8709
    15.2708  15.9917

          k = 0.4375-0.1093 0.0000 (  5742 PWs)   bands (ev):

   -45.2382 -23.7116 -23.4720 -23.1604 -20.4943 -12.1570  -2.9859  -2.5533
    -2.4820  -1.9321  -0.6479   0.2350   3.7649   6.2289   6.7093   7.3516
     7.8809   9.2778  10.2499  11.5019  12.2564  12.7245  13.9425  14.6142
    15.4078  16.4746

          k = 0.4375-0.0364 0.0000 (  5748 PWs)   bands (ev):

   -45.2392 -23.6816 -23.4667 -23.1933 -20.4901 -12.1730  -2.9243  -2.5728
    -2.4893  -1.7200  -0.6774  -0.0424   3.9363   5.9918   6.7656   7.1700
     7.8859   9.2874  10.3599  11.7235  12.5282  12.8822  14.0992  14.6871
    15.0284  16.0749

          k =-0.5000-0.2916 0.0000 (  5734 PWs)   bands (ev):

   -45.2316 -23.8052 -23.4619 -23.1182 -20.5030 -12.0483  -3.1616  -2.6019
    -2.4405  -2.3719  -0.5855   0.6575   3.4496   6.5150   6.9507   7.5820
     8.3515   9.7342  10.1363  11.2613  11.7417  12.5041  13.4586  14.2466
    14.9101  15.4686

          k =-0.5000-0.2187 0.0000 (  5724 PWs)   bands (ev):

   -45.2316 -23.7918 -23.4615 -23.1356 -20.5001 -12.0489  -3.1247  -2.6225
    -2.4573  -2.2943  -0.5911   0.4960   3.5430   6.5146   6.9566   7.5106
     8.1749   9.8533  10.2582  11.3136  11.9146  12.5474  13.3680  14.3435
    14.9576  15.4595

          k =-0.5000-0.1458 0.0000 (  5735 PWs)   bands (ev):

   -45.2317 -23.7565 -23.4602 -23.1808 -20.4931 -12.0503  -3.0406  -2.6498
    -2.4609  -2.1369  -0.6077   0.1103   3.7638   6.5061   6.8225   7.4288
     7.9237  10.0388  10.4475  11.6316  12.2376  12.7024  13.2831  14.3615
    15.0213  15.7717

          k =-0.5000-0.0729 0.0000 (  5749 PWs)   bands (ev):

   -45.2317 -23.7155 -23.4576 -23.2331 -20.4862 -12.0517  -2.9708  -2.6520
    -2.4553  -1.9390  -0.6454  -0.2884   4.0001   6.3127   6.7514   7.3345
     7.8593  10.1405  10.5767  12.0332  12.4655  12.9738  13.5499  14.2589
    15.0929  15.9074

          k =-0.5000-0.0000 0.0000 (  5756 PWs)   bands (ev):

   -45.2317 -23.6960 -23.4556 -23.2580 -20.4834 -12.0523  -2.9485  -2.6459
    -2.4515  -1.8223  -0.7019  -0.4436   4.1112   6.1587   6.7933   7.2523
     7.8760  10.1648  10.6371  12.0843  12.5682  13.2710  13.8587  14.3601
    14.8287  15.4132

     highest occupied, lowest unoccupied level (ev):     4.4088    5.5801

!    total energy              =    -571.23433687 Ry
     total all-electron energy =    -12610.611748 Ry
     estimated scf accuracy    <          1.1E-11 Ry

     The total energy is the sum of the following terms:
     one-electron contribution =    -279.07097127 Ry
     hartree contribution      =     148.13813698 Ry
     xc contribution           =     -36.36428735 Ry
     ewald contribution        =      -7.08099286 Ry
     one-center paw contrib.   =    -396.85622238 Ry

     convergence has been achieved in   4 iterations

     negative rho (up, down):  2.763E-05 0.000E+00

     Forces acting on atoms (cartesian axes, Ry/au):

     atom    1 type  1   force =     0.00000000    0.00007134   -0.00004089
     atom    2 type  2   force =     0.00000000   -0.00009261   -0.00005725
     atom    3 type  3   force =     0.00000000    0.00002127    0.00009814
     The non-local contrib.  to forces
     atom    1 type  1   force =     0.00000000   -0.00185593   -0.02420610
     atom    2 type  2   force =     0.00000000   -0.01407810   -1.01455965
     atom    3 type  3   force =     0.00000000   -0.00078151    0.21133078
     The ionic contribution  to forces
     atom    1 type  1   force =    -0.00000001   -0.10445775   -0.64192599
     atom    2 type  2   force =     0.00000001    0.07692593   24.89761822
     atom    3 type  3   force =     0.00000000    0.02753182  -24.25569223
     The local contribution  to forces
     atom    1 type  1   force =    -0.00000000    0.10630655    0.66204147
     atom    2 type  2   force =     0.00000027   -0.06298396  -23.88640555
     atom    3 type  3   force =    -0.00000000   -0.02665754   24.04696862
     The core correction contribution to forces
     atom    1 type  1   force =     0.00000000    0.00007950    0.00405093
     atom    2 type  2   force =     0.00000000    0.00004447    0.00329133
     atom    3 type  3   force =    -0.00000000   -0.00007081   -0.00251736
     The Hubbard contrib.    to forces
     atom    1 type  1   force =     0.00000000    0.00000000    0.00000000
     atom    2 type  2   force =     0.00000000    0.00000000    0.00000000
     atom    3 type  3   force =     0.00000000    0.00000000    0.00000000
     The SCF correction term to forces
     atom    1 type  1   force =    -0.00000000   -0.00000102   -0.00000306
     atom    2 type  2   force =    -0.00000000   -0.00000096   -0.00000348
     atom    3 type  3   force =    -0.00000000   -0.00000069    0.00000646

     Total force =     0.000169     Total SCF correction =     0.000008
     Energy error            =      4.2E-08 Ry
     Gradient error          =      9.8E-05 Ry/Bohr

     bfgs converged in  10 scf cycles and   9 bfgs steps
     (criteria: energy <  1.0E-05 Ry, force <  1.0E-04 Ry/Bohr)

     End of BFGS Geometry Optimization

     Final energy             =    -571.2343368657 Ry

     File ./tmp/ZrFBr.bfgs deleted, as requested
Begin final coordinates

ATOMIC_POSITIONS (angstrom)
Zr            0.0000000000        0.0114419813       10.1026653275
F            -0.0000000020        1.9241022741       11.4162345553
Br           -0.0000000020        1.9262635078        8.1992788302
End final coordinates



     Writing all to output data dir ./tmp/ZrFBr.save/

     init_run     :      0.58s CPU      0.61s WALL (       1 calls)
     electrons    :    100.93s CPU    103.40s WALL (      10 calls)
     update_pot   :      1.04s CPU      1.11s WALL (       9 calls)
     forces       :      1.82s CPU      1.83s WALL (      10 calls)

     Called by init_run:
     wfcinit      :      0.43s CPU      0.44s WALL (       1 calls)
     potinit      :      0.07s CPU      0.08s WALL (       1 calls)
     hinit0       :      0.06s CPU      0.07s WALL (       1 calls)

     Called by electrons:
     c_bands      :     85.86s CPU     87.49s WALL (      72 calls)
     sum_band     :     11.91s CPU     12.21s WALL (      72 calls)
     v_of_rho     :      0.24s CPU      0.24s WALL (      72 calls)
     newd         :      0.38s CPU      0.45s WALL (      72 calls)
     PAW_pot      :      3.31s CPU      3.96s WALL (      81 calls)
     mix_rho      :      0.02s CPU      0.02s WALL (      72 calls)

     Called by c_bands:
     init_us_2    :      0.65s CPU      0.66s WALL (   11972 calls)
     init_us_2:cp :      0.64s CPU      0.65s WALL (   11972 calls)
     cegterg      :     84.44s CPU     86.05s WALL (    5256 calls)

     Called by *egterg:
     cdiaghg      :     12.96s CPU     13.06s WALL (   16127 calls)
     h_psi        :     49.71s CPU     51.04s WALL (   17587 calls)
     s_psi        :      2.53s CPU      2.57s WALL (   17587 calls)
     g_psi        :      0.12s CPU      0.12s WALL (   12258 calls)

     Called by h_psi:
     h_psi:calbec :      4.33s CPU      4.44s WALL (   17587 calls)
     vloc_psi     :     42.74s CPU     43.89s WALL (   17587 calls)
     add_vuspsi   :      2.52s CPU      2.58s WALL (   17587 calls)

     General routines
     calbec       :      7.41s CPU      7.59s WALL (   26420 calls)
     fft          :      0.14s CPU      0.14s WALL (     921 calls)
     ffts         :      0.01s CPU      0.01s WALL (      72 calls)
     fftw         :     48.43s CPU     49.70s WALL (  766080 calls)

     Parallel routines

     PWSCF        :   1m45.70s CPU   1m48.62s WALL


   This run was terminated on:   9: 2:12  18Sep2026            

=------------------------------------------------------------------------------=
   JOB DONE.
=------------------------------------------------------------------------------=
Note: The following floating-point exceptions are signalling: IEEE_INVALID_FLAG
