
     Program PWSCF v.7.2 starts on 28Aug2026 at  9:52:24 

     This program is part of the open-source Quantum ESPRESSO suite
     for quantum simulation of materials; please cite
         "P. Giannozzi et al., J. Phys.:Condens. Matter 21 395502 (2009);
         "P. Giannozzi et al., J. Phys.:Condens. Matter 29 465901 (2017);
         "P. Giannozzi et al., J. Chem. Phys. 152 154105 (2020);
          URL http://www.quantum-espresso.org", 
     in publications or presentations arising from this work. More details at
     http://www.quantum-espresso.org/quote

     Parallel version (MPI), running on    32 processors

     MPI processes distributed on     1 nodes
     90655 MiB available memory on the printing compute node when the environment starts

     Waiting for input...
     Reading input from standard input

     Current dimensions of program PWSCF are:
     Max number of different atomic species (ntypx) = 10
     Max number of k-points (npk) =  40000
     Max angular momentum in pseudopotentials (lmaxx) =  4
     file Zr.pbe-spn-kjpaw_psl.1.0.0.UPF: wavefunction(s)  4S 4P renormalized
     file F.pbe-n-kjpaw_psl.1.0.0.UPF: wavefunction(s)  2S 2P renormalized
     file Cl.pbe-n-kjpaw_psl.1.0.0.UPF: wavefunction(s)  3S 3P renormalized
     Message from routine setup:
     using ibrav=0 with symmetry is DISCOURAGED, use correct ibrav instead

     R & G space division:  proc/nbgrp/npool/nimage =      32
     Subspace diagonalization in iterative solution of the eigenvalue problem:
     a serial algorithm will be used


     Parallelization info
     --------------------
     sticks:   dense  smooth     PW     G-vecs:    dense   smooth      PW
     Min          21      21      6                 1369     1369     218
     Max          22      22      7                 1384     1384     231
     Sum         673     673    199                43897    43897    7067

     Using Slab Decomposition



     bravais-lattice index     =            0
     lattice parameter (alat)  =       6.1584  a.u.
     unit-cell volume          =     620.6714 (a.u.)^3
     number of atoms/cell      =            3
     number of atomic types    =            3
     number of electrons       =        26.00
     number of Kohn-Sham states=           26
     kinetic-energy cutoff     =      65.0000  Ry
     charge density cutoff     =     260.0000  Ry
     scf convergence threshold =      1.0E-06
     mixing beta               =       0.7000
     number of iterations used =            8  plain     mixing
     Exchange-correlation= SLA  PW   PBX  PBC
                           (   1   4   3   4   0   0   0)

     celldm(1)=   6.158375  celldm(2)=   0.000000  celldm(3)=   0.000000
     celldm(4)=   0.000000  celldm(5)=   0.000000  celldm(6)=   0.000000

     crystal axes: (cart. coord. in units of alat)
               a(1) = (   1.000000  -0.000000   0.000000 )  
               a(2) = (  -0.500000   0.866025  -0.000000 )  
               a(3) = (  -0.000000  -0.000000   3.068547 )  

     reciprocal axes: (cart. coord. in units 2 pi/alat)
               b(1) = (  1.000000  0.577350  0.000000 )  
               b(2) = (  0.000000  1.154701  0.000000 )  
               b(3) = (  0.000000  0.000000  0.325887 )  


     PseudoPot. # 1 for Zr read from file:
     /mgpfs/home/rabdillah/repo/qe/pseudo/Zr.pbe-spn-kjpaw_psl.1.0.0.UPF
     MD5 check sum: 02112c41713a0468aff2bb39ef194e36
     Pseudo is Projector augmented-wave + core cor, Zval = 12.0
     Generated using &quot;atomic&quot; code by A. Dal Corso  v.6.2.2
     Shape of augmentation charge: PSQ
     Using radial grid of 1225 points,  6 beta functions with: 
                l(1) =   0
                l(2) =   0
                l(3) =   1
                l(4) =   1
                l(5) =   2
                l(6) =   2
     Q(r) pseudized with 0 coefficients 


     PseudoPot. # 2 for F  read from file:
     /mgpfs/home/rabdillah/repo/qe/pseudo/F.pbe-n-kjpaw_psl.1.0.0.UPF
     MD5 check sum: 66d718ea72839a4268ab2a9540e8cdd4
     Pseudo is Projector augmented-wave + core cor, Zval =  7.0
     Generated using &quot;atomic&quot; code by A. Dal Corso  v.6.3
     Shape of augmentation charge: PSQ
     Using radial grid of 1105 points,  4 beta functions with: 
                l(1) =   0
                l(2) =   0
                l(3) =   1
                l(4) =   1
     Q(r) pseudized with 0 coefficients 


     PseudoPot. # 3 for Cl read from file:
     /mgpfs/home/rabdillah/repo/qe/pseudo/Cl.pbe-n-kjpaw_psl.1.0.0.UPF
     MD5 check sum: 530da96d25dcb7781b0586ca00827062
     Pseudo is Projector augmented-wave + core cor, Zval =  7.0
     Generated using &quot;atomic&quot; code by A. Dal Corso  v.6.3
     Shape of augmentation charge: PSQ
     Using radial grid of 1157 points,  6 beta functions with: 
                l(1) =   0
                l(2) =   0
                l(3) =   1
                l(4) =   1
                l(5) =   2
                l(6) =   2
     Q(r) pseudized with 0 coefficients 


     atomic species   valence    mass     pseudopotential
        Zr            12.00    91.22400     Zr( 1.00)
        F              7.00    18.99800     F ( 1.00)
        Cl             7.00    35.45300     Cl( 1.00)

      6 Sym. Ops. (no inversion) found



   Cartesian axes

     site n.     atom                  positions (alat units)
         1           Zr  tau(   1) = (   0.0000000   0.0000000   2.9367110  )
         2           F   tau(   2) = (  -0.0000000   0.5773503   3.3457383  )
         3           Cl  tau(   3) = (  -0.0000000   0.5773503   2.3972960  )

     number of k points=  5590

     Number of k-points >= 100: set verbosity='high' to print them.

     Dense  grid:    43897 G-vectors     FFT dimensions: (  32,  32, 100)

     Estimated max dynamical RAM per process >     388.14 MB

     Estimated total dynamical RAM >      12.13 GB

     Check: negative core charge=   -0.000005

     Initial potential from superposition of free atoms

     starting charge      25.9978, renormalised to      26.0000

     negative rho (up, down):  6.270E-06 0.000E+00
     Starting wfcs are   21 randomized atomic wfcs +    5 random wfcs
     Checking if some PAW data can be deallocated... 

     total cpu time spent up to now is       53.8 secs

     Self-consistent Calculation

     iteration #  1     ecut=    65.00 Ry     beta= 0.70
     Davidson diagonalization with overlap
     ethr =  1.00E-02,  avg # of iterations =  6.2

     Threshold (ethr) on eigenvalues was too large:
     Diagonalizing with lowered threshold

     Davidson diagonalization with overlap
     ethr =  7.99E-04,  avg # of iterations =  1.1

     negative rho (up, down):  6.209E-05 0.000E+00

     total cpu time spent up to now is      507.5 secs

     total energy              =    -446.15600327 Ry
     estimated scf accuracy    <       0.20964563 Ry

     iteration #  2     ecut=    65.00 Ry     beta= 0.70
     Davidson diagonalization with overlap
     ethr =  8.06E-04,  avg # of iterations =  3.8

     negative rho (up, down):  3.878E-05 0.000E+00

     total cpu time spent up to now is      709.8 secs

     total energy              =    -446.16109076 Ry
     estimated scf accuracy    <       0.34878274 Ry

     iteration #  3     ecut=    65.00 Ry     beta= 0.70
     Davidson diagonalization with overlap
     ethr =  8.06E-04,  avg # of iterations =  2.2

     negative rho (up, down):  4.954E-05 0.000E+00

     total cpu time spent up to now is      941.9 secs

     total energy              =    -446.24004224 Ry
     estimated scf accuracy    <       0.02380124 Ry

     iteration #  4     ecut=    65.00 Ry     beta= 0.70
     Davidson diagonalization with overlap
     ethr =  9.15E-05,  avg # of iterations =  2.5

     negative rho (up, down):  7.134E-05 0.000E+00

     total cpu time spent up to now is     1141.7 secs

     total energy              =    -446.24451653 Ry
     estimated scf accuracy    <       0.00164821 Ry

     iteration #  5     ecut=    65.00 Ry     beta= 0.70
     Davidson diagonalization with overlap
     c_bands:  1 eigenvalues not converged
     c_bands:  1 eigenvalues not converged
     ethr =  6.34E-06,  avg # of iterations =  5.7

     negative rho (up, down):  8.202E-05 0.000E+00

     total cpu time spent up to now is     1335.6 secs

     total energy              =    -446.24479581 Ry
     estimated scf accuracy    <       0.00108867 Ry

     iteration #  6     ecut=    65.00 Ry     beta= 0.70
     Davidson diagonalization with overlap
     ethr =  4.19E-06,  avg # of iterations =  2.2

     negative rho (up, down):  8.527E-05 0.000E+00

     total cpu time spent up to now is     1527.3 secs

     total energy              =    -446.24502493 Ry
     estimated scf accuracy    <       0.00001977 Ry

     iteration #  7     ecut=    65.00 Ry     beta= 0.70
     Davidson diagonalization with overlap
     ethr =  7.60E-08,  avg # of iterations =  2.9

     negative rho (up, down):  8.609E-05 0.000E+00

     total cpu time spent up to now is     1748.0 secs

     End of self-consistent calculation

     Number of k-points >= 100: set verbosity='high' to print the bands.

     highest occupied, lowest unoccupied level (ev):     4.0173    5.2918

!    total energy              =    -446.24503045 Ry
     total all-electron energy =     -8320.715310 Ry
     estimated scf accuracy    <       0.00000043 Ry

     The total energy is the sum of the following terms:
     one-electron contribution =    -303.88586037 Ry
     hartree contribution      =     160.09418001 Ry
     xc contribution           =     -38.51414292 Ry
     ewald contribution        =       2.68574616 Ry
     one-center paw contrib.   =    -266.62495333 Ry

     convergence has been achieved in   7 iterations

     Writing all to output data dir ./out/ZrFCl.save/

     init_run     :     51.84s CPU     53.12s WALL (       1 calls)
     electrons    :   1655.51s CPU   1694.27s WALL (       1 calls)

     Called by init_run:
     wfcinit      :     51.49s CPU     52.72s WALL (       1 calls)
     potinit      :      0.12s CPU      0.14s WALL (       1 calls)
     hinit0       :      0.15s CPU      0.16s WALL (       1 calls)

     Called by electrons:
     c_bands      :   1486.38s CPU   1519.90s WALL (       8 calls)
     sum_band     :    168.53s CPU    173.65s WALL (       8 calls)
     v_of_rho     :      0.03s CPU      0.03s WALL (       8 calls)
     newd         :      0.11s CPU      0.12s WALL (       8 calls)
     PAW_pot      :      0.53s CPU      0.64s WALL (       8 calls)
     mix_rho      :      0.00s CPU      0.00s WALL (       8 calls)

     Called by c_bands:
     init_us_2    :      8.63s CPU      8.86s WALL (   95030 calls)
     init_us_2:cp :      8.47s CPU      8.72s WALL (   95030 calls)
     cegterg      :   1451.89s CPU   1483.89s WALL (   44720 calls)

     Called by *egterg:
     cdiaghg      :    214.40s CPU    216.81s WALL (  188617 calls)
     h_psi        :    810.67s CPU    835.55s WALL (  199797 calls)
     s_psi        :     53.77s CPU     54.52s WALL (  199797 calls)
     g_psi        :      1.42s CPU      1.44s WALL (  149487 calls)

     Called by h_psi:
     h_psi:calbec :    104.44s CPU    106.97s WALL (  199797 calls)
     vloc_psi     :    649.57s CPU    671.24s WALL (  199797 calls)
     add_vuspsi   :     54.33s CPU     55.00s WALL (  199797 calls)

     General routines
     calbec       :    143.22s CPU    146.76s WALL (  244517 calls)
     fft          :      0.03s CPU      0.03s WALL (      89 calls)
     ffts         :      0.00s CPU      0.00s WALL (       8 calls)
     fftw         :    727.84s CPU    752.20s WALL ( 7167990 calls)

     Parallel routines

     PWSCF        :  28m56.01s CPU  30m10.51s WALL


   This run was terminated on:  10:22:35  28Aug2026            

=------------------------------------------------------------------------------=
   JOB DONE.
=------------------------------------------------------------------------------=
