
     Program PWSCF v.7.2 starts on 18Sep2026 at  9:14: 0 

     This program is part of the open-source Quantum ESPRESSO suite
     for quantum simulation of materials; please cite
         "P. Giannozzi et al., J. Phys.:Condens. Matter 21 395502 (2009);
         "P. Giannozzi et al., J. Phys.:Condens. Matter 29 465901 (2017);
         "P. Giannozzi et al., J. Chem. Phys. 152 154105 (2020);
          URL http://www.quantum-espresso.org", 
     in publications or presentations arising from this work. More details at
     http://www.quantum-espresso.org/quote

     Parallel version (MPI), running on    32 processors

     MPI processes distributed on     1 nodes
     228827 MiB available memory on the printing compute node when the environment starts

     Waiting for input...
     Reading input from standard input

     Current dimensions of program PWSCF are:
     Max number of different atomic species (ntypx) = 10
     Max number of k-points (npk) =  40000
     Max angular momentum in pseudopotentials (lmaxx) =  4
     file Zr.pbe-spn-kjpaw_psl.1.0.0.UPF: wavefunction(s)  4S 4P renormalized
     file F.pbe-n-kjpaw_psl.1.0.0.UPF: wavefunction(s)  2S 2P renormalized
     file Cl.pbe-n-kjpaw_psl.1.0.0.UPF: wavefunction(s)  3S 3P renormalized
     Message from routine setup:
     using ibrav=0 with symmetry is DISCOURAGED, use correct ibrav instead

     R & G space division:  proc/nbgrp/npool/nimage =      32
     Subspace diagonalization in iterative solution of the eigenvalue problem:
     a serial algorithm will be used


     Parallelization info
     --------------------
     sticks:   dense  smooth     PW     G-vecs:    dense   smooth      PW
     Min          21      21      6                 1369     1369     214
     Max          22      22      7                 1384     1384     225
     Sum         673     673    199                43897    43897    6971

     Using Slab Decomposition



     bravais-lattice index     =            0
     lattice parameter (alat)  =       6.1584  a.u.
     unit-cell volume          =     620.6714 (a.u.)^3
     number of atoms/cell      =            3
     number of atomic types    =            3
     number of electrons       =        26.00
     number of Kohn-Sham states=           26
     kinetic-energy cutoff     =      65.0000  Ry
     charge density cutoff     =     260.0000  Ry
     scf convergence threshold =      1.0E-08
     mixing beta               =       0.7000
     number of iterations used =            8  plain     mixing
     energy convergence thresh.=      1.0E-05
     force convergence thresh. =      1.0E-04
     Exchange-correlation= SLA  PW   PBX  PBC
                           (   1   4   3   4   0   0   0)
     nstep                     =           50


     celldm(1)=   6.158375  celldm(2)=   0.000000  celldm(3)=   0.000000
     celldm(4)=   0.000000  celldm(5)=   0.000000  celldm(6)=   0.000000

     crystal axes: (cart. coord. in units of alat)
               a(1) = (   1.000000   0.000000   0.000000 )  
               a(2) = (  -0.500000   0.866025   0.000000 )  
               a(3) = (   0.000000   0.000000   3.068547 )  

     reciprocal axes: (cart. coord. in units 2 pi/alat)
               b(1) = (  1.000000  0.577350 -0.000000 )  
               b(2) = (  0.000000  1.154701  0.000000 )  
               b(3) = (  0.000000 -0.000000  0.325887 )  


     PseudoPot. # 1 for Zr read from file:
     /mgpfs/home/rabdillah/repo/qe/pseudo/Zr.pbe-spn-kjpaw_psl.1.0.0.UPF
     MD5 check sum: 02112c41713a0468aff2bb39ef194e36
     Pseudo is Projector augmented-wave + core cor, Zval = 12.0
     Generated using &quot;atomic&quot; code by A. Dal Corso  v.6.2.2
     Shape of augmentation charge: PSQ
     Using radial grid of 1225 points,  6 beta functions with: 
                l(1) =   0
                l(2) =   0
                l(3) =   1
                l(4) =   1
                l(5) =   2
                l(6) =   2
     Q(r) pseudized with 0 coefficients 


     PseudoPot. # 2 for F  read from file:
     /mgpfs/home/rabdillah/repo/qe/pseudo/F.pbe-n-kjpaw_psl.1.0.0.UPF
     MD5 check sum: 66d718ea72839a4268ab2a9540e8cdd4
     Pseudo is Projector augmented-wave + core cor, Zval =  7.0
     Generated using &quot;atomic&quot; code by A. Dal Corso  v.6.3
     Shape of augmentation charge: PSQ
     Using radial grid of 1105 points,  4 beta functions with: 
                l(1) =   0
                l(2) =   0
                l(3) =   1
                l(4) =   1
     Q(r) pseudized with 0 coefficients 


     PseudoPot. # 3 for Cl read from file:
     /mgpfs/home/rabdillah/repo/qe/pseudo/Cl.pbe-n-kjpaw_psl.1.0.0.UPF
     MD5 check sum: 530da96d25dcb7781b0586ca00827062
     Pseudo is Projector augmented-wave + core cor, Zval =  7.0
     Generated using &quot;atomic&quot; code by A. Dal Corso  v.6.3
     Shape of augmentation charge: PSQ
     Using radial grid of 1157 points,  6 beta functions with: 
                l(1) =   0
                l(2) =   0
                l(3) =   1
                l(4) =   1
                l(5) =   2
                l(6) =   2
     Q(r) pseudized with 0 coefficients 


     atomic species   valence    mass     pseudopotential
        Zr            12.00    91.22400     Zr( 1.00)
        F              7.00    18.99800     F ( 1.00)
        Cl             7.00    35.45300     Cl( 1.00)

      6 Sym. Ops. (no inversion) found



   Cartesian axes

     site n.     atom                  positions (alat units)
         1           Zr  tau(   1) = (   0.0000000   0.0000000   2.9367110  )
         2           F   tau(   2) = (  -0.0000000   0.5773503   3.3457383  )
         3           Cl  tau(   3) = (  -0.0000000   0.5773503   2.3972960  )

     number of k points=    30
                       cart. coord. in units 2pi/alat
        k(    1) = (   0.0000000   0.0000000   0.0000000), wk =   0.0078125
        k(    2) = (   0.0000000   0.0721688   0.0000000), wk =   0.0468750
        k(    3) = (   0.0000000   0.1443376   0.0000000), wk =   0.0468750
        k(    4) = (   0.0000000   0.2165064   0.0000000), wk =   0.0468750
        k(    5) = (   0.0000000   0.2886751   0.0000000), wk =   0.0468750
        k(    6) = (   0.0000000   0.3608439   0.0000000), wk =   0.0468750
        k(    7) = (   0.0000000   0.4330127   0.0000000), wk =   0.0468750
        k(    8) = (   0.0000000   0.5051815   0.0000000), wk =   0.0468750
        k(    9) = (   0.0000000  -0.5773503   0.0000000), wk =   0.0234375
        k(   10) = (   0.0625000   0.1082532   0.0000000), wk =   0.0468750
        k(   11) = (   0.0625000   0.1804220   0.0000000), wk =   0.0937500
        k(   12) = (   0.0625000   0.2525907   0.0000000), wk =   0.0937500
        k(   13) = (   0.0625000   0.3247595   0.0000000), wk =   0.0937500
        k(   14) = (   0.0625000   0.3969283   0.0000000), wk =   0.0937500
        k(   15) = (   0.0625000   0.4690971   0.0000000), wk =   0.0937500
        k(   16) = (   0.0625000   0.5412659   0.0000000), wk =   0.0937500
        k(   17) = (   0.1250000   0.2165064   0.0000000), wk =   0.0468750
        k(   18) = (   0.1250000   0.2886751   0.0000000), wk =   0.0937500
        k(   19) = (   0.1250000   0.3608439   0.0000000), wk =   0.0937500
        k(   20) = (   0.1250000   0.4330127   0.0000000), wk =   0.0937500
        k(   21) = (   0.1250000   0.5051815   0.0000000), wk =   0.0937500
        k(   22) = (   0.1250000   0.5773503   0.0000000), wk =   0.0468750
        k(   23) = (   0.1875000   0.3247595   0.0000000), wk =   0.0468750
        k(   24) = (   0.1875000   0.3969283   0.0000000), wk =   0.0937500
        k(   25) = (   0.1875000   0.4690971   0.0000000), wk =   0.0937500
        k(   26) = (   0.1875000   0.5412659   0.0000000), wk =   0.0937500
        k(   27) = (   0.2500000   0.4330127   0.0000000), wk =   0.0468750
        k(   28) = (   0.2500000   0.5051815   0.0000000), wk =   0.0937500
        k(   29) = (   0.2500000   0.5773503   0.0000000), wk =   0.0468750
        k(   30) = (   0.3125000   0.5412659   0.0000000), wk =   0.0468750

     Dense  grid:    43897 G-vectors     FFT dimensions: (  32,  32, 100)

     Estimated max dynamical RAM per process >      10.96 MB

     Estimated total dynamical RAM >     350.81 MB

     Check: negative core charge=   -0.000005

     Initial potential from superposition of free atoms

     starting charge      25.9978, renormalised to      26.0000

     negative rho (up, down):  6.270E-06 0.000E+00
     Starting wfcs are   21 randomized atomic wfcs +    5 random wfcs
     Checking if some PAW data can be deallocated... 

     total cpu time spent up to now is        0.7 secs

     Self-consistent Calculation

     iteration #  1     ecut=    65.00 Ry     beta= 0.70
     Davidson diagonalization with overlap
     ethr =  1.00E-02,  avg # of iterations =  6.2

     Threshold (ethr) on eigenvalues was too large:
     Diagonalizing with lowered threshold

     Davidson diagonalization with overlap
     ethr =  7.99E-04,  avg # of iterations =  1.1

     negative rho (up, down):  6.212E-05 0.000E+00

     total cpu time spent up to now is        2.1 secs

     total energy              =    -446.15601023 Ry
     estimated scf accuracy    <       0.20963879 Ry

     iteration #  2     ecut=    65.00 Ry     beta= 0.70
     Davidson diagonalization with overlap
     ethr =  8.06E-04,  avg # of iterations =  3.7

     negative rho (up, down):  3.883E-05 0.000E+00

     total cpu time spent up to now is        2.8 secs

     total energy              =    -446.16108963 Ry
     estimated scf accuracy    <       0.34878091 Ry

     iteration #  3     ecut=    65.00 Ry     beta= 0.70
     Davidson diagonalization with overlap
     ethr =  8.06E-04,  avg # of iterations =  2.2

     negative rho (up, down):  4.958E-05 0.000E+00

     total cpu time spent up to now is        3.4 secs

     total energy              =    -446.24004076 Ry
     estimated scf accuracy    <       0.02379581 Ry

     iteration #  4     ecut=    65.00 Ry     beta= 0.70
     Davidson diagonalization with overlap
     ethr =  9.15E-05,  avg # of iterations =  2.4

     negative rho (up, down):  7.135E-05 0.000E+00

     total cpu time spent up to now is        4.0 secs

     total energy              =    -446.24451732 Ry
     estimated scf accuracy    <       0.00164803 Ry

     iteration #  5     ecut=    65.00 Ry     beta= 0.70
     Davidson diagonalization with overlap
     ethr =  6.34E-06,  avg # of iterations =  5.4

     negative rho (up, down):  8.202E-05 0.000E+00

     total cpu time spent up to now is        4.8 secs

     total energy              =    -446.24479702 Ry
     estimated scf accuracy    <       0.00108817 Ry

     iteration #  6     ecut=    65.00 Ry     beta= 0.70
     Davidson diagonalization with overlap
     ethr =  4.19E-06,  avg # of iterations =  2.2

     negative rho (up, down):  8.528E-05 0.000E+00

     total cpu time spent up to now is        5.4 secs

     total energy              =    -446.24502594 Ry
     estimated scf accuracy    <       0.00001978 Ry

     iteration #  7     ecut=    65.00 Ry     beta= 0.70
     Davidson diagonalization with overlap
     ethr =  7.61E-08,  avg # of iterations =  2.9

     negative rho (up, down):  8.594E-05 0.000E+00

     total cpu time spent up to now is        6.0 secs

     total energy              =    -446.24503145 Ry
     estimated scf accuracy    <       0.00000043 Ry

     iteration #  8     ecut=    65.00 Ry     beta= 0.70
     Davidson diagonalization with overlap
     ethr =  1.64E-09,  avg # of iterations =  2.1

     negative rho (up, down):  8.615E-05 0.000E+00

     total cpu time spent up to now is        6.6 secs

     total energy              =    -446.24503157 Ry
     estimated scf accuracy    <       0.00000003 Ry

     iteration #  9     ecut=    65.00 Ry     beta= 0.70
     Davidson diagonalization with overlap
     ethr =  1.07E-10,  avg # of iterations =  2.0

     negative rho (up, down):  8.617E-05 0.000E+00

     total cpu time spent up to now is        7.2 secs

     End of self-consistent calculation

          k = 0.0000 0.0000 0.0000 (  5455 PWs)   bands (ev):

   -45.6580 -24.2243 -23.3127 -23.3127 -21.0635 -13.5959  -3.6908  -2.8422
    -2.8422  -1.7256  -0.0173  -0.0173   3.4450   5.4498   5.4498   5.7691
     6.6512   6.6512   7.7357   8.6132  10.9938  13.6500  14.5320  14.5320
    15.4437  17.1488

          k = 0.0000 0.0722 0.0000 (  5463 PWs)   bands (ev):

   -45.6549 -24.2132 -23.3531 -23.3189 -21.0528 -13.5727  -3.6529  -2.8855
    -2.8426  -1.7132  -0.1752  -0.0466   3.4542   5.4065   5.5080   5.8570
     6.6139   6.6990   7.8592   8.8071  11.1203  13.7283  14.2493  14.6337
    15.2531  17.1160

          k = 0.0000 0.1443 0.0000 (  5463 PWs)   bands (ev):

   -45.6459 -24.1819 -23.4633 -23.3365 -21.0267 -13.5054  -3.5520  -2.9949
    -2.8452  -1.6949  -0.5797  -0.1271   3.4545   5.3443   5.6863   5.9732
     6.7065   6.8275   8.2000   9.2507  11.4883  13.6051  13.9042  14.9365
    14.9445  17.0172

          k = 0.0000 0.2165 0.0000 (  5480 PWs)   bands (ev):

   -45.6325 -24.1379 -23.6146 -23.3627 -20.9983 -13.4016  -3.4315  -3.1201
    -2.8535  -1.7248  -1.0701  -0.2401   3.3968   5.3899   5.9883   6.0061
     7.0022   7.0773   8.6883   9.7589  11.9569  13.1437  13.6782  15.1303
    15.4288  16.8528

          k = 0.0000 0.2887 0.0000 (  5492 PWs)   bands (ev):

   -45.6165 -24.0994 -23.7656 -23.3934 -20.9780 -13.2741  -3.4053  -3.1584
    -2.8696  -1.9549  -1.3877  -0.3631   3.2812   5.5844   6.1011   6.4013
     7.1910   7.5814   9.2209  10.2455  11.9910  13.0679  13.6847  15.6447
    16.0393  16.6597

          k = 0.0000 0.3608 0.0000 (  5480 PWs)   bands (ev):

   -45.6005 -24.1129 -23.8520 -23.4238 -20.9699 -13.1403  -3.5038  -3.1004
    -2.8919  -2.3690  -1.4593  -0.4764   3.1622   5.8415   6.3281   6.8652
     7.3946   8.1539   9.6728  10.6548  11.8542  12.8687  14.3941  15.3330
    16.0856  16.3038

          k = 0.0000 0.4330 0.0000 (  5494 PWs)   bands (ev):

   -45.5869 -24.1913 -23.8495 -23.4495 -20.9712 -13.0215  -3.6118  -3.0811
    -2.9154  -2.7082  -1.4667  -0.5657   3.0818   6.0739   6.6162   7.2082
     7.6996   8.7845   9.9717  10.9821  11.9391  12.7865  14.0458  14.9317
    15.6567  15.8039

          k = 0.0000 0.5052 0.0000 (  5496 PWs)   bands (ev):

   -45.5778 -24.2621 -23.8252 -23.4665 -20.9760 -12.9390  -3.6947  -3.1364
    -2.9332  -2.8639  -1.4628  -0.6223   3.0441   6.2559   6.8015   7.3451
     8.0624   9.4294  10.1966  11.2537  12.0099  12.6807  13.2858  14.6442
    15.0853  15.2409

          k = 0.0000-0.5774 0.0000 (  5494 PWs)   bands (ev):

   -45.5746 -24.2884 -23.8146 -23.4725 -20.9783 -12.9094  -3.7273  -3.1778
    -2.9398  -2.8944  -1.4605  -0.6416   3.0344   6.3332   6.8476   7.3803
     8.2211   9.7911  10.2910  11.5024  11.7614  12.4406  13.3450  14.2939
    14.8795  15.0653

          k = 0.0625 0.1083 0.0000 (  5464 PWs)   bands (ev):

   -45.6488 -24.1920 -23.4274 -23.3319 -21.0345 -13.5274  -3.5831  -2.9606
    -2.8455  -1.6978  -0.4499  -0.1078   3.4598   5.3437   5.6369   5.9597
     6.6363   6.7955   8.0911   9.1206  11.3708  13.7404  13.9257  14.7621
    15.0692  17.0204

          k = 0.0625 0.1804 0.0000 (  5476 PWs)   bands (ev):

   -45.6376 -24.1540 -23.5553 -23.3566 -21.0075 -13.4418  -3.4679  -3.0773
    -2.8553  -1.6994  -0.8861  -0.2196   3.4356   5.3113   5.9009   6.0225
     6.8330   7.0033   8.5065   9.5835  11.8336  13.2598  13.7786  14.8422
    15.3843  16.8271

          k = 0.0625 0.2526 0.0000 (  5505 PWs)   bands (ev):

   -45.6229 -24.1109 -23.7041 -23.3888 -20.9837 -13.3258  -3.3769  -3.1694
    -2.8740  -1.8100  -1.2928  -0.3553   3.3571   5.4142   6.0501   6.3159
     7.0580   7.4017   9.0216  10.0756  12.1728  13.0341  13.4811  15.2670
    15.9240  16.6077

          k = 0.0625 0.3248 0.0000 (  5487 PWs)   bands (ev):

   -45.6070 -24.0931 -23.8234 -23.4236 -20.9701 -13.1946  -3.4336  -3.1304
    -2.9027  -2.1575  -1.4462  -0.4913   3.2526   5.6637   6.1689   6.7682
     7.2665   7.9410   9.5248  10.5365  11.9986  12.9637  13.8921  15.5549
    16.0572  16.3648

          k = 0.0625 0.3969 0.0000 (  5483 PWs)   bands (ev):

   -45.5922 -24.1453 -23.8547 -23.4555 -20.9672 -13.0674  -3.5410  -3.0797
    -2.9419  -2.5289  -1.4712  -0.6090   3.1689   5.9739   6.3719   7.1185
     7.5349   8.5854   9.9090  10.9168  11.9452  12.8128  14.5073  14.7556
    15.5812  16.3036

          k = 0.0625 0.4691 0.0000 (  5486 PWs)   bands (ev):

   -45.5808 -24.2243 -23.8337 -23.4799 -20.9707 -12.9657  -3.6329  -3.1204
    -2.9722  -2.7423  -1.4711  -0.6947   3.1247   6.2228   6.6238   7.2809
     7.8327   9.3145  10.1743  11.2123  12.0489  12.7985  13.5622  14.7210
    15.0617  15.7954

          k = 0.0625 0.5413 0.0000 (  5505 PWs)   bands (ev):

   -45.5746 -24.2729 -23.8145 -23.4931 -20.9744 -12.9090  -3.6885  -3.2016
    -2.9781  -2.8076  -1.4681  -0.7397   3.1100   6.3574   6.7945   7.3362
     8.0228   9.9375  10.3746  11.4547  11.9375  12.5329  13.2888  14.3193
    14.8739  15.2216

          k = 0.1250 0.2165 0.0000 (  5500 PWs)   bands (ev):

   -45.6252 -24.1159 -23.6765 -23.3922 -20.9858 -13.3437  -3.3646  -3.1702
    -2.8826  -1.7632  -1.2330  -0.3786   3.3990   5.3093   6.0734   6.3127
     6.9675   7.3583   8.9523  10.0192  12.3594  12.8578  13.4631  15.0750
    15.9269  16.5543

          k = 0.1250 0.2887 0.0000 (  5499 PWs)   bands (ev):

   -45.6104 -24.0869 -23.7914 -23.4365 -20.9695 -13.2233  -3.3610  -3.1670
    -2.9263  -2.0021  -1.4324  -0.5630   3.3518   5.4311   6.1827   6.7375
     7.1626   7.8569   9.4513  10.4906  12.4019  12.9926  13.2801  15.3386
    15.9521  16.8703

          k = 0.1250 0.3608 0.0000 (  5494 PWs)   bands (ev):

   -45.5956 -24.1069 -23.8470 -23.4817 -20.9621 -13.0973  -3.4533  -3.0901
    -2.9878  -2.3365  -1.4825  -0.7398   3.3140   5.7024   6.3082   7.0029
     7.4722   8.5155   9.9083  10.9476  12.1885  12.8589  13.9605  14.8958
    15.6955  16.2979

          k = 0.1250 0.4330 0.0000 (  5496 PWs)   bands (ev):

   -45.5831 -24.1738 -23.8372 -23.5204 -20.9621 -12.9856  -3.5390  -3.1194
    -3.0116  -2.5763  -1.4914  -0.8853   3.3006   6.0837   6.4149   7.1601
     7.7093   9.3256  10.2606  11.3255  12.1636  12.8079  14.0433  14.4722
    14.9822  16.1835

          k = 0.1250 0.5052 0.0000 (  5495 PWs)   bands (ev):

   -45.5746 -24.2319 -23.8139 -23.5464 -20.9651 -12.9082  -3.5970  -3.2370
    -2.9944  -2.6773  -1.4916  -0.9808   3.3052   6.4191   6.5328   7.2648
     7.7665  10.1433  10.5381  11.5581  12.1719  12.7858  13.2662  14.3309
    14.8114  15.7122

          k = 0.1250 0.5774 0.0000 (  5504 PWs)   bands (ev):

   -45.5717 -24.2535 -23.8039 -23.5557 -20.9667 -12.8804  -3.6178  -3.2892
    -2.9901  -2.7006  -1.4913  -1.0140   3.3098   6.4632   6.7030   7.2865
     7.7541  10.4234  10.8729  11.7613  11.8552  12.5406  13.3076  14.1384
    14.9464  15.1834

          k = 0.1875 0.3248 0.0000 (  5498 PWs)   bands (ev):

   -45.5969 -24.0926 -23.8395 -23.4971 -20.9598 -13.1076  -3.4080  -3.1029
    -3.0072  -2.2468  -1.4917  -0.8115   3.3903   5.5342   6.3693   6.9062
     7.4712   8.4971   9.9143  10.9619  12.5042  12.8396  13.5096  14.8392
    16.0982  16.1860

          k = 0.1875 0.3969 0.0000 (  5495 PWs)   bands (ev):

   -45.5843 -24.1360 -23.8359 -23.5581 -20.9559 -12.9961  -3.4695  -3.1177
    -3.0355  -2.4434  -1.5207  -1.0464   3.4595   5.7672   6.5162   6.9868
     7.7119   9.3291  10.3474  11.4297  12.4716  12.7506  14.0142  14.2737
    15.1459  16.0258

          k = 0.1875 0.4691 0.0000 (  5497 PWs)   bands (ev):

   -45.5746 -24.1840 -23.8126 -23.6073 -20.9559 -12.9073  -3.5225  -3.2313
    -2.9967  -2.5480  -1.5412  -1.2247   3.5323   6.1128   6.5448   7.1456
     7.7146  10.2320  10.6887  11.7717  12.3831  12.8695  13.6523  14.2956
    14.6397  15.8651

          k = 0.1875 0.5413 0.0000 (  5506 PWs)   bands (ev):

   -45.5694 -24.2124 -23.7956 -23.6350 -20.9571 -12.8580  -3.5547  -3.3040
    -2.9815  -2.5834  -1.5571  -1.3171   3.5788   6.4382   6.5341   7.2782
     7.5598  10.6571  11.3054  11.9002  12.2285  12.7314  13.3272  14.2288
    14.7996  15.5285

          k = 0.2500 0.4330 0.0000 (  5488 PWs)   bands (ev):

   -45.5746 -24.1612 -23.8115 -23.6360 -20.9522 -12.9070  -3.5026  -3.2113
    -2.9964  -2.4824  -1.5907  -1.3145   3.6434   5.9225   6.6111   7.0604
     7.7301  10.2471  10.7590  11.8228  12.5800  12.8709  13.9285  14.2684
    14.5142  15.4357

          k = 0.2500 0.5052 0.0000 (  5511 PWs)   bands (ev):

   -45.5682 -24.1743 -23.7909 -23.6956 -20.9506 -12.8457  -3.5562  -3.2405
    -2.9683  -2.4826  -1.7212  -1.4403   3.7959   6.1695   6.5672   7.2062
     7.5764  10.7862  11.3321  11.9221  12.7665  13.1378  13.5101  14.1705
    14.5514  15.2383

          k = 0.2500 0.5774 0.0000 (  5526 PWs)   bands (ev):

   -45.5659 -24.1776 -23.7830 -23.7183 -20.9502 -12.8238  -3.5826  -3.2409
    -2.9582  -2.4765  -1.7931  -1.4671   3.8547   6.3347   6.5369   7.1985
     7.5124  10.7988  11.9282  12.2727  12.2851  13.0136  13.5765  14.1132
    14.7319  15.4608

          k = 0.3125 0.5413 0.0000 (  5524 PWs)   bands (ev):

   -45.5647 -24.1582 -23.7786 -23.7551 -20.9476 -12.8117  -3.6048  -3.1930
    -2.9420  -2.4032  -1.9632  -1.4904   3.9808   6.2676   6.5366   7.0990
     7.5690  10.8189  11.9055  12.2505  13.1274  13.2058  13.4382  13.8143
    14.7472  15.4477

     highest occupied, lowest unoccupied level (ev):     3.9808    5.3093

!    total energy              =    -446.24503157 Ry
     total all-electron energy =     -8320.715311 Ry
     estimated scf accuracy    <          1.3E-09 Ry

     The total energy is the sum of the following terms:
     one-electron contribution =    -303.88676146 Ry
     hartree contribution      =     160.09523365 Ry
     xc contribution           =     -38.51431798 Ry
     ewald contribution        =       2.68574616 Ry
     one-center paw contrib.   =    -266.62493194 Ry

     convergence has been achieved in   9 iterations

     negative rho (up, down):  8.617E-05 0.000E+00

     Forces acting on atoms (cartesian axes, Ry/au):

     atom    1 type  1   force =     0.00000000    0.00000000   -0.00017530
     atom    2 type  2   force =     0.00000000    0.00000000    0.00071628
     atom    3 type  3   force =     0.00000000   -0.00000000   -0.00054098
     The non-local contrib.  to forces
     atom    1 type  1   force =     0.00000000    0.00000000   -0.02162887
     atom    2 type  2   force =     0.00000000    0.00000000   -1.09144290
     atom    3 type  3   force =     0.00000000    0.00000000    0.22297035
     The ionic contribution  to forces
     atom    1 type  1   force =    -0.00000001    0.00000001   -0.34896584
     atom    2 type  2   force =     0.00000001   -0.00000000   26.71419171
     atom    3 type  3   force =     0.00000000   -0.00000000  -26.36522586
     The local contribution  to forces
     atom    1 type  1   force =    -0.00000000    0.00000000    0.36654521
     atom    2 type  2   force =     0.00000027   -0.00000015  -25.62568173
     atom    3 type  3   force =     0.00000003   -0.00000002   26.14902231
     The core correction contribution to forces
     atom    1 type  1   force =    -0.00000000    0.00000000    0.00371593
     atom    2 type  2   force =     0.00000000   -0.00000000    0.00351434
     atom    3 type  3   force =    -0.00000000    0.00000000   -0.00737148
     The Hubbard contrib.    to forces
     atom    1 type  1   force =     0.00000000    0.00000000    0.00000000
     atom    2 type  2   force =     0.00000000    0.00000000    0.00000000
     atom    3 type  3   force =     0.00000000    0.00000000    0.00000000
     The SCF correction term to forces
     atom    1 type  1   force =    -0.00000000    0.00000000    0.00008678
     atom    2 type  2   force =     0.00000000   -0.00000000    0.00006337
     atom    3 type  3   force =     0.00000000   -0.00000000   -0.00000780

     Total force =     0.000915     Total SCF correction =     0.000108
     SCF correction compared to forces is large: reduce conv_thr to get better values

     BFGS Geometry Optimization
     Energy error            =      0.0E+00 Ry
     Gradient error          =      7.2E-04 Ry/Bohr

     number of scf cycles    =   1
     number of bfgs steps    =   0

     energy             new  =    -446.2450315730 Ry

     new trust radius        =       0.0007162825 bohr
     new conv_thr            =       0.0000000100 Ry


ATOMIC_POSITIONS (angstrom)
Zr            0.0000000000        0.0000000000        9.5702710778
F            -0.0000000020        1.8815103543       10.9037103623
Cl           -0.0000000020        1.8815103543        7.8121934685



     Writing config-only to output data dir ./tmp/ZrFCl.save/
     NEW-OLD atomic charge density approx. for the potential

     Check: negative core charge=   -0.000005

     negative rho (up, down):  8.620E-05 0.000E+00

     total cpu time spent up to now is        7.5 secs

     Self-consistent Calculation

     iteration #  1     ecut=    65.00 Ry     beta= 0.70
     Davidson diagonalization with overlap
     ethr =  1.00E-06,  avg # of iterations =  2.0

     Threshold (ethr) on eigenvalues was too large:
     Diagonalizing with lowered threshold

     Davidson diagonalization with overlap
     ethr =  3.09E-10,  avg # of iterations =  4.0

     negative rho (up, down):  8.609E-05 0.000E+00

     total cpu time spent up to now is        8.8 secs

     total energy              =    -446.24503227 Ry
     estimated scf accuracy    <       0.00000009 Ry

     iteration #  2     ecut=    65.00 Ry     beta= 0.70
     Davidson diagonalization with overlap
     ethr =  3.51E-10,  avg # of iterations =  2.0

     negative rho (up, down):  8.613E-05 0.000E+00

     total cpu time spent up to now is        9.4 secs

     total energy              =    -446.24503227 Ry
     estimated scf accuracy    <       0.00000012 Ry

     iteration #  3     ecut=    65.00 Ry     beta= 0.70
     Davidson diagonalization with overlap
     ethr =  3.51E-10,  avg # of iterations =  1.8

     negative rho (up, down):  8.614E-05 0.000E+00

     total cpu time spent up to now is        9.9 secs

     total energy              =    -446.24503230 Ry
     estimated scf accuracy    <       0.00000001 Ry

     iteration #  4     ecut=    65.00 Ry     beta= 0.70
     Davidson diagonalization with overlap
     ethr =  4.22E-11,  avg # of iterations =  2.0

     negative rho (up, down):  8.613E-05 0.000E+00

     total cpu time spent up to now is       10.5 secs

     End of self-consistent calculation

          k = 0.0000 0.0000 0.0000 (  5455 PWs)   bands (ev):

   -45.6592 -24.2248 -23.3138 -23.3138 -21.0628 -13.5964  -3.6898  -2.8404
    -2.8404  -1.7260  -0.0174  -0.0174   3.4429   5.4481   5.4481   5.7689
     6.6502   6.6502   7.7359   8.6133  10.9937  13.6508  14.5311  14.5311
    15.4416  17.1480

          k = 0.0000 0.0722 0.0000 (  5463 PWs)   bands (ev):

   -45.6561 -24.2137 -23.3542 -23.3200 -21.0521 -13.5731  -3.6520  -2.8838
    -2.8407  -1.7137  -0.1753  -0.0467   3.4521   5.4047   5.5063   5.8568
     6.6130   6.6980   7.8593   8.8073  11.1201  13.7291  14.2483  14.6328
    15.2513  17.1151

          k = 0.0000 0.1443 0.0000 (  5463 PWs)   bands (ev):

   -45.6471 -24.1824 -23.4643 -23.3376 -21.0261 -13.5059  -3.5510  -2.9932
    -2.8434  -1.6954  -0.5799  -0.1272   3.4527   5.3424   5.6846   5.9729
     6.7058   6.8264   8.2000   9.2509  11.4880  13.6044  13.9043  14.9356
    14.9435  17.0164

          k = 0.0000 0.2165 0.0000 (  5480 PWs)   bands (ev):

   -45.6337 -24.1384 -23.6156 -23.3638 -20.9977 -13.4021  -3.4304  -3.1186
    -2.8518  -1.7252  -1.0704  -0.2402   3.3952   5.3880   5.9869   6.0053
     7.0009   7.0770   8.6880   9.7592  11.9563  13.1430  13.6777  15.1302
    15.4280  16.8520

          k = 0.0000 0.2887 0.0000 (  5492 PWs)   bands (ev):

   -45.6177 -24.0999 -23.7666 -23.3945 -20.9775 -13.2745  -3.4039  -3.1572
    -2.8679  -1.9552  -1.3883  -0.3633   3.2798   5.5828   6.0998   6.4001
     7.1895   7.5812   9.2203  10.2457  11.9904  13.0672  13.6843  15.6445
    16.0385  16.6588

          k = 0.0000 0.3608 0.0000 (  5480 PWs)   bands (ev):

   -45.6018 -24.1132 -23.8530 -23.4249 -20.9694 -13.1407  -3.5024  -3.0994
    -2.8903  -2.3693  -1.4600  -0.4766   3.1609   5.8404   6.3263   6.8641
     7.3929   8.1536   9.6719  10.6549  11.8538  12.8680  14.3938  15.3334
    16.0849  16.3036

          k = 0.0000 0.4330 0.0000 (  5494 PWs)   bands (ev):

   -45.5881 -24.1916 -23.8505 -23.4506 -20.9707 -13.0219  -3.6106  -3.0802
    -2.9138  -2.7083  -1.4674  -0.5659   3.0805   6.0729   6.6146   7.2070
     7.6980   8.7836   9.9708  10.9822  11.9387  12.7860  14.0461  14.9317
    15.6557  15.8030

          k = 0.0000 0.5052 0.0000 (  5496 PWs)   bands (ev):

   -45.5790 -24.2624 -23.8263 -23.4676 -20.9754 -12.9393  -3.6936  -3.1360
    -2.9316  -2.8635  -1.4635  -0.6225   3.0427   6.2547   6.8005   7.3437
     8.0611   9.4277  10.1963  11.2534  12.0095  12.6808  13.2860  14.6442
    15.0847  15.2398

          k = 0.0000-0.5774 0.0000 (  5494 PWs)   bands (ev):

   -45.5758 -24.2887 -23.8156 -23.4736 -20.9778 -12.9097  -3.7263  -3.1775
    -2.9383  -2.8938  -1.4612  -0.6418   3.0330   6.3318   6.8468   7.3788
     8.2199   9.7889  10.2907  11.5017  11.7619  12.4403  13.3453  14.2935
    14.8793  15.0642

          k = 0.0625 0.1083 0.0000 (  5464 PWs)   bands (ev):

   -45.6500 -24.1925 -23.4284 -23.3330 -21.0338 -13.5279  -3.5821  -2.9589
    -2.8438  -1.6983  -0.4500  -0.1079   3.4579   5.3419   5.6353   5.9594
     6.6355   6.7945   8.0912   9.1208  11.3705  13.7401  13.9255  14.7612
    15.0680  17.0181

          k = 0.0625 0.1804 0.0000 (  5476 PWs)   bands (ev):

   -45.6388 -24.1545 -23.5563 -23.3577 -21.0069 -13.4422  -3.4668  -3.0757
    -2.8535  -1.6999  -0.8863  -0.2197   3.4339   5.3093   5.8995   6.0218
     6.8322   7.0026   8.5064   9.5838  11.8331  13.2589  13.7782  14.8419
    15.3835  16.8256

          k = 0.0625 0.2526 0.0000 (  5505 PWs)   bands (ev):

   -45.6241 -24.1114 -23.7050 -23.3899 -20.9832 -13.3262  -3.3757  -3.1681
    -2.8723  -1.8104  -1.2932  -0.3554   3.3557   5.4123   6.0492   6.3146
     7.0566   7.4014   9.0212  10.0759  12.1721  13.0335  13.4804  15.2671
    15.9234  16.6068

          k = 0.0625 0.3248 0.0000 (  5487 PWs)   bands (ev):

   -45.6082 -24.0935 -23.8243 -23.4247 -20.9696 -13.1950  -3.4322  -3.1294
    -2.9011  -2.1578  -1.4468  -0.4914   3.2513   5.6621   6.1676   6.7671
     7.2648   7.9408   9.5240  10.5367  11.9981  12.9629  13.8917  15.5547
    16.0568  16.3648

          k = 0.0625 0.3969 0.0000 (  5483 PWs)   bands (ev):

   -45.5934 -24.1456 -23.8558 -23.4566 -20.9667 -13.0677  -3.5398  -3.0788
    -2.9404  -2.5290  -1.4719  -0.6091   3.1676   5.9728   6.3703   7.1174
     7.5332   8.5849   9.9080  10.9170  11.9448  12.8123  14.5070  14.7557
    15.5806  16.3028

          k = 0.0625 0.4691 0.0000 (  5486 PWs)   bands (ev):

   -45.5820 -24.2247 -23.8347 -23.4810 -20.9701 -12.9661  -3.6317  -3.1197
    -2.9709  -2.7420  -1.4718  -0.6949   3.1234   6.2217   6.6224   7.2796
     7.8312   9.3134  10.1736  11.2122  12.0484  12.7983  13.5626  14.7208
    15.0609  15.7945

          k = 0.0625 0.5413 0.0000 (  5505 PWs)   bands (ev):

   -45.5758 -24.2732 -23.8155 -23.4942 -20.9739 -12.9094  -3.6875  -3.2011
    -2.9769  -2.8069  -1.4687  -0.7399   3.1087   6.3561   6.7936   7.3347
     8.0213   9.9357  10.3743  11.4543  11.9374  12.5328  13.2889  14.3190
    14.8734  15.2208

          k = 0.1250 0.2165 0.0000 (  5500 PWs)   bands (ev):

   -45.6264 -24.1164 -23.6775 -23.3933 -20.9852 -13.3441  -3.3635  -3.1688
    -2.8809  -1.7636  -1.2334  -0.3788   3.3976   5.3073   6.0726   6.3113
     6.9662   7.3579   8.9519  10.0195  12.3588  12.8570  13.4624  15.0751
    15.9263  16.5534

          k = 0.1250 0.2887 0.0000 (  5499 PWs)   bands (ev):

   -45.6116 -24.0873 -23.7923 -23.4376 -20.9690 -13.2237  -3.3596  -3.1659
    -2.9247  -2.0024  -1.4330  -0.5632   3.3506   5.4291   6.1818   6.7364
     7.1608   7.8567   9.4506  10.4909  12.4013  12.9918  13.2796  15.3384
    15.9516  16.8700

          k = 0.1250 0.3608 0.0000 (  5494 PWs)   bands (ev):

   -45.5969 -24.1072 -23.8480 -23.4828 -20.9616 -13.0977  -3.4520  -3.0891
    -2.9863  -2.3368  -1.4831  -0.7400   3.3129   5.7006   6.3071   7.0018
     7.4706   8.5152   9.9073  10.9478  12.1881  12.8583  13.9600  14.8951
    15.6956  16.2974

          k = 0.1250 0.4330 0.0000 (  5496 PWs)   bands (ev):

   -45.5843 -24.1742 -23.8382 -23.5214 -20.9616 -12.9859  -3.5378  -3.1184
    -3.0104  -2.5763  -1.4920  -0.8855   3.2994   6.0824   6.4135   7.1587
     7.7079   9.3251  10.2595  11.3256  12.1630  12.8075  14.0432  14.4718
    14.9818  16.1826

          k = 0.1250 0.5052 0.0000 (  5495 PWs)   bands (ev):

   -45.5758 -24.2323 -23.8149 -23.5475 -20.9646 -12.9085  -3.5959  -3.2362
    -2.9934  -2.6769  -1.4923  -0.9811   3.3040   6.4179   6.5316   7.2634
     7.7649  10.1424  10.5374  11.5579  12.1711  12.7858  13.2663  14.3306
    14.8109  15.7115

          k = 0.1250 0.5774 0.0000 (  5504 PWs)   bands (ev):

   -45.5729 -24.2538 -23.8050 -23.5567 -20.9662 -12.8808  -3.6168  -3.2886
    -2.9891  -2.7002  -1.4919  -1.0143   3.3086   6.4617   6.7024   7.2851
     7.7522  10.4224  10.8719  11.7606  11.8558  12.5399  13.3076  14.1383
    14.9458  15.1830

          k = 0.1875 0.3248 0.0000 (  5498 PWs)   bands (ev):

   -45.5981 -24.0929 -23.8405 -23.4982 -20.9593 -13.1080  -3.4066  -3.1019
    -3.0058  -2.2470  -1.4923  -0.8117   3.3893   5.5322   6.3682   6.9050
     7.4696   8.4969   9.9132  10.9621  12.5038  12.8390  13.5090  14.8383
    16.0980  16.1861

          k = 0.1875 0.3969 0.0000 (  5495 PWs)   bands (ev):

   -45.5855 -24.1363 -23.8369 -23.5591 -20.9554 -12.9965  -3.4682  -3.1165
    -3.0344  -2.4436  -1.5213  -1.0468   3.4585   5.7654   6.5150   6.9854
     7.7106   9.3288  10.3461  11.4299  12.4711  12.7503  14.0136  14.2727
    15.1461  16.0256

          k = 0.1875 0.4691 0.0000 (  5497 PWs)   bands (ev):

   -45.5759 -24.1844 -23.8136 -23.6084 -20.9554 -12.9077  -3.5212  -3.2304
    -2.9956  -2.5480  -1.5418  -1.2251   3.5313   6.1114   6.5433   7.1442
     7.7132  10.2319  10.6874  11.7716  12.3823  12.8692  13.6523  14.2953
    14.6394  15.8650

          k = 0.1875 0.5413 0.0000 (  5506 PWs)   bands (ev):

   -45.5706 -24.2127 -23.7967 -23.6360 -20.9566 -12.8584  -3.5534  -3.3033
    -2.9805  -2.5832  -1.5576  -1.3175   3.5778   6.4373   6.5325   7.2767
     7.5579  10.6563  11.3049  11.9000  12.2278  12.7311  13.3272  14.2286
    14.7992  15.5282

          k = 0.2500 0.4330 0.0000 (  5488 PWs)   bands (ev):

   -45.5759 -24.1615 -23.8126 -23.6371 -20.9517 -12.9074  -3.5013  -3.2103
    -2.9953  -2.4825  -1.5911  -1.3150   3.6425   5.9208   6.6096   7.0590
     7.7287  10.2472  10.7576  11.8226  12.5799  12.8700  13.9278  14.2679
    14.5144  15.4361

          k = 0.2500 0.5052 0.0000 (  5511 PWs)   bands (ev):

   -45.5694 -24.1746 -23.7920 -23.6966 -20.9501 -12.8461  -3.5549  -3.2396
    -2.9673  -2.4827  -1.7215  -1.4410   3.7950   6.1683   6.5655   7.2045
     7.5748  10.7855  11.3319  11.9215  12.7660  13.1371  13.5101  14.1704
    14.5511  15.2386

          k = 0.2500 0.5774 0.0000 (  5526 PWs)   bands (ev):

   -45.5672 -24.1779 -23.7840 -23.7193 -20.9497 -12.8242  -3.5813  -3.2400
    -2.9572  -2.4765  -1.7934  -1.4678   3.8538   6.3340   6.5351   7.1963
     7.5109  10.7979  11.9275  12.2731  12.2851  13.0127  13.5761  14.1130
    14.7319  15.4605

          k = 0.3125 0.5413 0.0000 (  5524 PWs)   bands (ev):

   -45.5659 -24.1584 -23.7796 -23.7562 -20.9471 -12.8120  -3.6035  -3.1920
    -2.9410  -2.4033  -1.9635  -1.4911   3.9800   6.2670   6.5348   7.0966
     7.5675  10.8180  11.9047  12.2509  13.1278  13.2060  13.4371  13.8134
    14.7472  15.4475

     highest occupied, lowest unoccupied level (ev):     3.9800    5.3073

!    total energy              =    -446.24503231 Ry
     total all-electron energy =     -8320.715312 Ry
     estimated scf accuracy    <          9.5E-10 Ry

     The total energy is the sum of the following terms:
     one-electron contribution =    -303.81968954 Ry
     hartree contribution      =     160.06130962 Ry
     xc contribution           =     -38.51401799 Ry
     ewald contribution        =       2.65228834 Ry
     one-center paw contrib.   =    -266.62492273 Ry

     convergence has been achieved in   4 iterations

     negative rho (up, down):  8.613E-05 0.000E+00

     Forces acting on atoms (cartesian axes, Ry/au):

     atom    1 type  1   force =     0.00000000    0.00000000   -0.00003336
     atom    2 type  2   force =     0.00000000    0.00000000    0.00051324
     atom    3 type  3   force =     0.00000000   -0.00000000   -0.00047988
     The non-local contrib.  to forces
     atom    1 type  1   force =     0.00000000   -0.00000000   -0.02164175
     atom    2 type  2   force =     0.00000000    0.00000000   -1.09196240
     atom    3 type  3   force =     0.00000000   -0.00000000    0.22301730
     The ionic contribution  to forces
     atom    1 type  1   force =    -0.00000001    0.00000001   -0.35028194
     atom    2 type  2   force =     0.00000001   -0.00000000   26.71229967
     atom    3 type  3   force =     0.00000000   -0.00000000  -26.36201773
     The local contribution  to forces
     atom    1 type  1   force =    -0.00000000    0.00000000    0.36828176
     atom    2 type  2   force =     0.00000027   -0.00000015  -25.62337857
     atom    3 type  3   force =     0.00000003   -0.00000002   26.14583350
     The core correction contribution to forces
     atom    1 type  1   force =    -0.00000000    0.00000000    0.00371981
     atom    2 type  2   force =     0.00000000   -0.00000000    0.00351681
     atom    3 type  3   force =    -0.00000000    0.00000000   -0.00737220
     The Hubbard contrib.    to forces
     atom    1 type  1   force =     0.00000000    0.00000000    0.00000000
     atom    2 type  2   force =     0.00000000    0.00000000    0.00000000
     atom    3 type  3   force =     0.00000000    0.00000000    0.00000000
     The SCF correction term to forces
     atom    1 type  1   force =    -0.00000000    0.00000000   -0.00016941
     atom    2 type  2   force =    -0.00000000    0.00000000   -0.00002044
     atom    3 type  3   force =     0.00000000   -0.00000000    0.00000109

     Total force =     0.000703     Total SCF correction =     0.000171
     SCF correction compared to forces is large: reduce conv_thr to get better values
     Energy error            =      7.3E-07 Ry
     Gradient error          =      5.1E-04 Ry/Bohr

     number of scf cycles    =   2
     number of bfgs steps    =   1

     energy             old  =    -446.2450315730 Ry
     energy             new  =    -446.2450323051 Ry

     CASE: energy            _new < energy            _old

     new trust radius        =       0.0007879107 bohr
     new conv_thr            =            1.0E-10 Ry


ATOMIC_POSITIONS (angstrom)
Zr            0.0000000000        0.0000000000        9.5702367086
F            -0.0000000020        1.8815103543       10.9041273066
Cl           -0.0000000020        1.8815103543        7.8118108933



     Writing config-only to output data dir ./tmp/ZrFCl.save/
     NEW-OLD atomic charge density approx. for the potential

     Check: negative core charge=   -0.000005

     negative rho (up, down):  8.609E-05 0.000E+00

     total cpu time spent up to now is       10.8 secs

     Self-consistent Calculation

     iteration #  1     ecut=    65.00 Ry     beta= 0.70
     Davidson diagonalization with overlap
     ethr =  1.00E-06,  avg # of iterations =  2.0

     Threshold (ethr) on eigenvalues was too large:
     Diagonalizing with lowered threshold

     Davidson diagonalization with overlap
     ethr =  3.97E-10,  avg # of iterations =  4.0

     negative rho (up, down):  8.601E-05 0.000E+00

     total cpu time spent up to now is       12.0 secs

     total energy              =    -446.24503290 Ry
     estimated scf accuracy    <       0.00000012 Ry

     iteration #  2     ecut=    65.00 Ry     beta= 0.70
     Davidson diagonalization with overlap
     ethr =  4.46E-10,  avg # of iterations =  2.0

     negative rho (up, down):  8.605E-05 0.000E+00

     total cpu time spent up to now is       12.6 secs

     total energy              =    -446.24503290 Ry
     estimated scf accuracy    <       0.00000024 Ry

     iteration #  3     ecut=    65.00 Ry     beta= 0.70
     Davidson diagonalization with overlap
     ethr =  4.46E-10,  avg # of iterations =  1.9

     negative rho (up, down):  8.607E-05 0.000E+00

     total cpu time spent up to now is       13.2 secs

     total energy              =    -446.24503295 Ry
     estimated scf accuracy    <          8.6E-09 Ry

     iteration #  4     ecut=    65.00 Ry     beta= 0.70
     Davidson diagonalization with overlap
     ethr =  3.29E-11,  avg # of iterations =  2.0

     negative rho (up, down):  8.607E-05 0.000E+00

     total cpu time spent up to now is       13.7 secs

     total energy              =    -446.24503295 Ry
     estimated scf accuracy    <          7.1E-10 Ry

     iteration #  5     ecut=    65.00 Ry     beta= 0.70
     Davidson diagonalization with overlap
     ethr =  2.73E-12,  avg # of iterations =  2.0

     negative rho (up, down):  8.607E-05 0.000E+00

     total cpu time spent up to now is       14.3 secs

     total energy              =    -446.24503295 Ry
     estimated scf accuracy    <          1.7E-10 Ry

     iteration #  6     ecut=    65.00 Ry     beta= 0.70
     Davidson diagonalization with overlap
     ethr =  6.44E-13,  avg # of iterations =  2.0

     negative rho (up, down):  8.607E-05 0.000E+00

     total cpu time spent up to now is       14.9 secs

     End of self-consistent calculation

          k = 0.0000 0.0000 0.0000 (  5455 PWs)   bands (ev):

   -45.6607 -24.2256 -23.3152 -23.3152 -21.0620 -13.5967  -3.6888  -2.8385
    -2.8385  -1.7265  -0.0170  -0.0170   3.4404   5.4461   5.4461   5.7687
     6.6492   6.6492   7.7362   8.6135  10.9936  13.6519  14.5301  14.5301
    15.4384  17.1469

          k = 0.0000 0.0722 0.0000 (  5463 PWs)   bands (ev):

   -45.6576 -24.2145 -23.3556 -23.3214 -21.0513 -13.5735  -3.6509  -2.8819
    -2.8389  -1.7141  -0.1750  -0.0463   3.4497   5.4027   5.5044   5.8566
     6.6120   6.6969   7.8596   8.8075  11.1199  13.7300  14.2472  14.6318
    15.2485  17.1140

          k = 0.0000 0.1443 0.0000 (  5463 PWs)   bands (ev):

   -45.6486 -24.1832 -23.4656 -23.3390 -21.0254 -13.5062  -3.5499  -2.9915
    -2.8416  -1.6958  -0.5797  -0.1268   3.4506   5.3403   5.6828   5.9724
     6.7051   6.8252   8.2000   9.2512  11.4876  13.6035  13.9043  14.9347
    14.9419  17.0154

          k = 0.0000 0.2165 0.0000 (  5480 PWs)   bands (ev):

   -45.6352 -24.1391 -23.6167 -23.3652 -20.9970 -13.4024  -3.4292  -3.1170
    -2.8500  -1.7255  -1.0705  -0.2398   3.3935   5.3858   5.9852   6.0044
     6.9994   7.0766   8.6877   9.7595  11.9557  13.1422  13.6769  15.1300
    15.4272  16.8510

          k = 0.0000 0.2887 0.0000 (  5492 PWs)   bands (ev):

   -45.6193 -24.1006 -23.7677 -23.3959 -20.9769 -13.2748  -3.4025  -3.1560
    -2.8662  -1.9553  -1.3888  -0.3630   3.2783   5.5808   6.0984   6.3985
     7.1878   7.5808   9.2195  10.2460  11.9896  13.0662  13.6839  15.6445
    16.0379  16.6577

          k = 0.0000 0.3608 0.0000 (  5480 PWs)   bands (ev):

   -45.6033 -24.1138 -23.8542 -23.4263 -20.9688 -13.1409  -3.5010  -3.0983
    -2.8886  -2.3693  -1.4606  -0.4763   3.1595   5.8389   6.3246   6.8628
     7.3909   8.1530   9.6707  10.6551  11.8534  12.8670  14.3935  15.3337
    16.0841  16.3033

          k = 0.0000 0.4330 0.0000 (  5494 PWs)   bands (ev):

   -45.5897 -24.1922 -23.8518 -23.4519 -20.9701 -13.0220  -3.6093  -3.0793
    -2.9122  -2.7082  -1.4680  -0.5657   3.0790   6.0714   6.6129   7.2055
     7.6962   8.7824   9.9697  10.9822  11.9381  12.7854  14.0464  14.9317
    15.6548  15.8021

          k = 0.0000 0.5052 0.0000 (  5496 PWs)   bands (ev):

   -45.5806 -24.2630 -23.8276 -23.4690 -20.9748 -12.9395  -3.6925  -3.1354
    -2.9300  -2.8631  -1.4641  -0.6223   3.0413   6.2531   6.7992   7.3419
     8.0596   9.4255  10.1959  11.2529  12.0089  12.6808  13.2861  14.6440
    15.0839  15.2388

          k = 0.0000-0.5774 0.0000 (  5494 PWs)   bands (ev):

   -45.5774 -24.2893 -23.8169 -23.4749 -20.9772 -12.9099  -3.7253  -3.1771
    -2.9367  -2.8932  -1.4618  -0.6416   3.0316   6.3300   6.8457   7.3769
     8.2185   9.7864  10.2903  11.5007  11.7625  12.4399  13.3456  14.2928
    14.8790  15.0631

          k = 0.0625 0.1083 0.0000 (  5464 PWs)   bands (ev):

   -45.6515 -24.1932 -23.4297 -23.3344 -21.0331 -13.5282  -3.5811  -2.9571
    -2.8419  -1.6987  -0.4498  -0.1075   3.4557   5.3397   5.6334   5.9591
     6.6346   6.7934   8.0912   9.1211  11.3702  13.7398  13.9253  14.7600
    15.0661  17.0165

          k = 0.0625 0.1804 0.0000 (  5476 PWs)   bands (ev):

   -45.6403 -24.1553 -23.5575 -23.3590 -21.0063 -13.4425  -3.4657  -3.0740
    -2.8518  -1.7003  -0.8863  -0.2194   3.4321   5.3070   5.8978   6.0211
     6.8312   7.0016   8.5062   9.5842  11.8326  13.2578  13.7776  14.8414
    15.3826  16.8245

          k = 0.0625 0.2526 0.0000 (  5505 PWs)   bands (ev):

   -45.6257 -24.1121 -23.7062 -23.3913 -20.9826 -13.3265  -3.3743  -3.1667
    -2.8706  -1.8105  -1.2936  -0.3551   3.3542   5.4100   6.0482   6.3130
     7.0551   7.4010   9.0206  10.0762  12.1713  13.0327  13.4796  15.2672
    15.9227  16.6057

          k = 0.0625 0.3248 0.0000 (  5487 PWs)   bands (ev):

   -45.6097 -24.0941 -23.8256 -23.4260 -20.9690 -13.1952  -3.4307  -3.1282
    -2.8995  -2.1578  -1.4474  -0.4912   3.2499   5.6602   6.1662   6.7657
     7.2629   7.9403   9.5229  10.5369  11.9975  12.9619  13.8913  15.5545
    16.0564  16.3649

          k = 0.0625 0.3969 0.0000 (  5483 PWs)   bands (ev):

   -45.5949 -24.1462 -23.8571 -23.4579 -20.9661 -13.0679  -3.5384  -3.0777
    -2.9389  -2.5290  -1.4725  -0.6089   3.1663   5.9713   6.3685   7.1160
     7.5314   8.5841   9.9067  10.9171  11.9443  12.8115  14.5067  14.7559
    15.5799  16.3020

          k = 0.0625 0.4691 0.0000 (  5486 PWs)   bands (ev):

   -45.5835 -24.2252 -23.8360 -23.4823 -20.9695 -12.9662  -3.6305  -3.1188
    -2.9696  -2.7416  -1.4724  -0.6948   3.1220   6.2202   6.6208   7.2779
     7.8295   9.3120  10.1728  11.2120  12.0477  12.7979  13.5628  14.7205
    15.0601  15.7936

          k = 0.0625 0.5413 0.0000 (  5505 PWs)   bands (ev):

   -45.5774 -24.2738 -23.8168 -23.4955 -20.9733 -12.9095  -3.6864  -3.2006
    -2.9756  -2.8062  -1.4693  -0.7398   3.1073   6.3543   6.7925   7.3329
     8.0196   9.9337  10.3738  11.4537  11.9373  12.5325  13.2891  14.3185
    14.8729  15.2200

          k = 0.1250 0.2165 0.0000 (  5500 PWs)   bands (ev):

   -45.6279 -24.1171 -23.6786 -23.3946 -20.9846 -13.3444  -3.3622  -3.1673
    -2.8792  -1.7638  -1.2336  -0.3785   3.3961   5.3049   6.0717   6.3098
     6.9647   7.3574   8.9513  10.0199  12.3582  12.8559  13.4615  15.0753
    15.9256  16.5524

          k = 0.1250 0.2887 0.0000 (  5499 PWs)   bands (ev):

   -45.6132 -24.0880 -23.7935 -23.4390 -20.9684 -13.2239  -3.3581  -3.1648
    -2.9231  -2.0024  -1.4335  -0.5630   3.3492   5.4268   6.1806   6.7351
     7.1589   7.8563   9.4496  10.4912  12.4006  12.9907  13.2791  15.3383
    15.9511  16.8696

          k = 0.1250 0.3608 0.0000 (  5494 PWs)   bands (ev):

   -45.5984 -24.1078 -23.8493 -23.4841 -20.9610 -13.0979  -3.4505  -3.0879
    -2.9848  -2.3367  -1.4837  -0.7399   3.3117   5.6985   6.3057   7.0003
     7.4689   8.5146   9.9059  10.9481  12.1876  12.8574  13.9594  14.8943
    15.6956  16.2972

          k = 0.1250 0.4330 0.0000 (  5496 PWs)   bands (ev):

   -45.5858 -24.1747 -23.8396 -23.5228 -20.9610 -12.9861  -3.5364  -3.1172
    -3.0092  -2.5761  -1.4926  -0.8855   3.2982   6.0806   6.4118   7.1570
     7.7062   9.3244  10.2581  11.3257  12.1624  12.8070  14.0431  14.4712
    14.9814  16.1819

          k = 0.1250 0.5052 0.0000 (  5495 PWs)   bands (ev):

   -45.5774 -24.2328 -23.8163 -23.5488 -20.9640 -12.9087  -3.5946  -3.2354
    -2.9922  -2.6765  -1.4928  -0.9811   3.3027   6.4163   6.5301   7.2616
     7.7630  10.1414  10.5365  11.5576  12.1702  12.7857  13.2665  14.3301
    14.8105  15.7107

          k = 0.1250 0.5774 0.0000 (  5504 PWs)   bands (ev):

   -45.5744 -24.2544 -23.8063 -23.5580 -20.9656 -12.8809  -3.6156  -3.2878
    -2.9879  -2.6996  -1.4925  -1.0143   3.3072   6.4598   6.7014   7.2832
     7.7500  10.4212  10.8708  11.7597  11.8564  12.5392  13.3078  14.1378
    14.9452  15.1824

          k = 0.1875 0.3248 0.0000 (  5498 PWs)   bands (ev):

   -45.5996 -24.0935 -23.8418 -23.4995 -20.9588 -13.1082  -3.4052  -3.1007
    -3.0043  -2.2470  -1.4929  -0.8117   3.3881   5.5299   6.3669   6.9035
     7.4679   8.4964   9.9119  10.9625  12.5032  12.8383  13.5083  14.8374
    16.0980  16.1861

          k = 0.1875 0.3969 0.0000 (  5495 PWs)   bands (ev):

   -45.5870 -24.1369 -23.8382 -23.5605 -20.9548 -12.9966  -3.4668  -3.1151
    -3.0332  -2.4435  -1.5218  -1.0468   3.4574   5.7633   6.5134   6.9838
     7.7090   9.3285  10.3444  11.4302  12.4706  12.7498  14.0129  14.2715
    15.1464  16.0256

          k = 0.1875 0.4691 0.0000 (  5497 PWs)   bands (ev):

   -45.5774 -24.1849 -23.8150 -23.6097 -20.9549 -12.9079  -3.5198  -3.2293
    -2.9945  -2.5477  -1.5422  -1.2253   3.5302   6.1097   6.5414   7.1425
     7.7113  10.2317  10.6859  11.7717  12.3814  12.8687  13.6522  14.2949
    14.6390  15.8651

          k = 0.1875 0.5413 0.0000 (  5506 PWs)   bands (ev):

   -45.5722 -24.2132 -23.7980 -23.6373 -20.9560 -12.8585  -3.5521  -3.3024
    -2.9794  -2.5829  -1.5579  -1.3178   3.5766   6.4362   6.5305   7.2749
     7.5556  10.6554  11.3043  11.8998  12.2270  12.7306  13.3270  14.2283
    14.7988  15.5279

          k = 0.2500 0.4330 0.0000 (  5488 PWs)   bands (ev):

   -45.5774 -24.1621 -23.8139 -23.6384 -20.9511 -12.9075  -3.4999  -3.2092
    -2.9942  -2.4824  -1.5914  -1.3154   3.6415   5.9189   6.6076   7.0574
     7.7269  10.2472  10.7560  11.8226  12.5796  12.8689  13.9270  14.2673
    14.5147  15.4365

          k = 0.2500 0.5052 0.0000 (  5511 PWs)   bands (ev):

   -45.5709 -24.1751 -23.7933 -23.6979 -20.9496 -12.8462  -3.5534  -3.2386
    -2.9661  -2.4825  -1.7217  -1.4415   3.7941   6.1669   6.5634   7.2027
     7.5726  10.7847  11.3316  11.9210  12.7654  13.1363  13.5101  14.1702
    14.5506  15.2390

          k = 0.2500 0.5774 0.0000 (  5526 PWs)   bands (ev):

   -45.5687 -24.1784 -23.7854 -23.7206 -20.9492 -12.8243  -3.5799  -3.2390
    -2.9561  -2.4763  -1.7936  -1.4683   3.8529   6.3332   6.5329   7.1940
     7.5087  10.7969  11.9268  12.2736  12.2850  13.0117  13.5758  14.1126
    14.7320  15.4603

          k = 0.3125 0.5413 0.0000 (  5524 PWs)   bands (ev):

   -45.5675 -24.1589 -23.7810 -23.7575 -20.9465 -12.8122  -3.6021  -3.1909
    -2.9399  -2.4032  -1.9637  -1.4917   3.9791   6.2662   6.5325   7.0941
     7.5654  10.8169  11.9040  12.2513  13.1282  13.2062  13.4358  13.8124
    14.7473  15.4473

     highest occupied, lowest unoccupied level (ev):     3.9791    5.3049

!    total energy              =    -446.24503295 Ry
     total all-electron energy =     -8320.715313 Ry
     estimated scf accuracy    <          1.0E-11 Ry

     The total energy is the sum of the following terms:
     one-electron contribution =    -303.73931482 Ry
     hartree contribution      =     160.02065140 Ry
     xc contribution           =     -38.51362179 Ry
     ewald contribution        =       2.61216237 Ry
     one-center paw contrib.   =    -266.62491010 Ry

     convergence has been achieved in   6 iterations

     negative rho (up, down):  8.607E-05 0.000E+00

     Forces acting on atoms (cartesian axes, Ry/au):

     atom    1 type  1   force =     0.00000000    0.00000000   -0.00001793
     atom    2 type  2   force =     0.00000000    0.00000000    0.00035726
     atom    3 type  3   force =     0.00000000    0.00000000   -0.00033933
     The non-local contrib.  to forces
     atom    1 type  1   force =     0.00000000   -0.00000000   -0.02166197
     atom    2 type  2   force =     0.00000000    0.00000000   -1.09250648
     atom    3 type  3   force =     0.00000000    0.00000000    0.22309201
     The ionic contribution  to forces
     atom    1 type  1   force =    -0.00000001    0.00000001   -0.35199391
     atom    2 type  2   force =     0.00000001   -0.00000000   26.70983317
     atom    3 type  3   force =     0.00000000   -0.00000000  -26.35783926
     The local contribution  to forces
     atom    1 type  1   force =    -0.00000000    0.00000000    0.36984544
     atom    2 type  2   force =     0.00000027   -0.00000015  -25.62055635
     atom    3 type  3   force =     0.00000003   -0.00000002   26.14171440
     The core correction contribution to forces
     atom    1 type  1   force =    -0.00000000    0.00000000    0.00371713
     atom    2 type  2   force =     0.00000000   -0.00000000    0.00351955
     atom    3 type  3   force =    -0.00000000    0.00000000   -0.00737615
     The Hubbard contrib.    to forces
     atom    1 type  1   force =     0.00000000    0.00000000    0.00000000
     atom    2 type  2   force =     0.00000000    0.00000000    0.00000000
     atom    3 type  3   force =     0.00000000    0.00000000    0.00000000
     The SCF correction term to forces
     atom    1 type  1   force =    -0.00000000    0.00000000    0.00000528
     atom    2 type  2   force =    -0.00000000    0.00000000   -0.00000272
     atom    3 type  3   force =    -0.00000000    0.00000000   -0.00000043

     Total force =     0.000493     Total SCF correction =     0.000006
     Energy error            =      6.4E-07 Ry
     Gradient error          =      3.6E-04 Ry/Bohr

     number of scf cycles    =   3
     number of bfgs steps    =   2

     energy             old  =    -446.2450323051 Ry
     energy             new  =    -446.2450329493 Ry

     CASE: energy            _new < energy            _old

     new trust radius        =       0.0011818660 bohr
     new conv_thr            =            1.0E-10 Ry


ATOMIC_POSITIONS (angstrom)
Zr            0.0000000000        0.0000000000        9.5701905801
F            -0.0000000020        1.8815103543       10.9047527232
Cl           -0.0000000020        1.8815103543        7.8112316051



     Writing config-only to output data dir ./tmp/ZrFCl.save/
     NEW-OLD atomic charge density approx. for the potential

     Check: negative core charge=   -0.000005

     negative rho (up, down):  8.599E-05 0.000E+00

     total cpu time spent up to now is       15.2 secs

     Self-consistent Calculation

     iteration #  1     ecut=    65.00 Ry     beta= 0.70
     Davidson diagonalization with overlap
     ethr =  1.00E-06,  avg # of iterations =  2.0

     Threshold (ethr) on eigenvalues was too large:
     Diagonalizing with lowered threshold

     Davidson diagonalization with overlap
     ethr =  7.62E-10,  avg # of iterations =  4.0

     negative rho (up, down):  8.588E-05 0.000E+00

     total cpu time spent up to now is       16.5 secs

     total energy              =    -446.24503339 Ry
     estimated scf accuracy    <       0.00000023 Ry

     iteration #  2     ecut=    65.00 Ry     beta= 0.70
     Davidson diagonalization with overlap
     ethr =  8.94E-10,  avg # of iterations =  2.0

     negative rho (up, down):  8.595E-05 0.000E+00

     total cpu time spent up to now is       17.1 secs

     total energy              =    -446.24503340 Ry
     estimated scf accuracy    <       0.00000038 Ry

     iteration #  3     ecut=    65.00 Ry     beta= 0.70
     Davidson diagonalization with overlap
     ethr =  8.94E-10,  avg # of iterations =  1.9

     negative rho (up, down):  8.597E-05 0.000E+00

     total cpu time spent up to now is       17.6 secs

     total energy              =    -446.24503348 Ry
     estimated scf accuracy    <       0.00000002 Ry

     iteration #  4     ecut=    65.00 Ry     beta= 0.70
     Davidson diagonalization with overlap
     ethr =  9.11E-11,  avg # of iterations =  2.0

     negative rho (up, down):  8.598E-05 0.000E+00

     total cpu time spent up to now is       18.2 secs

     total energy              =    -446.24503349 Ry
     estimated scf accuracy    <          2.3E-09 Ry

     iteration #  5     ecut=    65.00 Ry     beta= 0.70
     Davidson diagonalization with overlap
     ethr =  8.87E-12,  avg # of iterations =  2.0

     negative rho (up, down):  8.598E-05 0.000E+00

     total cpu time spent up to now is       18.7 secs

     total energy              =    -446.24503349 Ry
     estimated scf accuracy    <          4.6E-10 Ry

     iteration #  6     ecut=    65.00 Ry     beta= 0.70
     Davidson diagonalization with overlap
     ethr =  1.79E-12,  avg # of iterations =  2.0

     negative rho (up, down):  8.598E-05 0.000E+00

     total cpu time spent up to now is       19.3 secs

     End of self-consistent calculation

          k = 0.0000 0.0000 0.0000 (  5455 PWs)   bands (ev):

   -45.6630 -24.2267 -23.3173 -23.3173 -21.0610 -13.5970  -3.6873  -2.8359
    -2.8359  -1.7271  -0.0162  -0.0162   3.4367   5.4432   5.4432   5.7683
     6.6477   6.6477   7.7368   8.6138  10.9936  13.6537  14.5286  14.5286
    15.4336  17.1454

          k = 0.0000 0.0722 0.0000 (  5463 PWs)   bands (ev):

   -45.6599 -24.2156 -23.3576 -23.3235 -21.0504 -13.5738  -3.6494  -2.8794
    -2.8363  -1.7148  -0.1743  -0.0455   3.4461   5.3997   5.5015   5.8562
     6.6106   6.6953   7.8600   8.8078  11.1198  13.7316  14.2457  14.6304
    15.2443  17.1125

          k = 0.0000 0.1443 0.0000 (  5463 PWs)   bands (ev):

   -45.6509 -24.1844 -23.4675 -23.3411 -21.0245 -13.5064  -3.5484  -2.9891
    -2.8391  -1.6964  -0.5792  -0.1260   3.4475   5.3370   5.6800   5.9717
     6.7041   6.8233   8.2001   9.2517  11.4872  13.6023  13.9046  14.9334
    14.9395  17.0139

          k = 0.0000 0.2165 0.0000 (  5480 PWs)   bands (ev):

   -45.6375 -24.1403 -23.6185 -23.3672 -20.9963 -13.4026  -3.4275  -3.1149
    -2.8476  -1.7259  -1.0704  -0.2391   3.3909   5.3824   5.9826   6.0032
     6.9973   7.0760   8.6873   9.7601  11.9548  13.1410  13.6759  15.1297
    15.4262  16.8495

          k = 0.0000 0.2887 0.0000 (  5492 PWs)   bands (ev):

   -45.6216 -24.1017 -23.7695 -23.3979 -20.9762 -13.2749  -3.4005  -3.1544
    -2.8638  -1.9551  -1.3895  -0.3623   3.2761   5.5778   6.0965   6.3963
     7.1852   7.5803   9.2185  10.2464  11.9885  13.0647  13.6835  15.6446
    16.0373  16.6560

          k = 0.0000 0.3608 0.0000 (  5480 PWs)   bands (ev):

   -45.6056 -24.1147 -23.8561 -23.4284 -20.9681 -13.1410  -3.4990  -3.0968
    -2.8863  -2.3691  -1.4615  -0.4757   3.1574   5.8366   6.3219   6.8608
     7.3881   8.1521   9.6689  10.6553  11.8528  12.8656  14.3933  15.3340
    16.0831  16.3030

          k = 0.0000 0.4330 0.0000 (  5494 PWs)   bands (ev):

   -45.5920 -24.1930 -23.8537 -23.4540 -20.9694 -13.0221  -3.6076  -3.0780
    -2.9099  -2.7080  -1.4689  -0.5651   3.0769   6.0693   6.6104   7.2032
     7.6936   8.7805   9.9682  10.9822  11.9374  12.7845  14.0467  14.9318
    15.6535  15.8007

          k = 0.0000 0.5052 0.0000 (  5496 PWs)   bands (ev):

   -45.5829 -24.2638 -23.8295 -23.4710 -20.9741 -12.9395  -3.6909  -3.1347
    -2.9278  -2.8623  -1.4649  -0.6218   3.0391   6.2506   6.7972   7.3392
     8.0574   9.4224  10.1954  11.2522  12.0081  12.6809  13.2863  14.6438
    15.0828  15.2373

          k = 0.0000-0.5774 0.0000 (  5494 PWs)   bands (ev):

   -45.5797 -24.2901 -23.8189 -23.4770 -20.9764 -12.9099  -3.7238  -3.1765
    -2.9345  -2.8922  -1.4626  -0.6411   3.0294   6.3273   6.8440   7.3741
     8.2164   9.7826  10.2897  11.4993  11.7634  12.4394  13.3461  14.2919
    14.8786  15.0616

          k = 0.0625 0.1083 0.0000 (  5464 PWs)   bands (ev):

   -45.6538 -24.1944 -23.4316 -23.3364 -21.0322 -13.5284  -3.5795  -2.9547
    -2.8394  -1.6994  -0.4492  -0.1068   3.4524   5.3366   5.6306   5.9585
     6.6334   6.7917   8.0915   9.1215  11.3699  13.7393  13.9252  14.7584
    15.0635  17.0148

          k = 0.0625 0.1804 0.0000 (  5476 PWs)   bands (ev):

   -45.6426 -24.1565 -23.5593 -23.3611 -21.0055 -13.4427  -3.4641  -3.0718
    -2.8493  -1.7008  -0.8860  -0.2186   3.4293   5.3037   5.8952   6.0200
     6.8298   7.0002   8.5060   9.5847  11.8320  13.2563  13.7769  14.8409
    15.3813  16.8230

          k = 0.0625 0.2526 0.0000 (  5505 PWs)   bands (ev):

   -45.6279 -24.1133 -23.7079 -23.3933 -20.9818 -13.3267  -3.3724  -3.1649
    -2.8683  -1.8106  -1.2939  -0.3545   3.3519   5.4066   6.0466   6.3107
     7.0528   7.4003   9.0198  10.0768  12.1702  13.0316  13.4785  15.2674
    15.9219  16.6042

          k = 0.0625 0.3248 0.0000 (  5487 PWs)   bands (ev):

   -45.6120 -24.0952 -23.8274 -23.4281 -20.9683 -13.1953  -3.4287  -3.1267
    -2.8972  -2.1576  -1.4483  -0.4906   3.2479   5.6572   6.1641   6.7637
     7.2601   7.9397   9.5215  10.5373  11.9967  12.9604  13.8909  15.5541
    16.0560  16.3649

          k = 0.0625 0.3969 0.0000 (  5483 PWs)   bands (ev):

   -45.5972 -24.1471 -23.8590 -23.4600 -20.9654 -13.0680  -3.5365  -3.0762
    -2.9367  -2.5288  -1.4734  -0.6085   3.1642   5.9689   6.3659   7.1138
     7.5286   8.5829   9.9048  10.9173  11.9438  12.8103  14.5063  14.7561
    15.5790  16.3010

          k = 0.0625 0.4691 0.0000 (  5486 PWs)   bands (ev):

   -45.5858 -24.2261 -23.8380 -23.4843 -20.9688 -12.9663  -3.6288  -3.1177
    -2.9677  -2.7409  -1.4731  -0.6944   3.1200   6.2179   6.6185   7.2753
     7.8269   9.3099  10.1716  11.2117  12.0468  12.7974  13.5633  14.7202
    15.0591  15.7923

          k = 0.0625 0.5413 0.0000 (  5505 PWs)   bands (ev):

   -45.5797 -24.2746 -23.8188 -23.4975 -20.9725 -12.9095  -3.6849  -3.1997
    -2.9738  -2.8051  -1.4701  -0.7394   3.1052   6.3516   6.7908   7.3301
     8.0170   9.9306  10.3733  11.4529  11.9371  12.5323  13.2894  14.3178
    14.8722  15.2188

          k = 0.1250 0.2165 0.0000 (  5500 PWs)   bands (ev):

   -45.6302 -24.1183 -23.6804 -23.3967 -20.9839 -13.3446  -3.3604  -3.1653
    -2.8769  -1.7640  -1.2338  -0.3779   3.3937   5.3014   6.0702   6.3076
     6.9625   7.3566   8.9506  10.0205  12.3573  12.8545  13.4602  15.0757
    15.9247  16.5509

          k = 0.1250 0.2887 0.0000 (  5499 PWs)   bands (ev):

   -45.6155 -24.0891 -23.7953 -23.4410 -20.9677 -13.2241  -3.3560  -3.1631
    -2.9208  -2.0022  -1.4342  -0.5625   3.3473   5.4233   6.1789   6.7332
     7.1561   7.8557   9.4483  10.4917  12.3996  12.9892  13.2784  15.3381
    15.9505  16.8692

          k = 0.1250 0.3608 0.0000 (  5494 PWs)   bands (ev):

   -45.6007 -24.1087 -23.8512 -23.4861 -20.9604 -13.0980  -3.4486  -3.0863
    -2.9827  -2.3365  -1.4845  -0.7395   3.3099   5.6953   6.3036   6.9982
     7.4662   8.5139   9.9039  10.9485  12.1869  12.8563  13.9588  14.8931
    15.6957  16.2971

          k = 0.1250 0.4330 0.0000 (  5496 PWs)   bands (ev):

   -45.5881 -24.1756 -23.8415 -23.5248 -20.9604 -12.9861  -3.5346  -3.1156
    -3.0075  -2.5757  -1.4933  -0.8852   3.2963   6.0780   6.4093   7.1545
     7.7037   9.3234  10.2560  11.3260  12.1615  12.8062  14.0429  14.4706
    14.9809  16.1809

          k = 0.1250 0.5052 0.0000 (  5495 PWs)   bands (ev):

   -45.5797 -24.2336 -23.8182 -23.5508 -20.9633 -12.9087  -3.5930  -3.2341
    -2.9906  -2.6758  -1.4935  -0.9809   3.3007   6.4138   6.5279   7.2589
     7.7601  10.1399  10.5352  11.5573  12.1689  12.7856  13.2666  14.3295
    14.8099  15.7096

          k = 0.1250 0.5774 0.0000 (  5504 PWs)   bands (ev):

   -45.5767 -24.2552 -23.8083 -23.5600 -20.9649 -12.8809  -3.6140  -3.2866
    -2.9863  -2.6988  -1.4931  -1.0141   3.3052   6.4570   6.7000   7.2805
     7.7468  10.4196  10.8692  11.7585  11.8574  12.5381  13.3081  14.1373
    14.9443  15.1817

          k = 0.1875 0.3248 0.0000 (  5498 PWs)   bands (ev):

   -45.6019 -24.0945 -23.8437 -23.5015 -20.9581 -13.1083  -3.4032  -3.0991
    -3.0022  -2.2468  -1.4936  -0.8114   3.3864   5.5264   6.3650   6.9013
     7.4654   8.4958   9.9099  10.9631  12.5025  12.8372  13.5073  14.8359
    16.0981  16.1861

          k = 0.1875 0.3969 0.0000 (  5495 PWs)   bands (ev):

   -45.5893 -24.1377 -23.8402 -23.5624 -20.9542 -12.9967  -3.4649  -3.1133
    -3.0316  -2.4433  -1.5224  -1.0468   3.4558   5.7601   6.5110   6.9814
     7.7065   9.3279  10.3421  11.4307  12.4698  12.7491  14.0120  14.2699
    15.1467  16.0255

          k = 0.1875 0.4691 0.0000 (  5497 PWs)   bands (ev):

   -45.5797 -24.1857 -23.8169 -23.6116 -20.9542 -12.9079  -3.5180  -3.2278
    -2.9929  -2.5474  -1.5427  -1.2254   3.5286   6.1072   6.5386   7.1399
     7.7085  10.2314  10.6837  11.7718  12.3800  12.8680  13.6520  14.2944
    14.6385  15.8652

          k = 0.1875 0.5413 0.0000 (  5506 PWs)   bands (ev):

   -45.5745 -24.2140 -23.8000 -23.6393 -20.9553 -12.8585  -3.5502  -3.3011
    -2.9779  -2.5824  -1.5583  -1.3181   3.5749   6.4345   6.5275   7.2722
     7.5521  10.6541  11.3034  11.8997  12.2259  12.7301  13.3269  14.2279
    14.7982  15.5275

          k = 0.2500 0.4330 0.0000 (  5488 PWs)   bands (ev):

   -45.5797 -24.1629 -23.8159 -23.6403 -20.9505 -12.9075  -3.4980  -3.2076
    -2.9926  -2.4821  -1.5917  -1.3157   3.6400   5.9160   6.6047   7.0550
     7.7241  10.2473  10.7535  11.8227  12.5792  12.8674  13.9259  14.2665
    14.5150  15.4371

          k = 0.2500 0.5052 0.0000 (  5511 PWs)   bands (ev):

   -45.5732 -24.1758 -23.7953 -23.6999 -20.9489 -12.8462  -3.5515  -3.2371
    -2.9646  -2.4822  -1.7217  -1.4422   3.7926   6.1649   6.5602   7.2000
     7.5693  10.7835  11.3312  11.9204  12.7645  13.1352  13.5101  14.1699
    14.5500  15.2397

          k = 0.2500 0.5774 0.0000 (  5526 PWs)   bands (ev):

   -45.5710 -24.1792 -23.7874 -23.7226 -20.9485 -12.8243  -3.5780  -3.2376
    -2.9546  -2.4761  -1.7936  -1.4691   3.8514   6.3320   6.5295   7.1906
     7.5054  10.7955  11.9259  12.2742  12.2850  13.0102  13.5752  14.1120
    14.7321  15.4601

          k = 0.3125 0.5413 0.0000 (  5524 PWs)   bands (ev):

   -45.5698 -24.1596 -23.7830 -23.7595 -20.9459 -12.8122  -3.6001  -3.1893
    -2.9383  -2.4030  -1.9639  -1.4924   3.9778   6.2651   6.5290   7.0903
     7.5621  10.8155  11.9031  12.2519  13.1288  13.2066  13.4339  13.8109
    14.7474  15.4471

     highest occupied, lowest unoccupied level (ev):     3.9778    5.3014

!    total energy              =    -446.24503349 Ry
     total all-electron energy =     -8320.715313 Ry
     estimated scf accuracy    <          2.2E-11 Ry

     The total energy is the sum of the following terms:
     one-electron contribution =    -303.61837899 Ry
     hartree contribution      =     159.95956103 Ry
     xc contribution           =     -38.51304134 Ry
     ewald contribution        =       2.55171597 Ry
     one-center paw contrib.   =    -266.62489015 Ry

     convergence has been achieved in   6 iterations

     negative rho (up, down):  8.598E-05 0.000E+00

     Forces acting on atoms (cartesian axes, Ry/au):

     atom    1 type  1   force =     0.00000000    0.00000000    0.00003235
     atom    2 type  2   force =     0.00000000    0.00000000    0.00010746
     atom    3 type  3   force =     0.00000000   -0.00000000   -0.00013981
     The non-local contrib.  to forces
     atom    1 type  1   force =     0.00000000    0.00000000   -0.02167037
     atom    2 type  2   force =     0.00000000   -0.00000000   -1.09328143
     atom    3 type  3   force =     0.00000000    0.00000000    0.22321250
     The ionic contribution  to forces
     atom    1 type  1   force =    -0.00000001    0.00000001   -0.35457964
     atom    2 type  2   force =     0.00000001   -0.00000000   26.70609814
     atom    3 type  3   force =     0.00000000   -0.00000000  -26.35151851
     The local contribution  to forces
     atom    1 type  1   force =    -0.00000000    0.00000000    0.37249325
     atom    2 type  2   force =     0.00000027   -0.00000015  -25.61629544
     atom    3 type  3   force =     0.00000003   -0.00000002   26.13548055
     The core correction contribution to forces
     atom    1 type  1   force =    -0.00000000    0.00000000    0.00371530
     atom    2 type  2   force =     0.00000000   -0.00000000    0.00352311
     atom    3 type  3   force =    -0.00000000    0.00000000   -0.00738020
     The Hubbard contrib.    to forces
     atom    1 type  1   force =     0.00000000    0.00000000    0.00000000
     atom    2 type  2   force =     0.00000000    0.00000000    0.00000000
     atom    3 type  3   force =     0.00000000    0.00000000    0.00000000
     The SCF correction term to forces
     atom    1 type  1   force =    -0.00000000    0.00000000    0.00000556
     atom    2 type  2   force =    -0.00000000    0.00000000   -0.00000517
     atom    3 type  3   force =     0.00000000   -0.00000000   -0.00000239

     Total force =     0.000179     Total SCF correction =     0.000008
     Energy error            =      5.4E-07 Ry
     Gradient error          =      1.4E-04 Ry/Bohr

     number of scf cycles    =   4
     number of bfgs steps    =   3

     energy             old  =    -446.2450329493 Ry
     energy             new  =    -446.2450334853 Ry

     CASE: energy            _new < energy            _old

     new trust radius        =       0.0006215557 bohr
     new conv_thr            =            1.0E-10 Ry


ATOMIC_POSITIONS (angstrom)
Zr            0.0000000000        0.0000000000        9.5701941940
F            -0.0000000020        1.8815103543       10.9050780225
Cl           -0.0000000020        1.8815103543        7.8109026920



     Writing config-only to output data dir ./tmp/ZrFCl.save/
     NEW-OLD atomic charge density approx. for the potential

     Check: negative core charge=   -0.000005

     negative rho (up, down):  8.590E-05 0.000E+00

     total cpu time spent up to now is       19.7 secs

     Self-consistent Calculation

     iteration #  1     ecut=    65.00 Ry     beta= 0.70
     Davidson diagonalization with overlap
     ethr =  1.00E-06,  avg # of iterations =  2.0

     Threshold (ethr) on eigenvalues was too large:
     Diagonalizing with lowered threshold

     Davidson diagonalization with overlap
     ethr =  2.34E-10,  avg # of iterations =  4.0

     negative rho (up, down):  8.586E-05 0.000E+00

     total cpu time spent up to now is       20.9 secs

     total energy              =    -446.24503353 Ry
     estimated scf accuracy    <       0.00000007 Ry

     iteration #  2     ecut=    65.00 Ry     beta= 0.70
     Davidson diagonalization with overlap
     ethr =  2.65E-10,  avg # of iterations =  2.0

     negative rho (up, down):  8.590E-05 0.000E+00

     total cpu time spent up to now is       21.5 secs

     total energy              =    -446.24503353 Ry
     estimated scf accuracy    <       0.00000013 Ry

     iteration #  3     ecut=    65.00 Ry     beta= 0.70
     Davidson diagonalization with overlap
     ethr =  2.65E-10,  avg # of iterations =  1.9

     negative rho (up, down):  8.591E-05 0.000E+00

     total cpu time spent up to now is       22.0 secs

     total energy              =    -446.24503356 Ry
     estimated scf accuracy    <          6.1E-09 Ry

     iteration #  4     ecut=    65.00 Ry     beta= 0.70
     Davidson diagonalization with overlap
     ethr =  2.36E-11,  avg # of iterations =  2.0

     negative rho (up, down):  8.591E-05 0.000E+00

     total cpu time spent up to now is       22.6 secs

     total energy              =    -446.24503356 Ry
     estimated scf accuracy    <          6.2E-10 Ry

     iteration #  5     ecut=    65.00 Ry     beta= 0.70
     Davidson diagonalization with overlap
     ethr =  2.40E-12,  avg # of iterations =  2.0

     negative rho (up, down):  8.591E-05 0.000E+00

     total cpu time spent up to now is       23.1 secs

     total energy              =    -446.24503356 Ry
     estimated scf accuracy    <          1.3E-10 Ry

     iteration #  6     ecut=    65.00 Ry     beta= 0.70
     Davidson diagonalization with overlap
     ethr =  4.99E-13,  avg # of iterations =  2.0

     negative rho (up, down):  8.592E-05 0.000E+00

     total cpu time spent up to now is       23.7 secs

     End of self-consistent calculation

          k = 0.0000 0.0000 0.0000 (  5455 PWs)   bands (ev):

   -45.6642 -24.2274 -23.3184 -23.3184 -21.0606 -13.5970  -3.6866  -2.8347
    -2.8347  -1.7274  -0.0155  -0.0155   3.4347   5.4417   5.4417   5.7681
     6.6469   6.6469   7.7370   8.6140  10.9936  13.6545  14.5280  14.5280
    15.4307  17.1446

          k = 0.0000 0.0722 0.0000 (  5463 PWs)   bands (ev):

   -45.6611 -24.2163 -23.3587 -23.3246 -21.0500 -13.5737  -3.6487  -2.8783
    -2.8352  -1.7150  -0.1736  -0.0448   3.4443   5.3981   5.5000   5.8560
     6.6099   6.6945   7.8602   8.8080  11.1198  13.7324  14.2449  14.6297
    15.2419  17.1117

          k = 0.0000 0.1443 0.0000 (  5463 PWs)   bands (ev):

   -45.6521 -24.1850 -23.4685 -23.3422 -21.0242 -13.5064  -3.5476  -2.9880
    -2.8380  -1.6966  -0.5787  -0.1254   3.4458   5.3354   5.6786   5.9713
     6.7035   6.8224   8.2001   9.2519  11.4871  13.6016  13.9047  14.9329
    14.9380  17.0131

          k = 0.0000 0.2165 0.0000 (  5480 PWs)   bands (ev):

   -45.6387 -24.1410 -23.6195 -23.3683 -20.9960 -13.4025  -3.4267  -3.1140
    -2.8465  -1.7260  -1.0702  -0.2385   3.3895   5.3806   5.9813   6.0025
     6.9962   7.0756   8.6870   9.7603  11.9544  13.1404  13.6753  15.1295
    15.4258  16.8487

          k = 0.0000 0.2887 0.0000 (  5492 PWs)   bands (ev):

   -45.6228 -24.1023 -23.7704 -23.3990 -20.9759 -13.2748  -3.3995  -3.1536
    -2.8628  -1.9549  -1.3898  -0.3617   3.2749   5.5762   6.0955   6.3951
     7.1839   7.5799   9.2178  10.2465  11.9880  13.0639  13.6833  15.6446
    16.0371  16.6552

          k = 0.0000 0.3608 0.0000 (  5480 PWs)   bands (ev):

   -45.6068 -24.1153 -23.8571 -23.4294 -20.9678 -13.1409  -3.4981  -3.0962
    -2.8853  -2.3688  -1.4619  -0.4752   3.1564   5.8353   6.3206   6.8597
     7.3866   8.1515   9.6679  10.6554  11.8525  12.8648  14.3932  15.3342
    16.0826  16.3028

          k = 0.0000 0.4330 0.0000 (  5494 PWs)   bands (ev):

   -45.5932 -24.1935 -23.8547 -23.4551 -20.9691 -13.0219  -3.6067  -3.0774
    -2.9089  -2.7077  -1.4692  -0.5646   3.0759   6.0681   6.6092   7.2020
     7.6922   8.7794   9.9673  10.9822  11.9370  12.7839  14.0468  14.9319
    15.6529  15.7999

          k = 0.0000 0.5052 0.0000 (  5496 PWs)   bands (ev):

   -45.5841 -24.2643 -23.8306 -23.4721 -20.9738 -12.9393  -3.6901  -3.1342
    -2.9268  -2.8619  -1.4652  -0.6213   3.0380   6.2492   6.7962   7.3377
     8.0563   9.4207  10.1951  11.2518  12.0076  12.6808  13.2864  14.6437
    15.0822  15.2367

          k = 0.0000-0.5774 0.0000 (  5494 PWs)   bands (ev):

   -45.5809 -24.2906 -23.8199 -23.4780 -20.9761 -12.9097  -3.7230  -3.1762
    -2.9335  -2.8917  -1.4629  -0.6406   3.0283   6.3258   6.8431   7.3725
     8.2154   9.7806  10.2895  11.4985  11.7638  12.4390  13.3463  14.2912
    14.8784  15.0609

          k = 0.0625 0.1083 0.0000 (  5464 PWs)   bands (ev):

   -45.6550 -24.1951 -23.4327 -23.3375 -21.0318 -13.5284  -3.5788  -2.9536
    -2.8383  -1.6996  -0.4486  -0.1061   3.4507   5.3349   5.6291   5.9582
     6.6328   6.7908   8.0915   9.1217  11.3698  13.7390  13.9251  14.7575
    15.0619  17.0139

          k = 0.0625 0.1804 0.0000 (  5476 PWs)   bands (ev):

   -45.6438 -24.1571 -23.5603 -23.3622 -21.0052 -13.4427  -3.4633  -3.0708
    -2.8482  -1.7009  -0.8856  -0.2180   3.4278   5.3019   5.8938   6.0195
     6.8291   6.9995   8.5058   9.5850  11.8317  13.2555  13.7765  14.8405
    15.3807  16.8222

          k = 0.0625 0.2526 0.0000 (  5505 PWs)   bands (ev):

   -45.6292 -24.1139 -23.7088 -23.3944 -20.9816 -13.3266  -3.3715  -3.1640
    -2.8672  -1.8104  -1.2940  -0.3539   3.3507   5.4048   6.0458   6.3095
     7.0516   7.3999   9.0193  10.0770  12.1696  13.0310  13.4779  15.2675
    15.9216  16.6033

          k = 0.0625 0.3248 0.0000 (  5487 PWs)   bands (ev):

   -45.6132 -24.0957 -23.8283 -23.4291 -20.9681 -13.1952  -3.4277  -3.1259
    -2.8962  -2.1572  -1.4486  -0.4901   3.2468   5.6556   6.1631   6.7626
     7.2587   7.9392   9.5206  10.5374  11.9963  12.9595  13.8908  15.5539
    16.0558  16.3649

          k = 0.0625 0.3969 0.0000 (  5483 PWs)   bands (ev):

   -45.5984 -24.1476 -23.8600 -23.4610 -20.9652 -13.0678  -3.5356  -3.0756
    -2.9357  -2.5285  -1.4737  -0.6080   3.1632   5.9676   6.3646   7.1127
     7.5272   8.5822   9.9037  10.9174  11.9435  12.8096  14.5061  14.7562
    15.5785  16.3006

          k = 0.0625 0.4691 0.0000 (  5486 PWs)   bands (ev):

   -45.5870 -24.2265 -23.8390 -23.4854 -20.9685 -12.9661  -3.6280  -3.1171
    -2.9668  -2.7405  -1.4734  -0.6939   3.1189   6.2166   6.6173   7.2739
     7.8256   9.3087  10.1709  11.2116  12.0463  12.7971  13.5634  14.7200
    15.0586  15.7917

          k = 0.0625 0.5413 0.0000 (  5505 PWs)   bands (ev):

   -45.5809 -24.2751 -23.8198 -23.4986 -20.9723 -12.9093  -3.6841  -3.1992
    -2.9730  -2.8046  -1.4704  -0.7390   3.1041   6.3502   6.7899   7.3286
     8.0157   9.9291  10.3730  11.4524  11.9370  12.5320  13.2895  14.3174
    14.8718  15.2182

          k = 0.1250 0.2165 0.0000 (  5500 PWs)   bands (ev):

   -45.6314 -24.1190 -23.6813 -23.3978 -20.9836 -13.3445  -3.3595  -3.1644
    -2.8758  -1.7639  -1.2338  -0.3773   3.3926   5.2996   6.0694   6.3064
     6.9615   7.3561   8.9502  10.0208  12.3569  12.8537  13.4595  15.0759
    15.9243  16.5500

          k = 0.1250 0.2887 0.0000 (  5499 PWs)   bands (ev):

   -45.6167 -24.0897 -23.7962 -23.4421 -20.9675 -13.2240  -3.3551  -3.1624
    -2.9198  -2.0019  -1.4345  -0.5620   3.3463   5.4214   6.1780   6.7322
     7.1547   7.8553   9.4475  10.4920  12.3991  12.9883  13.2781  15.3380
    15.9503  16.8689

          k = 0.1250 0.3608 0.0000 (  5494 PWs)   bands (ev):

   -45.6019 -24.1092 -23.8522 -23.4872 -20.9601 -13.0978  -3.4477  -3.0856
    -2.9817  -2.3363  -1.4848  -0.7391   3.3090   5.6936   6.3025   6.9970
     7.4649   8.5134   9.9028  10.9487  12.1866  12.8556  13.9585  14.8925
    15.6958  16.2971

          k = 0.1250 0.4330 0.0000 (  5496 PWs)   bands (ev):

   -45.5893 -24.1761 -23.8425 -23.5258 -20.9601 -12.9860  -3.5338  -3.1148
    -3.0067  -2.5754  -1.4936  -0.8849   3.2954   6.0766   6.4080   7.1532
     7.7024   9.3228  10.2549  11.3261  12.1611  12.8058  14.0428  14.4702
    14.9806  16.1804

          k = 0.1250 0.5052 0.0000 (  5495 PWs)   bands (ev):

   -45.5809 -24.2341 -23.8193 -23.5518 -20.9630 -12.9085  -3.5922  -3.2334
    -2.9898  -2.6754  -1.4937  -0.9805   3.2997   6.4124   6.5268   7.2575
     7.7585  10.1390  10.5345  11.5572  12.1682  12.7854  13.2667  14.3291
    14.8096  15.7090

          k = 0.1250 0.5774 0.0000 (  5504 PWs)   bands (ev):

   -45.5779 -24.2557 -23.8093 -23.5611 -20.9646 -12.8807  -3.6132  -3.2859
    -2.9856  -2.6984  -1.4934  -1.0138   3.3042   6.4554   6.6992   7.2790
     7.7450  10.4188  10.8683  11.7578  11.8578  12.5375  13.3082  14.1369
    14.9439  15.1813

          k = 0.1875 0.3248 0.0000 (  5498 PWs)   bands (ev):

   -45.6031 -24.0950 -23.8447 -23.5025 -20.9579 -13.1082  -3.4022  -3.0983
    -3.0012  -2.2465  -1.4939  -0.8110   3.3856   5.5246   6.3639   6.9002
     7.4640   8.4953   9.9087  10.9634  12.5022  12.8366  13.5068  14.8352
    16.0983  16.1860

          k = 0.1875 0.3969 0.0000 (  5495 PWs)   bands (ev):

   -45.5905 -24.1382 -23.8412 -23.5635 -20.9539 -12.9965  -3.4640  -3.1124
    -3.0309  -2.4430  -1.5226  -1.0465   3.4551   5.7584   6.5097   6.9801
     7.7052   9.3276  10.3407  11.4309  12.4695  12.7487  14.0115  14.2690
    15.1468  16.0255

          k = 0.1875 0.4691 0.0000 (  5497 PWs)   bands (ev):

   -45.5809 -24.1862 -23.8180 -23.6127 -20.9539 -12.9077  -3.5171  -3.2270
    -2.9922  -2.5471  -1.5428  -1.2253   3.5278   6.1058   6.5370   7.1386
     7.7069  10.2313  10.6825  11.7719  12.3793  12.8677  13.6518  14.2940
    14.6383  15.8652

          k = 0.1875 0.5413 0.0000 (  5506 PWs)   bands (ev):

   -45.5757 -24.2145 -23.8010 -23.6403 -20.9550 -12.8583  -3.5494  -3.3003
    -2.9772  -2.5821  -1.5583  -1.3181   3.5740   6.4336   6.5259   7.2708
     7.5502  10.6535  11.3028  11.8996  12.2253  12.7297  13.3268  14.2277
    14.7978  15.5271

          k = 0.2500 0.4330 0.0000 (  5488 PWs)   bands (ev):

   -45.5809 -24.1633 -23.8169 -23.6413 -20.9502 -12.9073  -3.4971  -3.2068
    -2.9919  -2.4819  -1.5917  -1.3158   3.6393   5.9145   6.6031   7.0537
     7.7226  10.2473  10.7522  11.8229  12.5790  12.8666  13.9253  14.2661
    14.5151  15.4374

          k = 0.2500 0.5052 0.0000 (  5511 PWs)   bands (ev):

   -45.5745 -24.1763 -23.7964 -23.7009 -20.9487 -12.8460  -3.5506  -3.2364
    -2.9639  -2.4820  -1.7216  -1.4425   3.7919   6.1638   6.5585   7.1986
     7.5674  10.7830  11.3309  11.9202  12.7640  13.1346  13.5100  14.1697
    14.5497  15.2400

          k = 0.2500 0.5774 0.0000 (  5526 PWs)   bands (ev):

   -45.5722 -24.1796 -23.7884 -23.7236 -20.9483 -12.8241  -3.5771  -3.2368
    -2.9539  -2.4758  -1.7935  -1.4693   3.8506   6.3313   6.5277   7.1888
     7.5034  10.7948  11.9255  12.2744  12.2849  13.0094  13.5749  14.1117
    14.7321  15.4600

          k = 0.3125 0.5413 0.0000 (  5524 PWs)   bands (ev):

   -45.5710 -24.1600 -23.7840 -23.7605 -20.9457 -12.8119  -3.5992  -3.1886
    -2.9376  -2.4028  -1.9638  -1.4927   3.9771   6.2645   6.5272   7.0884
     7.5602  10.8148  11.9028  12.2522  13.1290  13.2068  13.4329  13.8101
    14.7474  15.4470

     highest occupied, lowest unoccupied level (ev):     3.9771    5.2996

!    total energy              =    -446.24503356 Ry
     total all-electron energy =     -8320.715313 Ry
     estimated scf accuracy    <          6.0E-12 Ry

     The total energy is the sum of the following terms:
     one-electron contribution =    -303.55280235 Ry
     hartree contribution      =     159.92644344 Ry
     xc contribution           =     -38.51271992 Ry
     ewald contribution        =       2.51892427 Ry
     one-center paw contrib.   =    -266.62487900 Ry

     convergence has been achieved in   6 iterations

     negative rho (up, down):  8.592E-05 0.000E+00

     Forces acting on atoms (cartesian axes, Ry/au):

     atom    1 type  1   force =     0.00000000    0.00000000    0.00002767
     atom    2 type  2   force =     0.00000000    0.00000000   -0.00001210
     atom    3 type  3   force =     0.00000000    0.00000000   -0.00001557
     The non-local contrib.  to forces
     atom    1 type  1   force =     0.00000000    0.00000000   -0.02166645
     atom    2 type  2   force =     0.00000000   -0.00000000   -1.09364915
     atom    3 type  3   force =     0.00000000   -0.00000000    0.22328460
     The ionic contribution  to forces
     atom    1 type  1   force =    -0.00000001    0.00000001   -0.35603275
     atom    2 type  2   force =     0.00000001   -0.00000000   26.70399785
     atom    3 type  3   force =     0.00000000   -0.00000000  -26.34796510
     The local contribution  to forces
     atom    1 type  1   force =    -0.00000000    0.00000000    0.37394346
     atom    2 type  2   force =     0.00000027   -0.00000015  -25.61394992
     atom    3 type  3   force =     0.00000003   -0.00000002   26.13198146
     The core correction contribution to forces
     atom    1 type  1   force =    -0.00000000    0.00000000    0.00371377
     atom    2 type  2   force =     0.00000000   -0.00000000    0.00352476
     atom    3 type  3   force =    -0.00000000    0.00000000   -0.00738302
     The Hubbard contrib.    to forces
     atom    1 type  1   force =     0.00000000    0.00000000    0.00000000
     atom    2 type  2   force =     0.00000000    0.00000000    0.00000000
     atom    3 type  3   force =     0.00000000    0.00000000    0.00000000
     The SCF correction term to forces
     atom    1 type  1   force =    -0.00000000    0.00000000    0.00000251
     atom    2 type  2   force =    -0.00000000    0.00000000   -0.00000278
     atom    3 type  3   force =     0.00000000   -0.00000000   -0.00000062

     Total force =     0.000034     Total SCF correction =     0.000004
     SCF correction compared to forces is large: reduce conv_thr to get better values
     Energy error            =      7.8E-08 Ry
     Gradient error          =      2.8E-05 Ry/Bohr

     bfgs converged in   5 scf cycles and   4 bfgs steps
     (criteria: energy <  1.0E-05 Ry, force <  1.0E-04 Ry/Bohr)

     End of BFGS Geometry Optimization

     Final energy             =    -446.2450335632 Ry

     File ./tmp/ZrFCl.bfgs deleted, as requested
Begin final coordinates

ATOMIC_POSITIONS (angstrom)
Zr            0.0000000000        0.0000000000        9.5701941940
F            -0.0000000020        1.8815103543       10.9050780225
Cl           -0.0000000020        1.8815103543        7.8109026920
End final coordinates



     Writing all to output data dir ./tmp/ZrFCl.save/

     init_run     :      0.31s CPU      0.34s WALL (       1 calls)
     electrons    :     20.97s CPU     21.71s WALL (       5 calls)
     update_pot   :      0.46s CPU      0.49s WALL (       4 calls)
     forces       :      0.62s CPU      0.62s WALL (       5 calls)

     Called by init_run:
     wfcinit      :      0.16s CPU      0.16s WALL (       1 calls)
     potinit      :      0.07s CPU      0.08s WALL (       1 calls)
     hinit0       :      0.06s CPU      0.07s WALL (       1 calls)

     Called by electrons:
     c_bands      :     16.90s CPU     17.25s WALL (      36 calls)
     sum_band     :      2.45s CPU      2.50s WALL (      36 calls)
     v_of_rho     :      0.10s CPU      0.10s WALL (      36 calls)
     newd         :      0.29s CPU      0.32s WALL (      36 calls)
     PAW_pot      :      1.63s CPU      2.02s WALL (      40 calls)
     mix_rho      :      0.01s CPU      0.01s WALL (      36 calls)

     Called by c_bands:
     init_us_2    :      0.14s CPU      0.14s WALL (    2460 calls)
     init_us_2:cp :      0.13s CPU      0.14s WALL (    2460 calls)
     cegterg      :     16.53s CPU     16.87s WALL (    1080 calls)

     Called by *egterg:
     cdiaghg      :      2.82s CPU      2.85s WALL (    3509 calls)
     h_psi        :      9.14s CPU      9.42s WALL (    3809 calls)
     s_psi        :      0.64s CPU      0.65s WALL (    3809 calls)
     g_psi        :      0.02s CPU      0.02s WALL (    2699 calls)

     Called by h_psi:
     h_psi:calbec :      1.14s CPU      1.17s WALL (    3809 calls)
     vloc_psi     :      7.34s CPU      7.57s WALL (    3809 calls)
     add_vuspsi   :      0.64s CPU      0.65s WALL (    3809 calls)

     General routines
     calbec       :      1.95s CPU      1.99s WALL (    5609 calls)
     fft          :      0.09s CPU      0.09s WALL (     460 calls)
     ffts         :      0.00s CPU      0.00s WALL (      36 calls)
     fftw         :      8.27s CPU      8.52s WALL (  158584 calls)

     Parallel routines

     PWSCF        :     23.08s CPU     24.06s WALL


   This run was terminated on:   9:14:25  18Sep2026            

=------------------------------------------------------------------------------=
   JOB DONE.
=------------------------------------------------------------------------------=
Note: The following floating-point exceptions are signalling: IEEE_INVALID_FLAG
