
     Program PWSCF v.7.2 starts on 18Sep2026 at  9:22: 2 

     This program is part of the open-source Quantum ESPRESSO suite
     for quantum simulation of materials; please cite
         "P. Giannozzi et al., J. Phys.:Condens. Matter 21 395502 (2009);
         "P. Giannozzi et al., J. Phys.:Condens. Matter 29 465901 (2017);
         "P. Giannozzi et al., J. Chem. Phys. 152 154105 (2020);
          URL http://www.quantum-espresso.org", 
     in publications or presentations arising from this work. More details at
     http://www.quantum-espresso.org/quote

     Parallel version (MPI), running on    32 processors

     MPI processes distributed on     1 nodes
     228816 MiB available memory on the printing compute node when the environment starts

     Waiting for input...
     Reading input from standard input

     Current dimensions of program PWSCF are:
     Max number of different atomic species (ntypx) = 10
     Max number of k-points (npk) =  40000
     Max angular momentum in pseudopotentials (lmaxx) =  4
     file Zr.pbe-spn-kjpaw_psl.1.0.0.UPF: wavefunction(s)  4S 4P renormalized
     file F.pbe-n-kjpaw_psl.1.0.0.UPF: wavefunction(s)  2S 2P renormalized
     file Cl.pbe-n-kjpaw_psl.1.0.0.UPF: wavefunction(s)  3S 3P renormalized
     Message from routine setup:
     using ibrav=0 with symmetry is DISCOURAGED, use correct ibrav instead

     R & G space division:  proc/nbgrp/npool/nimage =      32
     Subspace diagonalization in iterative solution of the eigenvalue problem:
     a serial algorithm will be used


     Parallelization info
     --------------------
     sticks:   dense  smooth     PW     G-vecs:    dense   smooth      PW
     Min          20      20      6                 1342     1342     216
     Max          21      21      7                 1361     1361     227
     Sum         669     669    199                43321    43321    7039

     Using Slab Decomposition



     bravais-lattice index     =            0
     lattice parameter (alat)  =       6.1584  a.u.
     unit-cell volume          =     611.3613 (a.u.)^3
     number of atoms/cell      =            3
     number of atomic types    =            3
     number of electrons       =        26.00
     number of Kohn-Sham states=           26
     kinetic-energy cutoff     =      65.0000  Ry
     charge density cutoff     =     260.0000  Ry
     scf convergence threshold =      1.0E-08
     mixing beta               =       0.7000
     number of iterations used =            8  plain     mixing
     energy convergence thresh.=      1.0E-05
     force convergence thresh. =      1.0E-04
     Exchange-correlation= SLA  PW   PBX  PBC
                           (   1   4   3   4   0   0   0)
     nstep                     =           50


     celldm(1)=   6.158375  celldm(2)=   0.000000  celldm(3)=   0.000000
     celldm(4)=   0.000000  celldm(5)=   0.000000  celldm(6)=   0.000000

     crystal axes: (cart. coord. in units of alat)
               a(1) = (   1.000000   0.000000   0.000000 )  
               a(2) = (  -0.500000   0.853035   0.000000 )  
               a(3) = (   0.000000   0.000000   3.068547 )  

     reciprocal axes: (cart. coord. in units 2 pi/alat)
               b(1) = (  1.000000  0.586142 -0.000000 )  
               b(2) = (  0.000000  1.172285  0.000000 )  
               b(3) = (  0.000000 -0.000000  0.325887 )  


     PseudoPot. # 1 for Zr read from file:
     /mgpfs/home/rabdillah/repo/qe/pseudo/Zr.pbe-spn-kjpaw_psl.1.0.0.UPF
     MD5 check sum: 02112c41713a0468aff2bb39ef194e36
     Pseudo is Projector augmented-wave + core cor, Zval = 12.0
     Generated using &quot;atomic&quot; code by A. Dal Corso  v.6.2.2
     Shape of augmentation charge: PSQ
     Using radial grid of 1225 points,  6 beta functions with: 
                l(1) =   0
                l(2) =   0
                l(3) =   1
                l(4) =   1
                l(5) =   2
                l(6) =   2
     Q(r) pseudized with 0 coefficients 


     PseudoPot. # 2 for F  read from file:
     /mgpfs/home/rabdillah/repo/qe/pseudo/F.pbe-n-kjpaw_psl.1.0.0.UPF
     MD5 check sum: 66d718ea72839a4268ab2a9540e8cdd4
     Pseudo is Projector augmented-wave + core cor, Zval =  7.0
     Generated using &quot;atomic&quot; code by A. Dal Corso  v.6.3
     Shape of augmentation charge: PSQ
     Using radial grid of 1105 points,  4 beta functions with: 
                l(1) =   0
                l(2) =   0
                l(3) =   1
                l(4) =   1
     Q(r) pseudized with 0 coefficients 


     PseudoPot. # 3 for Cl read from file:
     /mgpfs/home/rabdillah/repo/qe/pseudo/Cl.pbe-n-kjpaw_psl.1.0.0.UPF
     MD5 check sum: 530da96d25dcb7781b0586ca00827062
     Pseudo is Projector augmented-wave + core cor, Zval =  7.0
     Generated using &quot;atomic&quot; code by A. Dal Corso  v.6.3
     Shape of augmentation charge: PSQ
     Using radial grid of 1157 points,  6 beta functions with: 
                l(1) =   0
                l(2) =   0
                l(3) =   1
                l(4) =   1
                l(5) =   2
                l(6) =   2
     Q(r) pseudized with 0 coefficients 


     atomic species   valence    mass     pseudopotential
        Zr            12.00    91.22400     Zr( 1.00)
        F              7.00    18.99800     F ( 1.00)
        Cl             7.00    35.45300     Cl( 1.00)

      2 Sym. Ops. (no inversion) found



   Cartesian axes

     site n.     atom                  positions (alat units)
         1           Zr  tau(   1) = (   0.0000000   0.0000000   2.9367110  )
         2           F   tau(   2) = (  -0.0000000   0.5773503   3.3457383  )
         3           Cl  tau(   3) = (  -0.0000000   0.5773503   2.3972960  )

     number of k points=    73
                       cart. coord. in units 2pi/alat
        k(    1) = (   0.0000000   0.0000000   0.0000000), wk =   0.0078125
        k(    2) = (   0.0000000   0.0732678   0.0000000), wk =   0.0156250
        k(    3) = (   0.0000000   0.1465356   0.0000000), wk =   0.0156250
        k(    4) = (   0.0000000   0.2198034   0.0000000), wk =   0.0156250
        k(    5) = (   0.0000000   0.2930712   0.0000000), wk =   0.0156250
        k(    6) = (   0.0000000   0.3663390   0.0000000), wk =   0.0156250
        k(    7) = (   0.0000000   0.4396068   0.0000000), wk =   0.0156250
        k(    8) = (   0.0000000   0.5128746   0.0000000), wk =   0.0156250
        k(    9) = (   0.0000000  -0.5861424   0.0000000), wk =   0.0078125
        k(   10) = (   0.0625000   0.0366339   0.0000000), wk =   0.0312500
        k(   11) = (   0.0625000   0.1099017   0.0000000), wk =   0.0312500
        k(   12) = (   0.0625000   0.1831695   0.0000000), wk =   0.0312500
        k(   13) = (   0.0625000   0.2564373   0.0000000), wk =   0.0312500
        k(   14) = (   0.0625000   0.3297051   0.0000000), wk =   0.0312500
        k(   15) = (   0.0625000   0.4029729   0.0000000), wk =   0.0312500
        k(   16) = (   0.0625000   0.4762407   0.0000000), wk =   0.0312500
        k(   17) = (   0.0625000   0.5495085   0.0000000), wk =   0.0312500
        k(   18) = (   0.1250000   0.0732678   0.0000000), wk =   0.0312500
        k(   19) = (   0.1250000   0.1465356   0.0000000), wk =   0.0312500
        k(   20) = (   0.1250000   0.2198034   0.0000000), wk =   0.0312500
        k(   21) = (   0.1250000   0.2930712   0.0000000), wk =   0.0312500
        k(   22) = (   0.1250000   0.3663390   0.0000000), wk =   0.0312500
        k(   23) = (   0.1250000   0.4396068   0.0000000), wk =   0.0312500
        k(   24) = (   0.1250000   0.5128746   0.0000000), wk =   0.0312500
        k(   25) = (   0.1250000   0.5861424   0.0000000), wk =   0.0156250
        k(   26) = (   0.1250000   0.0000000   0.0000000), wk =   0.0156250
        k(   27) = (   0.1875000   0.1099017   0.0000000), wk =   0.0312500
        k(   28) = (   0.1875000   0.1831695   0.0000000), wk =   0.0312500
        k(   29) = (   0.1875000   0.2564373   0.0000000), wk =   0.0312500
        k(   30) = (   0.1875000   0.3297051   0.0000000), wk =   0.0312500
        k(   31) = (   0.1875000   0.4029729   0.0000000), wk =   0.0312500
        k(   32) = (   0.1875000   0.4762407   0.0000000), wk =   0.0312500
        k(   33) = (   0.1875000   0.5495085   0.0000000), wk =   0.0312500
        k(   34) = (   0.1875000  -0.0366339   0.0000000), wk =   0.0312500
        k(   35) = (   0.2500000   0.1465356   0.0000000), wk =   0.0312500
        k(   36) = (   0.2500000   0.2198034   0.0000000), wk =   0.0312500
        k(   37) = (   0.2500000   0.2930712   0.0000000), wk =   0.0312500
        k(   38) = (   0.2500000   0.3663390   0.0000000), wk =   0.0312500
        k(   39) = (   0.2500000   0.4396068   0.0000000), wk =   0.0312500
        k(   40) = (   0.2500000   0.5128746   0.0000000), wk =   0.0312500
        k(   41) = (   0.2500000   0.5861424   0.0000000), wk =   0.0156250
        k(   42) = (   0.2500000  -0.0732678   0.0000000), wk =   0.0312500
        k(   43) = (   0.2500000   0.0000000   0.0000000), wk =   0.0156250
        k(   44) = (   0.3125000   0.1831695   0.0000000), wk =   0.0312500
        k(   45) = (   0.3125000   0.2564373   0.0000000), wk =   0.0312500
        k(   46) = (   0.3125000   0.3297051   0.0000000), wk =   0.0312500
        k(   47) = (   0.3125000   0.4029729   0.0000000), wk =   0.0312500
        k(   48) = (   0.3125000   0.4762407   0.0000000), wk =   0.0312500
        k(   49) = (   0.3125000   0.5495085   0.0000000), wk =   0.0312500
        k(   50) = (   0.3125000  -0.1099017   0.0000000), wk =   0.0312500
        k(   51) = (   0.3125000  -0.0366339   0.0000000), wk =   0.0312500
        k(   52) = (   0.3750000   0.2198034   0.0000000), wk =   0.0312500
        k(   53) = (   0.3750000   0.2930712   0.0000000), wk =   0.0312500
        k(   54) = (   0.3750000   0.3663390   0.0000000), wk =   0.0312500
        k(   55) = (   0.3750000   0.4396068   0.0000000), wk =   0.0312500
        k(   56) = (   0.3750000   0.5128746   0.0000000), wk =   0.0312500
        k(   57) = (   0.3750000   0.5861424   0.0000000), wk =   0.0156250
        k(   58) = (   0.3750000  -0.1465356   0.0000000), wk =   0.0312500
        k(   59) = (   0.3750000  -0.0732678   0.0000000), wk =   0.0312500
        k(   60) = (   0.3750000   0.0000000   0.0000000), wk =   0.0156250
        k(   61) = (   0.4375000   0.2564373   0.0000000), wk =   0.0312500
        k(   62) = (   0.4375000   0.3297051   0.0000000), wk =   0.0312500
        k(   63) = (   0.4375000   0.4029729   0.0000000), wk =   0.0312500
        k(   64) = (   0.4375000   0.4762407   0.0000000), wk =   0.0312500
        k(   65) = (   0.4375000   0.5495085   0.0000000), wk =   0.0312500
        k(   66) = (   0.4375000  -0.1831695   0.0000000), wk =   0.0312500
        k(   67) = (   0.4375000  -0.1099017   0.0000000), wk =   0.0312500
        k(   68) = (   0.4375000  -0.0366339   0.0000000), wk =   0.0312500
        k(   69) = (  -0.5000000  -0.2930712   0.0000000), wk =   0.0156250
        k(   70) = (  -0.5000000  -0.2198034   0.0000000), wk =   0.0312500
        k(   71) = (  -0.5000000  -0.1465356   0.0000000), wk =   0.0312500
        k(   72) = (  -0.5000000  -0.0732678   0.0000000), wk =   0.0312500
        k(   73) = (  -0.5000000  -0.0000000   0.0000000), wk =   0.0156250

     Dense  grid:    43321 G-vectors     FFT dimensions: (  32,  32, 100)

     Estimated max dynamical RAM per process >      13.79 MB

     Estimated total dynamical RAM >     441.17 MB

     Check: negative core charge=   -0.000005

     Initial potential from superposition of free atoms

     starting charge      25.9978, renormalised to      26.0000

     negative rho (up, down):  6.375E-06 0.000E+00
     Starting wfcs are   21 randomized atomic wfcs +    5 random wfcs
     Checking if some PAW data can be deallocated... 

     total cpu time spent up to now is        0.9 secs

     Self-consistent Calculation

     iteration #  1     ecut=    65.00 Ry     beta= 0.70
     Davidson diagonalization with overlap
     ethr =  1.00E-02,  avg # of iterations =  6.2

     Threshold (ethr) on eigenvalues was too large:
     Diagonalizing with lowered threshold

     Davidson diagonalization with overlap
     ethr =  8.08E-04,  avg # of iterations =  1.2

     negative rho (up, down):  6.492E-05 0.000E+00

     total cpu time spent up to now is        4.2 secs

     total energy              =    -446.15376465 Ry
     estimated scf accuracy    <       0.21214502 Ry

     iteration #  2     ecut=    65.00 Ry     beta= 0.70
     Davidson diagonalization with overlap
     ethr =  8.16E-04,  avg # of iterations =  4.0

     negative rho (up, down):  3.693E-05 0.000E+00

     total cpu time spent up to now is        5.9 secs

     total energy              =    -446.15951894 Ry
     estimated scf accuracy    <       0.35341455 Ry

     iteration #  3     ecut=    65.00 Ry     beta= 0.70
     Davidson diagonalization with overlap
     ethr =  8.16E-04,  avg # of iterations =  2.3

     negative rho (up, down):  4.779E-05 0.000E+00

     total cpu time spent up to now is        7.3 secs

     total energy              =    -446.23892184 Ry
     estimated scf accuracy    <       0.02451458 Ry

     iteration #  4     ecut=    65.00 Ry     beta= 0.70
     Davidson diagonalization with overlap
     ethr =  9.43E-05,  avg # of iterations =  2.8

     negative rho (up, down):  6.969E-05 0.000E+00

     total cpu time spent up to now is        8.6 secs

     total energy              =    -446.24365026 Ry
     estimated scf accuracy    <       0.00177166 Ry

     iteration #  5     ecut=    65.00 Ry     beta= 0.70
     Davidson diagonalization with overlap
     ethr =  6.81E-06,  avg # of iterations =  6.2

     negative rho (up, down):  8.161E-05 0.000E+00

     total cpu time spent up to now is       10.5 secs

     total energy              =    -446.24396292 Ry
     estimated scf accuracy    <       0.00108420 Ry

     iteration #  6     ecut=    65.00 Ry     beta= 0.70
     Davidson diagonalization with overlap
     ethr =  4.17E-06,  avg # of iterations =  2.1

     negative rho (up, down):  8.544E-05 0.000E+00

     total cpu time spent up to now is       11.8 secs

     total energy              =    -446.24419023 Ry
     estimated scf accuracy    <       0.00001835 Ry

     iteration #  7     ecut=    65.00 Ry     beta= 0.70
     Davidson diagonalization with overlap
     ethr =  7.06E-08,  avg # of iterations =  3.0

     negative rho (up, down):  8.620E-05 0.000E+00

     total cpu time spent up to now is       13.2 secs

     total energy              =    -446.24419579 Ry
     estimated scf accuracy    <       0.00000039 Ry

     iteration #  8     ecut=    65.00 Ry     beta= 0.70
     Davidson diagonalization with overlap
     ethr =  1.52E-09,  avg # of iterations =  2.0

     negative rho (up, down):  8.646E-05 0.000E+00

     total cpu time spent up to now is       14.5 secs

     total energy              =    -446.24419589 Ry
     estimated scf accuracy    <       0.00000003 Ry

     iteration #  9     ecut=    65.00 Ry     beta= 0.70
     Davidson diagonalization with overlap
     ethr =  1.02E-10,  avg # of iterations =  2.0

     negative rho (up, down):  8.648E-05 0.000E+00

     total cpu time spent up to now is       15.9 secs

     End of self-consistent calculation

          k = 0.0000 0.0000 0.0000 (  5391 PWs)   bands (ev):

   -45.4895 -24.1028 -23.1426 -23.1123 -20.9741 -13.5193  -3.6357  -2.8031
    -2.7325  -1.6548   0.0799   0.2122   3.5254   5.4626   5.7061   5.9721
     6.8285   6.8703   7.8581   8.7912  11.1280  13.7880  14.6039  14.8290
    15.6377  17.2810

          k = 0.0000 0.0733 0.0000 (  5395 PWs)   bands (ev):

   -45.4859 -24.0907 -23.1565 -23.1497 -20.9625 -13.4942  -3.5969  -2.8042
    -2.7794  -1.6405   0.0438   0.0483   3.5447   5.5260   5.6501   6.0512
     6.7900   6.9188   7.9925   8.9865  11.2647  13.8749  14.5076  14.7091
    15.4707  17.2535

          k = 0.0000 0.1465 0.0000 (  5413 PWs)   bands (ev):

   -45.4757 -24.0568 -23.2764 -23.1699 -20.9347 -13.4216  -3.4944  -2.8968
    -2.8092  -1.6169  -0.3876  -0.0385   3.5736   5.5473   5.7204   6.1455
     6.8915   7.0481   8.3572   9.4274  11.6598  13.8071  14.0868  15.0229
    15.1683  17.1698

          k = 0.0000 0.2198 0.0000 (  5385 PWs)   bands (ev):

   -45.4603 -24.0091 -23.4397 -23.1999 -20.9055 -13.3094  -3.3751  -3.0299
    -2.8213  -1.6352  -0.9162  -0.1605   3.5505   5.5476   6.0509   6.1613
     7.2214   7.2699   8.8689   9.9277  12.1438  13.3501  13.8813  15.3503
    15.5336  17.0274

          k = 0.0000 0.2931 0.0000 (  5383 PWs)   bands (ev):

   -45.4420 -23.9679 -23.6012 -23.2349 -20.8864 -13.1712  -3.3500  -3.0791
    -2.8423  -1.8475  -1.2779  -0.2936   3.4559   5.7164   6.2506   6.5045
     7.4053   7.7778   9.4140  10.4046  12.1485  13.2897  13.9459  15.8879
    16.1647  16.8645

          k = 0.0000 0.3663 0.0000 (  5420 PWs)   bands (ev):

   -45.4237 -23.9829 -23.6919 -23.2697 -20.8811 -13.0259  -3.4477  -3.0361
    -2.8700  -2.2772  -1.3563  -0.4164   3.3429   5.9635   6.4829   7.0178
     7.6033   8.3560   9.8646  10.7997  12.0231  13.0879  14.7118  15.6860
    16.2611  16.5793

          k = 0.0000 0.4396 0.0000 (  5404 PWs)   bands (ev):

   -45.4081 -24.0661 -23.6882 -23.2990 -20.8858 -12.8964  -3.5553  -3.0323
    -2.8982  -2.6383  -1.3575  -0.5133   3.2624   6.1863   6.7852   7.3941
     7.9250   8.9905  10.1586  11.1256  12.1369  13.0248  14.3712  15.2455
    15.8412  16.1870

          k = 0.0000 0.5129 0.0000 (  5408 PWs)   bands (ev):

   -45.3976 -24.1413 -23.6615 -23.3184 -20.8933 -12.8063  -3.6362  -3.1044
    -2.9192  -2.8057  -1.3484  -0.5748   3.2239   6.3573   6.9810   7.5328
     8.3323   9.6295  10.4009  11.4153  12.2483  12.9586  13.5395  14.9252
    15.4089  15.4366

          k = 0.0000-0.5861 0.0000 (  5402 PWs)   bands (ev):

   -45.3940 -24.1693 -23.6497 -23.3252 -20.8967 -12.7739  -3.6678  -3.1525
    -2.9270  -2.8399  -1.3442  -0.5959   3.2139   6.4286   7.0305   7.5666
     8.5129   9.9793  10.5070  11.6920  12.0418  12.6855  13.5847  14.5701
    15.2065  15.2214

          k = 0.0625 0.0366 0.0000 (  5403 PWs)   bands (ev):

   -45.4861 -24.0909 -23.1818 -23.1235 -20.9620 -13.4954  -3.5965  -2.8393
    -2.7409  -1.6421  -0.0613   0.1620   3.5333   5.4457   5.7445   6.0539
     6.8085   6.9004   7.9869   8.9840  11.2592  13.8721  14.3772  14.8858
    15.4204  17.3147

          k = 0.0625 0.1099 0.0000 (  5403 PWs)   bands (ev):

   -45.4792 -24.0679 -23.2478 -23.1531 -20.9424 -13.4466  -3.5253  -2.8861
    -2.7796  -1.6236  -0.2909   0.0335   3.5570   5.4832   5.7564   6.1440
     6.8100   7.0206   8.2367   9.2971  11.5288  13.9207  14.0962  14.9039
    15.2640  17.2103

          k = 0.0625 0.1832 0.0000 (  5388 PWs)   bands (ev):

   -45.4664 -24.0267 -23.3805 -23.1869 -20.9143 -13.3541  -3.4093  -2.9942
    -2.8094  -1.6184  -0.7313  -0.1124   3.5643   5.4623   5.9892   6.1841
     7.0259   7.2187   8.6763   9.7548  12.0199  13.4465  13.9634  15.0076
    15.5468  17.0249

          k = 0.0625 0.2564 0.0000 (  5389 PWs)   bands (ev):

   -45.4495 -23.9804 -23.5380 -23.2257 -20.8909 -13.2285  -3.3216  -3.0877
    -2.8382  -1.7129  -1.1708  -0.2674   3.5152   5.5431   6.1895   6.4365
     7.2712   7.5971   9.2097  10.2396  12.3422  13.2556  13.6847  15.4639
    16.0876  16.8364

          k = 0.0625 0.3297 0.0000 (  5397 PWs)   bands (ev):

   -45.4313 -23.9622 -23.6630 -23.2662 -20.8794 -13.0861  -3.3773  -3.0604
    -2.8743  -2.0592  -1.3453  -0.4179   3.4254   5.7852   6.3070   6.9267
     7.4758   8.1370   9.7193  10.6907  12.1536  13.1735  14.1734  15.8215
    16.2889  16.6410

          k = 0.0625 0.4030 0.0000 (  5408 PWs)   bands (ev):

   -45.4143 -24.0181 -23.6944 -23.3031 -20.8797 -12.9477  -3.4850  -3.0251
    -2.9157  -2.4525  -1.3672  -0.5470   3.3456   6.0943   6.5192   7.3085
     7.7490   8.7894  10.0999  11.0605  12.1244  13.0328  14.8275  15.0833
    15.8381  16.5732

          k = 0.0625 0.4762 0.0000 (  5406 PWs)   bands (ev):

   -45.4013 -24.1017 -23.6709 -23.3312 -20.8862 -12.8368  -3.5755  -3.0885
    -2.9372  -2.6881  -1.3611  -0.6407   3.3019   6.3314   6.7955   7.4720
     8.0730   9.5301  10.3712  11.3603  12.2616  13.0481  13.8608  14.9901
    15.3384  16.0979

          k = 0.0625 0.5495 0.0000 (  5410 PWs)   bands (ev):

   -45.3942 -24.1532 -23.6496 -23.3464 -20.8919 -12.7748  -3.6292  -3.1801
    -2.9430  -2.7647  -1.3546  -0.6897   3.2872   6.4552   6.9820   7.5233
     8.2861  10.1476  10.5911  11.6318  12.2044  12.7911  13.5243  14.5757
    15.1513  15.4650

          k = 0.1250 0.0733 0.0000 (  5398 PWs)   bands (ev):

   -45.4764 -24.0575 -23.2988 -23.1439 -20.9328 -13.4264  -3.4923  -2.9442
    -2.7494  -1.6241  -0.4648   0.0702   3.5294   5.4175   5.8985   6.1663
     6.8939   7.0346   8.3402   9.4233  11.6398  13.7676  14.0493  15.0621
    15.1966  17.2662

          k = 0.1250 0.1465 0.0000 (  5400 PWs)   bands (ev):

   -45.4669 -24.0274 -23.3916 -23.1731 -20.9130 -13.3576  -3.4070  -3.0156
    -2.7795  -1.6258  -0.7652  -0.0530   3.5291   5.4379   6.0533   6.1941
     7.0088   7.2274   8.6653   9.7536  12.0080  13.4274  13.9393  14.9934
    15.5894  17.0714

          k = 0.1250 0.2198 0.0000 (  5391 PWs)   bands (ev):

   -45.4527 -23.9867 -23.5165 -23.2179 -20.8915 -13.2515  -3.3062  -3.1007
    -2.8248  -1.6824  -1.1196  -0.2430   3.5191   5.4378   6.2286   6.4605
     7.1731   7.5545   9.1305  10.1850  12.5583  13.0221  13.6313  15.2521
    16.1323  16.8072

          k = 0.1250 0.2931 0.0000 (  5394 PWs)   bands (ev):

   -45.4358 -23.9569 -23.6339 -23.2712 -20.8767 -13.1210  -3.3063  -3.0958
    -2.8825  -1.9136  -1.3339  -0.4545   3.4963   5.5494   6.3234   6.9229
     7.3698   8.0441   9.6429  10.6522  12.5487  13.2002  13.4920  15.5663
    16.1881  17.1660

          k = 0.1250 0.3663 0.0000 (  5406 PWs)   bands (ev):

   -45.4189 -23.9799 -23.6880 -23.3246 -20.8719 -12.9841  -3.3982  -3.0302
    -2.9503  -2.2580  -1.3853  -0.6525   3.4736   5.8244   6.4404   7.2081
     7.6901   8.7096  10.1060  11.1034  12.3431  13.0530  14.2372  15.1834
    16.0056  16.5283

          k = 0.1250 0.4396 0.0000 (  5423 PWs)   bands (ev):

   -45.4044 -24.0503 -23.6753 -23.3698 -20.8748 -12.8623  -3.4838  -3.0908
    -2.9571  -2.5147  -1.3905  -0.8129   3.4671   6.2219   6.5451   7.3598
     7.9418   9.5412  10.4660  11.4735  12.3482  13.0201  14.3617  14.7501
    15.2677  16.4561

          k = 0.1250 0.5129 0.0000 (  5412 PWs)   bands (ev):

   -45.3948 -24.1111 -23.6492 -23.4003 -20.8801 -12.7778  -3.5403  -3.2150
    -2.9452  -2.6283  -1.3880  -0.9169   3.4746   6.5278   6.7159   7.4559
     8.0000  10.3718  10.7645  11.7057  12.4067  13.0417  13.5211  14.5702
    15.0941  16.0091

          k = 0.1250 0.5861 0.0000 (  5398 PWs)   bands (ev):

   -45.3914 -24.1337 -23.6381 -23.4110 -20.8826 -12.7474  -3.5600  -3.2700
    -2.9436  -2.6556  -1.3868  -0.9528   3.4800   6.5657   6.9079   7.4704
     7.9863  10.6426  11.1033  11.9240  12.1454  12.7864  13.5333  14.3778
    15.2355  15.4360

          k = 0.1250 0.0000 0.0000 (  5396 PWs)   bands (ev):

   -45.4798 -24.0684 -23.2643 -23.1341 -20.9409 -13.4501  -3.5240  -2.9179
    -2.7384  -1.6279  -0.3438   0.1071   3.5281   5.3829   5.8905   6.1556
     6.8763   6.9499   8.2237   9.2937  11.5138  13.8941  14.0575  14.9874
    15.2490  17.2607

          k = 0.1875 0.1099 0.0000 (  5410 PWs)   bands (ev):

   -45.4619 -24.0112 -23.4600 -23.1717 -20.9018 -13.3197  -3.3692  -3.0671
    -2.7592  -1.6571  -0.9630  -0.0467   3.4641   5.4898   6.1525   6.2386
     7.1811   7.2881   8.8427   9.9269  12.1191  13.3124  13.8206  15.2640
    15.6783  17.1094

          k = 0.1875 0.1832 0.0000 (  5412 PWs)   bands (ev):

   -45.4510 -23.9830 -23.5525 -23.2034 -20.8879 -13.2377  -3.3182  -3.1094
    -2.7931  -1.7410  -1.1939  -0.1756   3.4371   5.5437   6.2322   6.4908
     7.2595   7.5938   9.1891  10.2422  12.3461  13.1956  13.6321  15.4295
    16.1651  16.8856

          k = 0.1875 0.2564 0.0000 (  5406 PWs)   bands (ev):

   -45.4367 -23.9596 -23.6401 -23.2592 -20.8751 -13.1266  -3.3103  -3.0973
    -2.8616  -1.9315  -1.3395  -0.4076   3.4514   5.5618   6.3464   6.9361
     7.3728   8.0362   9.6333  10.6555  12.5794  13.1541  13.4429  15.5630
    16.1940  17.0864

          k = 0.1875 0.3297 0.0000 (  5407 PWs)   bands (ev):

   -45.4211 -23.9689 -23.6838 -23.3298 -20.8674 -13.0010  -3.3584  -3.0337
    -2.9577  -2.1782  -1.3994  -0.6846   3.5126   5.6611   6.5178   7.1145
     7.7025   8.6801  10.1117  11.1263  12.6632  13.0079  13.7209  15.1070
    16.3423  16.4501

          k = 0.1875 0.4030 0.0000 (  5422 PWs)   bands (ev):

   -45.4067 -24.0149 -23.6753 -23.4010 -20.8659 -12.8795  -3.4194  -3.0817
    -2.9686  -2.3802  -1.4277  -0.9441   3.6010   5.9028   6.6501   7.1916
     7.9552   9.5326  10.5654  11.5935  12.6260  12.9392  14.2781  14.5518
    15.4168  16.2611

          k = 0.1875 0.4762 0.0000 (  5410 PWs)   bands (ev):

   -45.3956 -24.0638 -23.6484 -23.4586 -20.8682 -12.7827  -3.4743  -3.1978
    -2.9367  -2.4906  -1.4529  -1.1350   3.6859   6.2763   6.6689   7.3452
     7.9457  10.4469  10.9405  11.9242  12.5783  13.0672  13.9604  14.5207
    14.9315  16.0657

          k = 0.1875 0.5495 0.0000 (  5413 PWs)   bands (ev):

   -45.3897 -24.0923 -23.6292 -23.4912 -20.8706 -12.7288  -3.5107  -3.2675
    -2.9268  -2.5292  -1.4786  -1.2269   3.7378   6.6289   6.6652   7.4733
     7.7626  10.8782  11.5709  12.0446  12.4872  12.9638  13.5639  14.4699
    15.0610  15.7931

          k = 0.1875-0.0366 0.0000 (  5411 PWs)   bands (ev):

   -45.4678 -24.0283 -23.3987 -23.1626 -20.9108 -13.3631  -3.4053  -3.0284
    -2.7523  -1.6319  -0.7731  -0.0220   3.4974   5.3794   6.1147   6.2522
     7.0485   7.1693   8.6527   9.7525  11.9885  13.4342  13.9153  14.9912
    15.6222  17.0504

          k = 0.2500 0.1465 0.0000 (  5412 PWs)   bands (ev):

   -45.4447 -23.9734 -23.6173 -23.2038 -20.8809 -13.1883  -3.3503  -3.0950
    -2.7754  -1.8876  -1.2944  -0.1722   3.3406   5.7122   6.2825   6.6164
     7.3903   7.7684   9.3841  10.4128  12.1457  13.2102  13.8671  15.8006
    16.2876  16.8646

          k = 0.2500 0.2198 0.0000 (  5409 PWs)   bands (ev):

   -45.4337 -23.9704 -23.6742 -23.2376 -20.8748 -13.1020  -3.3843  -3.0628
    -2.8200  -2.0930  -1.3602  -0.3062   3.3181   5.8021   6.3551   6.9805
     7.4773   8.1160   9.6953  10.7044  12.1594  13.0956  14.0734  15.7786
    16.2675  16.5819

          k = 0.2500 0.2931 0.0000 (  5404 PWs)   bands (ev):

   -45.4207 -23.9891 -23.6931 -23.3031 -20.8686 -12.9964  -3.4079  -3.0192
    -2.9216  -2.2744  -1.3965  -0.5753   3.3947   5.8420   6.4868   7.2079
     7.7128   8.6897  10.0961  11.1171  12.3644  12.9951  14.1291  15.1586
    15.8890  16.5348

          k = 0.2500 0.3663 0.0000 (  5407 PWs)   bands (ev):

   -45.4077 -24.0208 -23.6768 -23.3897 -20.8642 -12.8863  -3.4248  -3.0650
    -2.9667  -2.3828  -1.4312  -0.9106   3.5621   5.9078   6.6882   7.1744
     7.9683   9.5214  10.5675  11.6016  12.6616  12.8998  14.2029  14.5208
    15.3375  16.3104

          k = 0.2500 0.4396 0.0000 (  5412 PWs)   bands (ev):

   -45.3967 -24.0455 -23.6484 -23.4787 -20.8622 -12.7892  -3.4593  -3.1670
    -2.9286  -2.4230  -1.4998  -1.2052   3.7689   6.0743   6.7639   7.2543
     7.9729  10.4431  11.0279  11.9901  12.7830  13.0409  14.1783  14.4887
    14.7323  15.6779

          k = 0.2500 0.5129 0.0000 (  5416 PWs)   bands (ev):

   -45.3893 -24.0565 -23.6247 -23.5475 -20.8618 -12.7223  -3.5189  -3.1913
    -2.9044  -2.4215  -1.6452  -1.3378   3.9378   6.3524   6.7035   7.4153
     7.7774  10.9891  11.6088  12.0954  12.9765  13.3434  13.7766  14.3740
    14.8137  15.4552

          k = 0.2500 0.5861 0.0000 (  5424 PWs)   bands (ev):

   -45.3867 -24.0587 -23.6153 -23.5744 -20.8619 -12.6984  -3.5485  -3.1875
    -2.8968  -2.4129  -1.7281  -1.3634   4.0022   6.5532   6.6619   7.4026
     7.6898  11.0098  12.1154  12.5322  12.5602  13.1729  13.8274  14.3517
    14.9519  15.7471

          k = 0.2500-0.0733 0.0000 (  5425 PWs)   bands (ev):

   -45.4520 -23.9839 -23.5534 -23.1986 -20.8854 -13.2443  -3.3170  -3.1091
    -2.7743  -1.7425  -1.1848  -0.1717   3.4173   5.5139   6.2424   6.5534
     7.2411   7.5921   9.1826  10.2422  12.3334  13.2154  13.6275  15.4233
    16.1579  16.8186

          k = 0.2500 0.0000 0.0000 (  5418 PWs)   bands (ev):

   -45.4545 -23.9888 -23.5245 -23.2021 -20.8869 -13.2636  -3.3028  -3.1111
    -2.7813  -1.6962  -1.1161  -0.2016   3.4609   5.3962   6.2812   6.5558
     7.1427   7.5453   9.1128  10.1853  12.5253  13.0529  13.5968  15.2244
    16.1670  16.7490

          k = 0.3125 0.1832 0.0000 (  5396 PWs)   bands (ev):

   -45.4274 -23.9958 -23.6997 -23.2356 -20.8741 -13.0501  -3.4540  -3.0324
    -2.7972  -2.3016  -1.3782  -0.2873   3.2162   5.9978   6.5135   7.0799
     7.6021   8.3339   9.8349  10.8250  12.0054  12.9954  14.6094  15.5221
    16.3520  16.4910

          k = 0.3125 0.2564 0.0000 (  5404 PWs)   bands (ev):

   -45.4177 -24.0335 -23.6992 -23.2700 -20.8736 -12.9708  -3.4958  -3.0139
    -2.8592  -2.4625  -1.3924  -0.4233   3.2255   6.1289   6.5561   7.3412
     7.7680   8.7561  10.0821  11.0905  12.1028  12.9393  14.7182  14.9196
    15.8628  16.5139

          k = 0.3125 0.3297 0.0000 (  5411 PWs)   bands (ev):

   -45.4073 -24.0647 -23.6780 -23.3418 -20.8701 -12.8818  -3.4962  -3.0607
    -2.9384  -2.5077  -1.4107  -0.7199   3.3711   6.2340   6.6041   7.3526
     7.9699   9.5112  10.4676  11.5055  12.3347  12.9441  14.2352  14.6495
    15.2206  16.4027

          k = 0.3125 0.4030 0.0000 (  5412 PWs)   bands (ev):

   -45.3977 -24.0745 -23.6500 -23.4387 -20.8649 -12.7967  -3.4789  -3.1804
    -2.9262  -2.4809  -1.4534  -1.0909   3.6254   6.2642   6.7310   7.3276
     7.9672  10.4169  10.9541  11.9534  12.5845  13.0237  13.8250  14.5004
    14.8433  16.1152

          k = 0.3125 0.4762 0.0000 (  5424 PWs)   bands (ev):

   -45.3903 -24.0619 -23.6257 -23.5376 -20.8602 -12.7295  -3.5139  -3.1887
    -2.8990  -2.4170  -1.6213  -1.3433   3.9143   6.3350   6.7286   7.4121
     7.7930  10.9704  11.6058  12.1077  13.0096  13.3020  13.6928  14.4186
    14.7687  15.4693

          k = 0.3125 0.5495 0.0000 (  5435 PWs)   bands (ev):

   -45.3863 -24.0425 -23.6127 -23.6039 -20.8575 -12.6924  -3.5653  -3.1347
    -2.8742  -2.3332  -1.8798  -1.3982   4.1171   6.4659   6.6765   7.2911
     7.7713  11.0019  12.1149  12.5038  13.2880  13.4584  13.6280  14.1241
    14.9694  15.6952

          k = 0.3125-0.1099 0.0000 (  5415 PWs)   bands (ev):

   -45.4347 -23.9706 -23.6727 -23.2363 -20.8723 -13.1089  -3.3796  -3.0603
    -2.8035  -2.0829  -1.3573  -0.3157   3.3135   5.7995   6.3648   6.9776
     7.4549   8.1316   9.6912  10.7049  12.1573  13.0993  14.1089  15.7573
    16.2571  16.5721

          k = 0.3125-0.0366 0.0000 (  5418 PWs)   bands (ev):

   -45.4387 -23.9616 -23.6401 -23.2514 -20.8702 -13.1401  -3.3062  -3.0928
    -2.8269  -1.9226  -1.3318  -0.4055   3.4217   5.5391   6.4080   6.9429
     7.3333   8.0500   9.6246  10.6564  12.5858  13.1482  13.4657  15.5211
    16.1475  17.0629

          k = 0.3750 0.2198 0.0000 (  5415 PWs)   bands (ev):

   -45.4126 -24.0830 -23.6914 -23.2623 -20.8779 -12.9269  -3.5657  -3.0167
    -2.8201  -2.6396  -1.3916  -0.3780   3.1331   6.2489   6.8093   7.4228
     7.9180   8.9625  10.1276  11.1590  12.0888  12.9122  14.2525  15.1157
    15.9323  16.0256

          k = 0.3750 0.2931 0.0000 (  5419 PWs)   bands (ev):

   -45.4056 -24.1191 -23.6734 -23.2951 -20.8791 -12.8663  -3.5908  -3.0630
    -2.8908  -2.6638  -1.3968  -0.5114   3.1786   6.4047   6.7941   7.4985
     8.0783   9.4981  10.3569  11.3923  12.1971  12.9287  13.7539  14.8830
    15.3289  16.0232

          k = 0.3750 0.3663 0.0000 (  5409 PWs)   bands (ev):

   -45.3985 -24.1269 -23.6512 -23.3686 -20.8741 -12.8037  -3.5547  -3.1807
    -2.9214  -2.5979  -1.4148  -0.8198   3.3744   6.6127   6.6923   7.4645
     8.0098  10.3373  10.7690  11.7483  12.3284  12.9261  13.4532  14.5130
    15.0297  15.9249

          k = 0.3750 0.4396 0.0000 (  5413 PWs)   bands (ev):

   -45.3926 -24.1048 -23.6307 -23.4668 -20.8660 -12.7491  -3.5082  -3.2479
    -2.9113  -2.5060  -1.4680  -1.1941   3.6726   6.6024   6.7192   7.4807
     7.7781  10.8388  11.5633  12.1009  12.4076  12.9023  13.5234  14.4071
    15.0321  15.7041

          k = 0.3750 0.5129 0.0000 (  5429 PWs)   bands (ev):

   -45.3886 -24.0660 -23.6166 -23.5594 -20.8588 -12.7119  -3.5346  -3.1789
    -2.8887  -2.3981  -1.6915  -1.3822   3.9756   6.5205   6.6886   7.3885
     7.7280  10.9607  12.1500  12.4238  12.5195  13.2743  13.8076  14.3349
    14.9433  15.6725

          k = 0.3750 0.5861 0.0000 (  5448 PWs)   bands (ev):

   -45.3872 -24.0444 -23.6111 -23.6009 -20.8560 -12.6987  -3.5570  -3.1264
    -2.8725  -2.3196  -1.8751  -1.4079   4.1154   6.4590   6.6781   7.2697
     7.7948  10.9693  12.1386  12.3791  13.3802  13.3997  13.8081  14.0420
    14.9250  15.6327

          k = 0.3750-0.1465 0.0000 (  5416 PWs)   bands (ev):

   -45.4186 -24.0320 -23.6983 -23.2703 -20.8716 -12.9768  -3.4892  -3.0090
    -2.8436  -2.4563  -1.3919  -0.4368   3.2303   6.1444   6.5690   7.3156
     7.7279   8.7746  10.0647  11.0920  12.1049  12.9426  14.7581  14.9530
    15.7975  16.5248

          k = 0.3750-0.0733 0.0000 (  5403 PWs)   bands (ev):

   -45.4226 -23.9885 -23.6912 -23.3007 -20.8643 -13.0094  -3.3972  -3.0152
    -2.8887  -2.2540  -1.3958  -0.5934   3.3918   5.8384   6.5255   7.1918
     7.6520   8.7049  10.0801  11.1182  12.3723  12.9994  14.1842  15.1399
    15.8913  16.4770

          k = 0.3750 0.0000 0.0000 (  5404 PWs)   bands (ev):

   -45.4240 -23.9720 -23.6836 -23.3184 -20.8612 -13.0207  -3.3508  -3.0255
    -2.9086  -2.1584  -1.4001  -0.6796   3.4774   5.6516   6.6117   7.0734
     7.6506   8.6848  10.0950  11.1292  12.7248  12.9754  13.7114  15.0725
    16.2501  16.4214

          k = 0.4375 0.2564 0.0000 (  5415 PWs)   bands (ev):

   -45.4028 -24.1588 -23.6636 -23.2801 -20.8849 -12.8413  -3.6527  -3.0778
    -2.8407  -2.7878  -1.3908  -0.4354   3.0947   6.4395   7.0003   7.5614
     8.2876   9.6127  10.3606  11.4278  12.1537  12.8201  13.4795  14.8054
    15.2911  15.5357

          k = 0.4375 0.3297 0.0000 (  5431 PWs)   bands (ev):

   -45.3991 -24.1704 -23.6515 -23.3091 -20.8840 -12.8087  -3.6481  -3.1431
    -2.8992  -2.7225  -1.3958  -0.5603   3.1653   6.5484   6.9761   7.5539
     8.2484  10.1401  10.5637  11.6220  12.0852  12.6832  13.4747  14.4800
    15.0843  15.4828

          k = 0.4375 0.4030 0.0000 (  5415 PWs)   bands (ev):

   -45.3957 -24.1489 -23.6398 -23.3786 -20.8756 -12.7777  -3.5733  -3.2251
    -2.9178  -2.6163  -1.4155  -0.8602   3.3830   6.6470   6.9013   7.4952
     7.9522  10.6059  11.0909  11.9217  12.0421  12.7175  13.4967  14.3021
    15.1751  15.3914

          k = 0.4375 0.4762 0.0000 (  5413 PWs)   bands (ev):

   -45.3931 -24.1035 -23.6305 -23.4669 -20.8648 -12.7534  -3.5036  -3.2342
    -2.9115  -2.4991  -1.4672  -1.2048   3.6785   6.6374   6.6950   7.5023
     7.7323  10.8109  11.4723  12.1021  12.4815  12.9349  13.5253  14.4098
    15.0124  15.7472

          k = 0.4375 0.5495 0.0000 (  5428 PWs)   bands (ev):

   -45.3917 -24.0615 -23.6249 -23.5346 -20.8576 -12.7401  -3.5014  -3.1648
    -2.8978  -2.3940  -1.6217  -1.3616   3.9203   6.3409   6.7210   7.4140
     7.7724  10.9160  11.4835  12.1562  12.9633  13.4348  13.7576  14.3903
    14.7201  15.4724

          k = 0.4375-0.1832 0.0000 (  5416 PWs)   bands (ev):

   -45.4062 -24.1174 -23.6731 -23.2959 -20.8777 -12.8704  -3.5851  -3.0493
    -2.8858  -2.6650  -1.3963  -0.5223   3.1852   6.4036   6.8399   7.4840
     8.0212   9.5030  10.3182  11.3969  12.2082  12.9296  13.7798  14.9180
    15.2867  16.0359

          k = 0.4375-0.1099 0.0000 (  5406 PWs)   bands (ev):

   -45.4088 -24.0618 -23.6771 -23.3421 -20.8669 -12.8921  -3.4848  -3.0320
    -2.9327  -2.4957  -1.4106  -0.7419   3.3811   6.2540   6.6136   7.3683
     7.8796   9.5078  10.4136  11.5093  12.3532  12.9512  14.2762  14.6909
    15.2075  16.3886

          k = 0.4375-0.0366 0.0000 (  5418 PWs)   bands (ev):

   -45.4102 -24.0199 -23.6756 -23.3850 -20.8591 -12.9036  -3.4115  -3.0222
    -2.9590  -2.3556  -1.4326  -0.9312   3.5598   5.9035   6.7307   7.1795
     7.8857   9.5007  10.5199  11.6056  12.6793  12.9284  14.2077  14.5380
    15.3611  16.2253

          k =-0.5000-0.2931 0.0000 (  5428 PWs)   bands (ev):

   -45.3993 -24.1868 -23.6516 -23.2863 -20.8882 -12.8105  -3.6875  -3.1200
    -2.8514  -2.8134  -1.3895  -0.4550   3.0848   6.5193   7.0473   7.5978
     8.4476   9.9802  10.4731  11.6328  11.9413  12.5883  13.5271  14.4453
    15.0778  15.3614

          k =-0.5000-0.2198 0.0000 (  5413 PWs)   bands (ev):

   -45.3993 -24.1697 -23.6514 -23.3094 -20.8835 -12.8102  -3.6458  -3.1368
    -2.8986  -2.7234  -1.3956  -0.5644   3.1682   6.5402   7.0114   7.5439
     8.2246  10.1280  10.5459  11.6160  12.1078  12.6894  13.4765  14.4831
    15.1043  15.4647

          k =-0.5000-0.1465 0.0000 (  5401 PWs)   bands (ev):

   -45.3993 -24.1247 -23.6508 -23.3694 -20.8724 -12.8094  -3.5476  -3.1598
    -2.9216  -2.5935  -1.4142  -0.8340   3.3833   6.5951   6.7468   7.4804
     7.9340  10.3223  10.6879  11.7503  12.3755  12.9387  13.4824  14.5094
    15.0422  15.9287

          k =-0.5000-0.0733 0.0000 (  5418 PWs)   bands (ev):

   -45.3993 -24.0720 -23.6492 -23.4378 -20.8616 -12.8086  -3.4672  -3.1448
    -2.9248  -2.4615  -1.4528  -1.1155   3.6362   6.2806   6.7213   7.3724
     7.8802  10.3844  10.8457  11.9689  12.6088  13.0676  13.8747  14.4977
    14.8615  16.1038

          k =-0.5000-0.0000 0.0000 (  5416 PWs)   bands (ev):

   -45.3993 -24.0468 -23.6478 -23.4701 -20.8572 -12.8083  -3.4448  -3.1225
    -2.9230  -2.3918  -1.4952  -1.2263   3.7618   6.0686   6.7844   7.2865
     7.9029  10.3890  10.9233  12.0288  12.7270  13.1869  14.1445  14.4699
    14.7419  15.6598

     highest occupied, lowest unoccupied level (ev):     4.1171    5.3794

!    total energy              =    -446.24419590 Ry
     total all-electron energy =     -8320.714475 Ry
     estimated scf accuracy    <          1.4E-09 Ry

     The total energy is the sum of the following terms:
     one-electron contribution =    -306.99506334 Ry
     hartree contribution      =     161.77088353 Ry
     xc contribution           =     -38.54016188 Ry
     ewald contribution        =       4.14636748 Ry
     one-center paw contrib.   =    -266.62622168 Ry

     convergence has been achieved in   9 iterations

     negative rho (up, down):  8.648E-05 0.000E+00

     Forces acting on atoms (cartesian axes, Ry/au):

     atom    1 type  1   force =     0.00000000    0.00810782   -0.00038725
     atom    2 type  2   force =     0.00000000   -0.00347461    0.00449058
     atom    3 type  3   force =     0.00000000   -0.00463321   -0.00410333
     The non-local contrib.  to forces
     atom    1 type  1   force =     0.00000000    0.00293668   -0.02126064
     atom    2 type  2   force =     0.00000000   -0.00849082   -1.10172906
     atom    3 type  3   force =     0.00000000   -0.00332550    0.22129607
     The ionic contribution  to forces
     atom    1 type  1   force =    -0.00000001   -0.01752736   -0.38713486
     atom    2 type  2   force =     0.00000001    0.00782895   27.19493825
     atom    3 type  3   force =     0.00000000    0.00969841  -26.80780339
     The local contribution  to forces
     atom    1 type  1   force =    -0.00000000    0.02254507    0.40414194
     atom    2 type  2   force =     0.00000027   -0.00290397  -26.09239146
     atom    3 type  3   force =     0.00000003   -0.01112301   26.58943186
     The core correction contribution to forces
     atom    1 type  1   force =    -0.00000000    0.00009372    0.00369066
     atom    2 type  2   force =     0.00000000    0.00003079    0.00353346
     atom    3 type  3   force =    -0.00000000    0.00005659   -0.00708552
     The Hubbard contrib.    to forces
     atom    1 type  1   force =     0.00000000    0.00000000    0.00000000
     atom    2 type  2   force =     0.00000000    0.00000000    0.00000000
     atom    3 type  3   force =     0.00000000    0.00000000    0.00000000
     The SCF correction term to forces
     atom    1 type  1   force =    -0.00000000    0.00000015    0.00010055
     atom    2 type  2   force =     0.00000000    0.00000087    0.00006430
     atom    3 type  3   force =     0.00000000    0.00000074   -0.00001744

     Total force =     0.011680     Total SCF correction =     0.000121

     BFGS Geometry Optimization
     Energy error            =      0.0E+00 Ry
     Gradient error          =      8.1E-03 Ry/Bohr

     number of scf cycles    =   1
     number of bfgs steps    =   0

     energy             new  =    -446.2441958960 Ry

     new trust radius        =       0.0081170641 bohr
     new conv_thr            =       0.0000000100 Ry


ATOMIC_POSITIONS (angstrom)
Zr           -0.0000000000        0.0042904742        9.5701589172
F            -0.0000000020        1.8796716675       10.9057076350
Cl           -0.0000000020        1.8790585669        7.8103083563



     Writing config-only to output data dir ./tmp/ZrFCl.save/
     NEW-OLD atomic charge density approx. for the potential

     Check: negative core charge=   -0.000005

     negative rho (up, down):  8.535E-05 0.000E+00

     total cpu time spent up to now is       16.4 secs

     Self-consistent Calculation

     iteration #  1     ecut=    65.00 Ry     beta= 0.70
     Davidson diagonalization with overlap
     ethr =  1.00E-06,  avg # of iterations =  3.0

     Threshold (ethr) on eigenvalues was too large:
     Diagonalizing with lowered threshold

     Davidson diagonalization with overlap
     ethr =  2.31E-08,  avg # of iterations =  3.0

     negative rho (up, down):  8.485E-05 0.000E+00

     total cpu time spent up to now is       19.7 secs

     total energy              =    -446.24431319 Ry
     estimated scf accuracy    <       0.00000612 Ry

     iteration #  2     ecut=    65.00 Ry     beta= 0.70
     Davidson diagonalization with overlap
     ethr =  2.36E-08,  avg # of iterations =  2.0

     negative rho (up, down):  8.516E-05 0.000E+00

     total cpu time spent up to now is       21.0 secs

     total energy              =    -446.24431340 Ry
     estimated scf accuracy    <       0.00000561 Ry

     iteration #  3     ecut=    65.00 Ry     beta= 0.70
     Davidson diagonalization with overlap
     ethr =  2.16E-08,  avg # of iterations =  1.5

     negative rho (up, down):  8.521E-05 0.000E+00

     total cpu time spent up to now is       22.2 secs

     total energy              =    -446.24431493 Ry
     estimated scf accuracy    <       0.00000128 Ry

     iteration #  4     ecut=    65.00 Ry     beta= 0.70
     Davidson diagonalization with overlap
     ethr =  4.93E-09,  avg # of iterations =  1.0

     negative rho (up, down):  8.521E-05 0.000E+00

     total cpu time spent up to now is       23.3 secs

     total energy              =    -446.24431517 Ry
     estimated scf accuracy    <       0.00000008 Ry

     iteration #  5     ecut=    65.00 Ry     beta= 0.70
     Davidson diagonalization with overlap
     ethr =  3.14E-10,  avg # of iterations =  2.0

     negative rho (up, down):  8.520E-05 0.000E+00

     total cpu time spent up to now is       24.6 secs

     total energy              =    -446.24431519 Ry
     estimated scf accuracy    <       0.00000002 Ry

     iteration #  6     ecut=    65.00 Ry     beta= 0.70
     Davidson diagonalization with overlap
     ethr =  8.67E-11,  avg # of iterations =  2.0

     negative rho (up, down):  8.521E-05 0.000E+00

     total cpu time spent up to now is       25.9 secs

     End of self-consistent calculation

          k = 0.0000 0.0000 0.0000 (  5391 PWs)   bands (ev):

   -45.4980 -24.1065 -23.1497 -23.1207 -20.9705 -13.5210  -3.6300  -2.7890
    -2.7267  -1.6575   0.0878   0.2090   3.5117   5.4592   5.6965   5.9630
     6.8372   6.8483   7.8591   8.7924  11.1279  13.7945  14.5974  14.8258
    15.6194  17.2757

          k = 0.0000 0.0733 0.0000 (  5395 PWs)   bands (ev):

   -45.4944 -24.0944 -23.1648 -23.1568 -20.9590 -13.4959  -3.5909  -2.7901
    -2.7737  -1.6432   0.0408   0.0560   3.5304   5.5224   5.6374   6.0469
     6.7965   6.8970   7.9933   8.9889  11.2641  13.8809  14.5053  14.7029
    15.4501  17.2474

          k = 0.0000 0.1465 0.0000 (  5413 PWs)   bands (ev):

   -45.4841 -24.0604 -23.2847 -23.1769 -20.9314 -13.4232  -3.4876  -2.8914
    -2.7949  -1.6199  -0.3900  -0.0313   3.5579   5.5333   5.7163   6.1472
     6.8935   7.0268   8.3575   9.4318  11.6582  13.8033  14.0914  15.0175
    15.1488  17.1620

          k = 0.0000 0.2198 0.0000 (  5385 PWs)   bands (ev):

   -45.4687 -24.0125 -23.4481 -23.2069 -20.9023 -13.3110  -3.3669  -3.0250
    -2.8069  -1.6389  -0.9179  -0.1540   3.5328   5.5348   6.0461   6.1643
     7.2007   7.2704   8.8682   9.9332  12.1411  13.3465  13.8752  15.3409
    15.5297  17.0171

          k = 0.0000 0.2931 0.0000 (  5383 PWs)   bands (ev):

   -45.4505 -23.9712 -23.6095 -23.2419 -20.8833 -13.1727  -3.3414  -3.0735
    -2.8277  -1.8507  -1.2803  -0.2877   3.4365   5.7071   6.2519   6.4990
     7.3851   7.7779   9.4119  10.4103  12.1456  13.2786  13.9439  15.8826
    16.1631  16.8509

          k = 0.0000 0.3663 0.0000 (  5420 PWs)   bands (ev):

   -45.4322 -23.9870 -23.6993 -23.2767 -20.8780 -13.0273  -3.4403  -3.0291
    -2.8554  -2.2782  -1.3608  -0.4111   3.3225   5.9598   6.4810   7.0110
     7.5841   8.3547   9.8600  10.8064  12.0210  13.0746  14.7149  15.6823
    16.2531  16.5772

          k = 0.0000 0.4396 0.0000 (  5404 PWs)   bands (ev):

   -45.4166 -24.0715 -23.6944 -23.3060 -20.8828 -12.8977  -3.5491  -3.0257
    -2.8835  -2.6363  -1.3635  -0.5084   3.2415   6.1868   6.7816   7.3827
     7.9100   8.9862  10.1535  11.1327  12.1333  13.0133  14.3772  15.2434
    15.8302  16.1770

          k = 0.0000 0.5129 0.0000 (  5408 PWs)   bands (ev):

   -45.4061 -24.1472 -23.6670 -23.3254 -20.8903 -12.8074  -3.6314  -3.0997
    -2.9045  -2.7998  -1.3551  -0.5701   3.2028   6.3601   6.9764   7.5184
     8.3201   9.6238  10.3975  11.4181  12.2428  12.9538  13.5434  14.9217
    15.3974  15.4303

          k = 0.0000-0.5861 0.0000 (  5402 PWs)   bands (ev):

   -45.4025 -24.1753 -23.6551 -23.3322 -20.8938 -12.7750  -3.6637  -3.1482
    -2.9123  -2.8328  -1.3512  -0.5912   3.1928   6.4323   7.0252   7.5515
     8.5011   9.9764  10.5015  11.6825  12.0493  12.6825  13.5878  14.5594
    15.2063  15.2100

          k = 0.0625 0.0366 0.0000 (  5403 PWs)   bands (ev):

   -45.4946 -24.0946 -23.1887 -23.1318 -20.9587 -13.4971  -3.5908  -2.8259
    -2.7348  -1.6447  -0.0549   0.1599   3.5208   5.4409   5.7334   6.0467
     6.8019   6.8948   7.9872   8.9848  11.2586  13.8780  14.3698  14.8825
    15.4067  17.3067

          k = 0.0625 0.1099 0.0000 (  5403 PWs)   bands (ev):

   -45.4876 -24.0716 -23.2554 -23.1606 -20.9392 -13.4482  -3.5190  -2.8764
    -2.7699  -1.6262  -0.2900   0.0369   3.5435   5.4737   5.7476   6.1418
     6.8097   7.0054   8.2368   9.2998  11.5275  13.9196  14.0969  14.8988
    15.2485  17.2020

          k = 0.0625 0.1832 0.0000 (  5388 PWs)   bands (ev):

   -45.4748 -24.0303 -23.3885 -23.1941 -20.9112 -13.3556  -3.4021  -2.9875
    -2.7968  -1.6214  -0.7325  -0.1069   3.5491   5.4498   5.9826   6.1861
     7.0180   7.2079   8.6758   9.7593  12.0175  13.4422  13.9601  15.0009
    15.5394  17.0152

          k = 0.0625 0.2564 0.0000 (  5389 PWs)   bands (ev):

   -45.4580 -23.9838 -23.5462 -23.2327 -20.8879 -13.2300  -3.3131  -3.0820
    -2.8246  -1.7163  -1.1725  -0.2619   3.4980   5.5317   6.1907   6.4314
     7.2529   7.5960   9.2082  10.2448  12.3392  13.2500  13.6770  15.4607
    16.0847  16.8244

          k = 0.0625 0.3297 0.0000 (  5397 PWs)   bands (ev):

   -45.4397 -23.9658 -23.6710 -23.2731 -20.8764 -13.0875  -3.3695  -3.0535
    -2.8604  -2.0612  -1.3488  -0.4129   3.4066   5.7769   6.3081   6.9200
     7.4566   8.1366   9.7158  10.6963  12.1516  13.1609  14.1715  15.8201
    16.2838  16.6387

          k = 0.0625 0.4030 0.0000 (  5408 PWs)   bands (ev):

   -45.4228 -24.0229 -23.7012 -23.3099 -20.8768 -12.9490  -3.4783  -3.0175
    -2.9020  -2.4521  -1.3722  -0.5425   3.3259   6.0912   6.5174   7.2978
     7.7335   8.7871  10.0944  11.0672  12.1223  13.0207  14.8361  15.0734
    15.8306  16.5698

          k = 0.0625 0.4762 0.0000 (  5406 PWs)   bands (ev):

   -45.4097 -24.1074 -23.6768 -23.3380 -20.8833 -12.8380  -3.5700  -3.0814
    -2.9253  -2.6834  -1.3671  -0.6365   3.2817   6.3329   6.7910   7.4584
     8.0602   9.5256  10.3664  11.3657  12.2568  13.0390  13.8659  14.9833
    15.3355  16.0861

          k = 0.0625 0.5495 0.0000 (  5410 PWs)   bands (ev):

   -45.4027 -24.1592 -23.6552 -23.3531 -20.8890 -12.7759  -3.6249  -3.1738
    -2.9316  -2.7571  -1.3611  -0.6858   3.2668   6.4586   6.9768   7.5088
     8.2734  10.1453  10.5849  11.6301  12.2030  12.7888  13.5261  14.5680
    15.1485  15.4553

          k = 0.1250 0.0733 0.0000 (  5398 PWs)   bands (ev):

   -45.4849 -24.0614 -23.3051 -23.1521 -20.9301 -13.4279  -3.4866  -2.9326
    -2.7426  -1.6264  -0.4611   0.0695   3.5201   5.4086   5.8885   6.1579
     6.8907   7.0288   8.3389   9.4237  11.6382  13.7621  14.0492  15.0610
    15.1893  17.2608

          k = 0.1250 0.1465 0.0000 (  5400 PWs)   bands (ev):

   -45.4754 -24.0312 -23.3984 -23.1806 -20.9103 -13.3591  -3.4007  -3.0061
    -2.7705  -1.6279  -0.7647  -0.0509   3.5185   5.4258   6.0444   6.1909
     7.0051   7.2181   8.6640   9.7559  12.0051  13.4221  13.9367  14.9910
    15.5840  17.0619

          k = 0.1250 0.2198 0.0000 (  5391 PWs)   bands (ev):

   -45.4611 -23.9903 -23.5239 -23.2251 -20.8888 -13.2529  -3.2988  -3.0931
    -2.8139  -1.6845  -1.1211  -0.2395   3.5067   5.4249   6.2268   6.4542
     7.1595   7.5519   9.1288  10.1887  12.5544  13.0176  13.6245  15.2506
    16.1299  16.7955

          k = 0.1250 0.2931 0.0000 (  5394 PWs)   bands (ev):

   -45.4443 -23.9604 -23.6417 -23.2781 -20.8741 -13.1223  -3.2985  -3.0886
    -2.8706  -1.9154  -1.3367  -0.4508   3.4818   5.5376   6.3248   6.9139
     7.3527   8.0444   9.6399  10.6566  12.5472  13.1881  13.4885  15.5647
    16.1852  17.1644

          k = 0.1250 0.3663 0.0000 (  5406 PWs)   bands (ev):

   -45.4273 -23.9840 -23.6953 -23.3312 -20.8693 -12.9853  -3.3913  -3.0218
    -2.9384  -2.2589  -1.3890  -0.6494   3.4574   5.8148   6.4427   7.1940
     7.6770   8.7092  10.1010  11.1082  12.3426  13.0416  14.2323  15.1807
    16.0019  16.5281

          k = 0.1250 0.4396 0.0000 (  5423 PWs)   bands (ev):

   -45.4129 -24.0555 -23.6816 -23.3762 -20.8723 -12.8634  -3.4777  -3.0806
    -2.9479  -2.5130  -1.3948  -0.8104   3.4497   6.2154   6.5460   7.3446
     7.9303   9.5393  10.4600  11.4783  12.3458  13.0115  14.3602  14.7468
    15.2629  16.4523

          k = 0.1250 0.5129 0.0000 (  5412 PWs)   bands (ev):

   -45.4033 -24.1168 -23.6551 -23.4066 -20.8776 -12.7788  -3.5351  -3.2065
    -2.9362  -2.6233  -1.3926  -0.9150   3.4564   6.5295   6.7102   7.4420
     7.9872  10.3707  10.7576  11.7084  12.4004  13.0367  13.5243  14.5634
    15.0935  15.9982

          k = 0.1250 0.5861 0.0000 (  5398 PWs)   bands (ev):

   -45.3999 -24.1395 -23.6438 -23.4173 -20.8800 -12.7484  -3.5552  -3.2622
    -2.9345  -2.6494  -1.3915  -0.9511   3.4616   6.5676   6.9031   7.4570
     7.9722  10.6433  11.0940  11.9174  12.1509  12.7809  13.5345  14.3746
    15.2342  15.4246

          k = 0.1250 0.0000 0.0000 (  5396 PWs)   bands (ev):

   -45.4882 -24.0723 -23.2702 -23.1426 -20.9381 -13.4516  -3.5186  -2.9050
    -2.7328  -1.6303  -0.3380   0.1043   3.5193   5.3756   5.8796   6.1457
     6.8598   6.9590   8.2223   9.2932  11.5127  13.8914  14.0545  14.9831
    15.2461  17.2581

          k = 0.1875 0.1099 0.0000 (  5410 PWs)   bands (ev):

   -45.4704 -24.0151 -23.4656 -23.1797 -20.8996 -13.3209  -3.3634  -3.0572
    -2.7524  -1.6580  -0.9625  -0.0470   3.4585   5.4776   6.1496   6.2226
     7.1832   7.2786   8.8392   9.9270  12.1152  13.3069  13.8187  15.2665
    15.6743  17.1054

          k = 0.1875 0.1832 0.0000 (  5412 PWs)   bands (ev):

   -45.4595 -23.9867 -23.5588 -23.2109 -20.8857 -13.2389  -3.3112  -3.1013
    -2.7848  -1.7412  -1.1960  -0.1743   3.4299   5.5307   6.2249   6.4826
     7.2513   7.5911   9.1859  10.2436  12.3397  13.1926  13.6293  15.4286
    16.1637  16.8753

          k = 0.1875 0.2564 0.0000 (  5406 PWs)   bands (ev):

   -45.4452 -23.9629 -23.6471 -23.2663 -20.8728 -13.1277  -3.3021  -3.0907
    -2.8520  -1.9320  -1.3427  -0.4055   3.4426   5.5483   6.3428   6.9265
     7.3593   8.0368   9.6294  10.6583  12.5728  13.1491  13.4410  15.5588
    16.1929  17.0831

          k = 0.1875 0.3297 0.0000 (  5407 PWs)   bands (ev):

   -45.4296 -23.9724 -23.6911 -23.3365 -20.8652 -13.0020  -3.3506  -3.0265
    -2.9473  -2.1794  -1.4026  -0.6826   3.5021   5.6482   6.5178   7.0998
     7.6899   8.6812  10.1062  11.1302  12.6620  12.9995  13.7168  15.1017
    16.3410  16.4493

          k = 0.1875 0.4030 0.0000 (  5422 PWs)   bands (ev):

   -45.4152 -24.0192 -23.6821 -23.4073 -20.8637 -12.8805  -3.4123  -3.0713
    -2.9613  -2.3806  -1.4305  -0.9432   3.5886   5.8917   6.6519   7.1747
     7.9439   9.5327  10.5586  11.5972  12.6263  12.9324  14.2696  14.5482
    15.4163  16.2602

          k = 0.1875 0.4762 0.0000 (  5410 PWs)   bands (ev):

   -45.4042 -24.0688 -23.6548 -23.4647 -20.8659 -12.7836  -3.4674  -3.1894
    -2.9290  -2.4887  -1.4544  -1.1361   3.6719   6.2675   6.6686   7.3306
     7.9342  10.4467  10.9342  11.9256  12.5742  13.0643  13.9573  14.5196
    14.9265  16.0672

          k = 0.1875 0.5495 0.0000 (  5413 PWs)   bands (ev):

   -45.3982 -24.0976 -23.6354 -23.4971 -20.8683 -12.7296  -3.5034  -3.2610
    -2.9189  -2.5256  -1.4784  -1.2302   3.7228   6.6240   6.6620   7.4608
     7.7497  10.8756  11.5667  12.0434  12.4827  12.9606  13.5659  14.4685
    15.0577  15.7878

          k = 0.1875-0.0366 0.0000 (  5411 PWs)   bands (ev):

   -45.4763 -24.0323 -23.4037 -23.1711 -20.9086 -13.3643  -3.4000  -3.0172
    -2.7468  -1.6334  -0.7701  -0.0241   3.4930   5.3682   6.1107   6.2336
     7.0500   7.1640   8.6487   9.7517  11.9865  13.4254  13.9145  14.9948
    15.6190  17.0490

          k = 0.2500 0.1465 0.0000 (  5412 PWs)   bands (ev):

   -45.4532 -23.9768 -23.6229 -23.2118 -20.8791 -13.1892  -3.3428  -3.0883
    -2.7689  -1.8862  -1.2975  -0.1723   3.3374   5.6999   6.2728   6.6064
     7.3862   7.7640   9.3780  10.4118  12.1406  13.2071  13.8661  15.8028
    16.2855  16.8674

          k = 0.2500 0.2198 0.0000 (  5409 PWs)   bands (ev):

   -45.4422 -23.9734 -23.6807 -23.2452 -20.8728 -13.1030  -3.3762  -3.0570
    -2.8121  -2.0928  -1.3635  -0.3054   3.3134   5.7905   6.3448   6.9709
     7.4677   8.1156   9.6893  10.7047  12.1539  13.0930  14.0727  15.7729
    16.2714  16.5810

          k = 0.2500 0.2931 0.0000 (  5404 PWs)   bands (ev):

   -45.4293 -23.9920 -23.7001 -23.3102 -20.8666 -12.9973  -3.3997  -3.0133
    -2.9129  -2.2755  -1.3996  -0.5741   3.3888   5.8292   6.4792   7.1976
     7.6998   8.6913  10.0889  11.1194  12.3588  12.9936  14.1277  15.1533
    15.8901  16.5316

          k = 0.2500 0.3663 0.0000 (  5407 PWs)   bands (ev):

   -45.4163 -24.0241 -23.6838 -23.3964 -20.8622 -12.8872  -3.4168  -3.0561
    -2.9608  -2.3839  -1.4338  -0.9099   3.5551   5.8950   6.6828   7.1623
     7.9554   9.5229  10.5585  11.6056  12.6559  12.9016  14.1994  14.5142
    15.3375  16.3067

          k = 0.2500 0.4396 0.0000 (  5412 PWs)   bands (ev):

   -45.4052 -24.0493 -23.6552 -23.4851 -20.8602 -12.7900  -3.4513  -3.1594
    -2.9223  -2.4231  -1.5007  -1.2067   3.7604   6.0630   6.7586   7.2419
     7.9606  10.4441  11.0190  11.9926  12.7804  13.0415  14.1709  14.4865
    14.7302  15.6783

          k = 0.2500 0.5129 0.0000 (  5416 PWs)   bands (ev):

   -45.3978 -24.0606 -23.6314 -23.5536 -20.8598 -12.7231  -3.5106  -3.1851
    -2.8979  -2.4204  -1.6436  -1.3424   3.9277   6.3440   6.6972   7.4028
     7.7660  10.9844  11.6085  12.0926  12.9731  13.3417  13.7790  14.3743
    14.8071  15.4552

          k = 0.2500 0.5861 0.0000 (  5424 PWs)   bands (ev):

   -45.3952 -24.0630 -23.6220 -23.5804 -20.8598 -12.6992  -3.5400  -3.1818
    -2.8901  -2.4114  -1.7261  -1.3687   3.9914   6.5481   6.6542   7.3876
     7.6799  11.0047  12.1105  12.5305  12.5632  13.1699  13.8281  14.3520
    14.9506  15.7463

          k = 0.2500-0.0733 0.0000 (  5425 PWs)   bands (ev):

   -45.4605 -23.9878 -23.5582 -23.2070 -20.8836 -13.2453  -3.3104  -3.1010
    -2.7689  -1.7414  -1.1862  -0.1731   3.4159   5.5003   6.2346   6.5402
     7.2430   7.5849   9.1756  10.2410  12.3295  13.2099  13.6267  15.4293
    16.1525  16.8205

          k = 0.2500 0.0000 0.0000 (  5418 PWs)   bands (ev):

   -45.4631 -23.9928 -23.5288 -23.2109 -20.8851 -13.2646  -3.2968  -3.1020
    -2.7765  -1.6957  -1.1162  -0.2038   3.4604   5.3824   6.2724   6.5417
     7.1470   7.5381   9.1054  10.1841  12.5238  13.0438  13.5963  15.2312
    16.1604  16.7519

          k = 0.3125 0.1832 0.0000 (  5396 PWs)   bands (ev):

   -45.4359 -23.9979 -23.7065 -23.2434 -20.8724 -13.0508  -3.4463  -3.0273
    -2.7910  -2.3011  -1.3813  -0.2874   3.2139   5.9873   6.5009   7.0720
     7.5952   8.3294   9.8266  10.8229  12.0024  12.9938  14.6068  15.5266
    16.3492  16.4902

          k = 0.3125 0.2564 0.0000 (  5404 PWs)   bands (ev):

   -45.4263 -24.0355 -23.7064 -23.2775 -20.8717 -12.9715  -3.4881  -3.0085
    -2.8521  -2.4638  -1.3950  -0.4229   3.2220   6.1193   6.5440   7.3313
     7.7564   8.7555  10.0735  11.0901  12.0990  12.9390  14.7136  14.9259
    15.8593  16.5078

          k = 0.3125 0.3297 0.0000 (  5411 PWs)   bands (ev):

   -45.4159 -24.0670 -23.6853 -23.3490 -20.8681 -12.8825  -3.4884  -3.0535
    -2.9335  -2.5089  -1.4131  -0.7194   3.3669   6.2237   6.5923   7.3441
     7.9551   9.5124  10.4574  11.5073  12.3303  12.9462  14.2377  14.6458
    15.2169  16.3946

          k = 0.3125 0.4030 0.0000 (  5412 PWs)   bands (ev):

   -45.4062 -24.0770 -23.6572 -23.4458 -20.8630 -12.7973  -3.4709  -3.1737
    -2.9213  -2.4813  -1.4555  -1.0910   3.6206   6.2539   6.7192   7.3195
     7.9525  10.4182  10.9429  11.9570  12.5816  13.0259  13.8256  14.4950
    14.8386  16.1124

          k = 0.3125 0.4762 0.0000 (  5424 PWs)   bands (ev):

   -45.3989 -24.0645 -23.6328 -23.5445 -20.8583 -12.7301  -3.5059  -3.1825
    -2.8937  -2.4168  -1.6219  -1.3458   3.9087   6.3261   6.7180   7.4015
     7.7794  10.9645  11.6050  12.1080  13.0084  13.3020  13.6919  14.4168
    14.7617  15.4709

          k = 0.3125 0.5495 0.0000 (  5435 PWs)   bands (ev):

   -45.3949 -24.0451 -23.6197 -23.6110 -20.8555 -12.6930  -3.5576  -3.1285
    -2.8684  -2.3328  -1.8800  -1.4018   4.1106   6.4607   6.6660   7.2763
     7.7595  10.9962  12.1112  12.5067  13.2923  13.4577  13.6240  14.1193
    14.9682  15.6927

          k = 0.3125-0.1099 0.0000 (  5415 PWs)   bands (ev):

   -45.4433 -23.9732 -23.6785 -23.2446 -20.8706 -13.1096  -3.3718  -3.0550
    -2.7987  -2.0808  -1.3606  -0.3167   3.3128   5.7860   6.3539   6.9712
     7.4515   8.1244   9.6818  10.7026  12.1544  13.0971  14.1070  15.7601
    16.2540  16.5744

          k = 0.3125-0.0366 0.0000 (  5418 PWs)   bands (ev):

   -45.4472 -23.9645 -23.6450 -23.2602 -20.8686 -13.1408  -3.2981  -3.0874
    -2.8229  -1.9199  -1.3348  -0.4074   3.4227   5.5246   6.3946   6.9389
     7.3319   8.0421   9.6139  10.6547  12.5822  13.1472  13.4627  15.5250
    16.1426  17.0687

          k = 0.3750 0.2198 0.0000 (  5415 PWs)   bands (ev):

   -45.4212 -24.0843 -23.6989 -23.2701 -20.8760 -12.9274  -3.5585  -3.0126
    -2.8142  -2.6400  -1.3939  -0.3781   3.1307   6.2381   6.7983   7.4138
     7.9108   8.9546  10.1208  11.1556  12.0855  12.9130  14.2524  15.1178
    15.9275  16.0247

          k = 0.3750 0.2931 0.0000 (  5419 PWs)   bands (ev):

   -45.4142 -24.1206 -23.6810 -23.3027 -20.8771 -12.8667  -3.5836  -3.0584
    -2.8856  -2.6644  -1.3986  -0.5113   3.1755   6.3929   6.7860   7.4881
     8.0653   9.4943  10.3498  11.3897  12.1939  12.9315  13.7557  14.8836
    15.3239  16.0192

          k = 0.3750 0.3663 0.0000 (  5409 PWs)   bands (ev):

   -45.4071 -24.1285 -23.6588 -23.3761 -20.8721 -12.8041  -3.5474  -3.1760
    -2.9171  -2.5979  -1.4166  -0.8198   3.3709   6.5997   6.6847   7.4559
     7.9943  10.3344  10.7615  11.7469  12.3258  12.9304  13.4551  14.5092
    15.0250  15.9224

          k = 0.3750 0.4396 0.0000 (  5413 PWs)   bands (ev):

   -45.4011 -24.1063 -23.6383 -23.4743 -20.8640 -12.7495  -3.5007  -3.2434
    -2.9067  -2.5056  -1.4701  -1.1947   3.6689   6.5957   6.7060   7.4723
     7.7618  10.8323  11.5615  12.1018  12.4044  12.9032  13.5224  14.4037
    15.0267  15.7065

          k = 0.3750 0.5129 0.0000 (  5429 PWs)   bands (ev):

   -45.3972 -24.0672 -23.6241 -23.5672 -20.8568 -12.7123  -3.5278  -3.1735
    -2.8835  -2.3976  -1.6934  -1.3843   3.9716   6.5156   6.6759   7.3770
     7.7129  10.9557  12.1472  12.4255  12.5214  13.2675  13.8039  14.3317
    14.9444  15.6723

          k = 0.3750 0.5861 0.0000 (  5448 PWs)   bands (ev):

   -45.3958 -24.0452 -23.6186 -23.6091 -20.8541 -12.6991  -3.5505  -3.1207
    -2.8667  -2.3189  -1.8773  -1.4105   4.1112   6.4552   6.6652   7.2575
     7.7797  10.9653  12.1338  12.3821  13.3829  13.4018  13.7965  14.0338
    14.9287  15.6364

          k = 0.3750-0.1465 0.0000 (  5416 PWs)   bands (ev):

   -45.4272 -24.0330 -23.7056 -23.2785 -20.8698 -12.9773  -3.4819  -3.0048
    -2.8396  -2.4543  -1.3948  -0.4376   3.2290   6.1323   6.5564   7.3112
     7.7226   8.7654  10.0558  11.0885  12.1023  12.9418  14.7507  14.9601
    15.7958  16.5244

          k = 0.3750-0.0733 0.0000 (  5403 PWs)   bands (ev):

   -45.4312 -23.9895 -23.6979 -23.3094 -20.8626 -13.0099  -3.3896  -3.0104
    -2.8857  -2.2513  -1.3989  -0.5951   3.3922   5.8248   6.5116   7.1902
     7.6477   8.6966  10.0682  11.1154  12.3700  12.9983  14.1831  15.1335
    15.8959  16.4777

          k = 0.3750 0.0000 0.0000 (  5404 PWs)   bands (ev):

   -45.4326 -23.9731 -23.6900 -23.3273 -20.8595 -13.0212  -3.3430  -3.0205
    -2.9060  -2.1554  -1.4032  -0.6818   3.4787   5.6375   6.5938   7.0759
     7.6465   8.6771  10.0817  11.1271  12.7197  12.9791  13.7080  15.0662
    16.2563  16.4205

          k = 0.4375 0.2564 0.0000 (  5415 PWs)   bands (ev):

   -45.4114 -24.1598 -23.6715 -23.2878 -20.8829 -12.8416  -3.6460  -3.0761
    -2.8343  -2.7878  -1.3925  -0.4356   3.0919   6.4264   6.9932   7.5501
     8.2818   9.5986  10.3588  11.4221  12.1517  12.8226  13.4796  14.8076
    15.2871  15.5324

          k = 0.4375 0.3297 0.0000 (  5431 PWs)   bands (ev):

   -45.4077 -24.1715 -23.6594 -23.3167 -20.8819 -12.8090  -3.6413  -3.1410
    -2.8944  -2.7213  -1.3974  -0.5605   3.1623   6.5336   6.9720   7.5421
     8.2380  10.1273  10.5624  11.6172  12.0861  12.6837  13.4768  14.4795
    15.0807  15.4796

          k = 0.4375 0.4030 0.0000 (  5415 PWs)   bands (ev):

   -45.4043 -24.1499 -23.6477 -23.3863 -20.8735 -12.7779  -3.5663  -3.2228
    -2.9133  -2.6150  -1.4173  -0.8607   3.3799   6.6328   6.8960   7.4846
     7.9404  10.5971  11.0870  11.9179  12.0449  12.7137  13.4980  14.3008
    15.1703  15.3928

          k = 0.4375 0.4762 0.0000 (  5413 PWs)   bands (ev):

   -45.4017 -24.1041 -23.6384 -23.4749 -20.8628 -12.7537  -3.4967  -3.2312
    -2.9065  -2.4978  -1.4697  -1.2058   3.6756   6.6304   6.6822   7.4931
     7.7190  10.8067  11.4693  12.0994  12.4784  12.9293  13.5228  14.4104
    15.0131  15.7470

          k = 0.4375 0.5495 0.0000 (  5428 PWs)   bands (ev):

   -45.4003 -24.0615 -23.6328 -23.5431 -20.8556 -12.7403  -3.4955  -3.1606
    -2.8921  -2.3928  -1.6243  -1.3636   3.9177   6.3336   6.7076   7.4070
     7.7571  10.9149  11.4813  12.1496  12.9619  13.4221  13.7558  14.3887
    14.7257  15.4777

          k = 0.4375-0.1832 0.0000 (  5416 PWs)   bands (ev):

   -45.4148 -24.1181 -23.6809 -23.3038 -20.8757 -12.8708  -3.5782  -3.0478
    -2.8816  -2.6623  -1.3985  -0.5229   3.1831   6.3917   6.8281   7.4758
     8.0178   9.4901  10.3149  11.3913  12.2042  12.9305  13.7792  14.9213
    15.2812  16.0368

          k = 0.4375-0.1099 0.0000 (  5406 PWs)   bands (ev):

   -45.4174 -24.0621 -23.6848 -23.3505 -20.8650 -12.8925  -3.4777  -3.0305
    -2.9280  -2.4928  -1.4133  -0.7433   3.3800   6.2420   6.6005   7.3617
     7.8760   9.4996  10.4053  11.5051  12.3487  12.9494  14.2757  14.6901
    15.2073  16.3904

          k = 0.4375-0.0366 0.0000 (  5418 PWs)   bands (ev):

   -45.4188 -24.0199 -23.6832 -23.3938 -20.8573 -12.9040  -3.4044  -3.0201
    -2.9542  -2.3526  -1.4355  -0.9333   3.5599   5.8911   6.7137   7.1772
     7.8813   9.4955  10.5077  11.6025  12.6773  12.9239  14.2102  14.5280
    15.3652  16.2290

          k =-0.5000-0.2931 0.0000 (  5428 PWs)   bands (ev):

   -45.4079 -24.1877 -23.6596 -23.2940 -20.8861 -12.8107  -3.6810  -3.1193
    -2.8446  -2.8131  -1.3909  -0.4552   3.0819   6.5047   7.0421   7.5858
     8.4423   9.9614  10.4727  11.6292  11.9430  12.5867  13.5286  14.4463
    15.0750  15.3574

          k =-0.5000-0.2198 0.0000 (  5413 PWs)   bands (ev):

   -45.4079 -24.1705 -23.6594 -23.3172 -20.8814 -12.8104  -3.6391  -3.1361
    -2.8939  -2.7210  -1.3972  -0.5648   3.1655   6.5265   7.0039   7.5331
     8.2188  10.1112  10.5465  11.6114  12.1077  12.6881  13.4763  14.4852
    15.1001  15.4638

          k =-0.5000-0.1465 0.0000 (  5401 PWs)   bands (ev):

   -45.4079 -24.1251 -23.6588 -23.3774 -20.8704 -12.8096  -3.5406  -3.1588
    -2.9167  -2.5911  -1.4164  -0.8350   3.3810   6.5828   6.7364   7.4703
     7.9282  10.3126  10.6858  11.7453  12.3695  12.9380  13.4804  14.5135
    15.0391  15.9303

          k =-0.5000-0.0733 0.0000 (  5418 PWs)   bands (ev):

   -45.4079 -24.0719 -23.6572 -23.4463 -20.8596 -12.8089  -3.4605  -3.1429
    -2.9196  -2.4592  -1.4555  -1.1172   3.6346   6.2706   6.7076   7.3641
     7.8729  10.3826  10.8379  11.9643  12.6026  13.0594  13.8761  14.4987
    14.8631  16.1060

          k =-0.5000-0.0000 0.0000 (  5416 PWs)   bands (ev):

   -45.4079 -24.0464 -23.6557 -23.4790 -20.8552 -12.8085  -3.4385  -3.1200
    -2.9175  -2.3896  -1.4980  -1.2285   3.7607   6.0583   6.7693   7.2803
     7.8946  10.3893  10.9138  12.0224  12.7285  13.1701  14.1465  14.4697
    14.7433  15.6669

     highest occupied, lowest unoccupied level (ev):     4.1112    5.3682

!    total energy              =    -446.24431519 Ry
     total all-electron energy =     -8320.714595 Ry
     estimated scf accuracy    <          1.4E-09 Ry

     The total energy is the sum of the following terms:
     one-electron contribution =    -306.53159513 Ry
     hartree contribution      =     161.53674479 Ry
     xc contribution           =     -38.53792409 Ry
     ewald contribution        =       3.91459835 Ry
     one-center paw contrib.   =    -266.62613911 Ry

     convergence has been achieved in   6 iterations

     negative rho (up, down):  8.521E-05 0.000E+00

     Forces acting on atoms (cartesian axes, Ry/au):

     atom    1 type  1   force =     0.00000000    0.00597354   -0.00016030
     atom    2 type  2   force =     0.00000000   -0.00264550    0.00346001
     atom    3 type  3   force =     0.00000000   -0.00332804   -0.00329972
     The non-local contrib.  to forces
     atom    1 type  1   force =     0.00000000    0.00140226   -0.02125639
     atom    2 type  2   force =     0.00000000   -0.01112531   -1.10478472
     atom    3 type  3   force =     0.00000000   -0.00268342    0.22177145
     The ionic contribution  to forces
     atom    1 type  1   force =    -0.00000001   -0.05250916   -0.39684732
     atom    2 type  2   force =     0.00000001    0.03137938   27.18057625
     atom    3 type  3   force =     0.00000000    0.02112978  -26.78372893
     The local contribution  to forces
     atom    1 type  1   force =    -0.00000000    0.05690082    0.41415083
     atom    2 type  2   force =     0.00000027   -0.02300217  -26.07593609
     atom    3 type  3   force =     0.00000003   -0.02183774   26.56574332
     The core correction contribution to forces
     atom    1 type  1   force =     0.00000000    0.00010549    0.00368266
     atom    2 type  2   force =     0.00000000    0.00003592    0.00354753
     atom    3 type  3   force =    -0.00000000   -0.00000917   -0.00710189
     The Hubbard contrib.    to forces
     atom    1 type  1   force =     0.00000000    0.00000000    0.00000000
     atom    2 type  2   force =     0.00000000    0.00000000    0.00000000
     atom    3 type  3   force =     0.00000000    0.00000000    0.00000000
     The SCF correction term to forces
     atom    1 type  1   force =    -0.00000000    0.00000848    0.00004384
     atom    2 type  2   force =    -0.00000000    0.00000102   -0.00000905
     atom    3 type  3   force =    -0.00000000    0.00000685   -0.00004975

     Total force =     0.008755     Total SCF correction =     0.000068
     Energy error            =      1.2E-04 Ry
     Gradient error          =      6.0E-03 Ry/Bohr

     number of scf cycles    =   2
     number of bfgs steps    =   1

     energy             old  =    -446.2441958960 Ry
     energy             new  =    -446.2443151927 Ry

     CASE: energy            _new < energy            _old

     new trust radius        =       0.0089287705 bohr
     new conv_thr            =       0.0000000012 Ry


ATOMIC_POSITIONS (angstrom)
Zr           -0.0000000000        0.0090136644        9.5700317462
F            -0.0000000020        1.8775802001       10.9084428979
Cl           -0.0000000020        1.8764268442        7.8077002644



     Writing config-only to output data dir ./tmp/ZrFCl.save/
     NEW-OLD atomic charge density approx. for the potential

     Check: negative core charge=   -0.000005

     negative rho (up, down):  8.393E-05 0.000E+00

     total cpu time spent up to now is       26.3 secs

     Self-consistent Calculation

     iteration #  1     ecut=    65.00 Ry     beta= 0.70
     Davidson diagonalization with overlap
     ethr =  1.00E-06,  avg # of iterations =  3.0

     Threshold (ethr) on eigenvalues was too large:
     Diagonalizing with lowered threshold

     Davidson diagonalization with overlap
     ethr =  2.96E-08,  avg # of iterations =  3.0

     negative rho (up, down):  8.342E-05 0.000E+00

     total cpu time spent up to now is       29.6 secs

     total energy              =    -446.24440618 Ry
     estimated scf accuracy    <       0.00000790 Ry

     iteration #  2     ecut=    65.00 Ry     beta= 0.70
     Davidson diagonalization with overlap
     ethr =  3.04E-08,  avg # of iterations =  2.0

     negative rho (up, down):  8.379E-05 0.000E+00

     total cpu time spent up to now is       31.0 secs

     total energy              =    -446.24440635 Ry
     estimated scf accuracy    <       0.00000803 Ry

     iteration #  3     ecut=    65.00 Ry     beta= 0.70
     Davidson diagonalization with overlap
     ethr =  3.04E-08,  avg # of iterations =  1.4

     negative rho (up, down):  8.385E-05 0.000E+00

     total cpu time spent up to now is       32.1 secs

     total energy              =    -446.24440850 Ry
     estimated scf accuracy    <       0.00000158 Ry

     iteration #  4     ecut=    65.00 Ry     beta= 0.70
     Davidson diagonalization with overlap
     ethr =  6.08E-09,  avg # of iterations =  1.1

     negative rho (up, down):  8.386E-05 0.000E+00

     total cpu time spent up to now is       33.3 secs

     total energy              =    -446.24440880 Ry
     estimated scf accuracy    <       0.00000010 Ry

     iteration #  5     ecut=    65.00 Ry     beta= 0.70
     Davidson diagonalization with overlap
     ethr =  3.83E-10,  avg # of iterations =  2.0

     negative rho (up, down):  8.385E-05 0.000E+00

     total cpu time spent up to now is       34.5 secs

     total energy              =    -446.24440883 Ry
     estimated scf accuracy    <       0.00000003 Ry

     iteration #  6     ecut=    65.00 Ry     beta= 0.70
     Davidson diagonalization with overlap
     ethr =  1.04E-10,  avg # of iterations =  2.0

     negative rho (up, down):  8.386E-05 0.000E+00

     total cpu time spent up to now is       35.8 secs

     total energy              =    -446.24440883 Ry
     estimated scf accuracy    <          1.8E-09 Ry

     iteration #  7     ecut=    65.00 Ry     beta= 0.70
     Davidson diagonalization with overlap
     ethr =  6.99E-12,  avg # of iterations =  2.0

     negative rho (up, down):  8.386E-05 0.000E+00

     total cpu time spent up to now is       37.1 secs

     End of self-consistent calculation

          k = 0.0000 0.0000 0.0000 (  5391 PWs)   bands (ev):

   -45.5079 -24.1112 -23.1581 -23.1306 -20.9665 -13.5221  -3.6233  -2.7734
    -2.7203  -1.6603   0.0978   0.2070   3.4957   5.4548   5.6821   5.9560
     6.8242   6.8467   7.8607   8.7940  11.1280  13.8023  14.5901  14.8222
    15.5970  17.2698

          k = 0.0000 0.0733 0.0000 (  5395 PWs)   bands (ev):

   -45.5043 -24.0990 -23.1747 -23.1652 -20.9550 -13.4969  -3.5840  -2.7744
    -2.7675  -1.6459   0.0390   0.0658   3.5139   5.5178   5.6211   6.0436
     6.8037   6.8731   7.9946   8.9919  11.2638  13.8880  14.5025  14.6959
    15.4256  17.2408

          k = 0.0000 0.1465 0.0000 (  5413 PWs)   bands (ev):

   -45.4941 -24.0650 -23.2944 -23.1853 -20.9275 -13.4242  -3.4798  -2.8855
    -2.7791  -1.6227  -0.3914  -0.0221   3.5399   5.5166   5.7112   6.1492
     6.8958   7.0034   8.3580   9.4369  11.6567  13.7990  14.0963  15.0116
    15.1266  17.1534

          k = 0.0000 0.2198 0.0000 (  5385 PWs)   bands (ev):

   -45.4787 -24.0169 -23.4577 -23.2152 -20.8986 -13.3119  -3.3576  -3.0194
    -2.7909  -1.6424  -0.9188  -0.1455   3.5128   5.5199   6.0402   6.1675
     7.1777   7.2709   8.8675   9.9394  12.1381  13.3423  13.8680  15.3310
    15.5255  17.0058

          k = 0.0000 0.2931 0.0000 (  5383 PWs)   bands (ev):

   -45.4605 -23.9755 -23.6192 -23.2502 -20.8798 -13.1735  -3.3319  -3.0672
    -2.8116  -1.8533  -1.2825  -0.2801   3.4149   5.6960   6.2533   6.4924
     7.3626   7.7777   9.4092  10.4168  12.1424  13.2658  13.9419  15.8773
    16.1619  16.8360

          k = 0.0000 0.3663 0.0000 (  5420 PWs)   bands (ev):

   -45.4422 -23.9921 -23.7080 -23.2850 -20.8746 -13.0279  -3.4321  -3.0212
    -2.8392  -2.2783  -1.3655  -0.4040   3.2998   5.9546   6.4790   7.0030
     7.5627   8.3526   9.8543  10.8139  12.0187  13.0594  14.7183  15.6781
    16.2445  16.5752

          k = 0.0000 0.4396 0.0000 (  5404 PWs)   bands (ev):

   -45.4266 -24.0779 -23.7017 -23.3142 -20.8794 -12.8981  -3.5422  -3.0183
    -2.8673  -2.6333  -1.3696  -0.5018   3.2183   6.1864   6.7774   7.3694
     7.8935   8.9807  10.1476  11.1406  12.1292  13.0003  14.3835  15.2413
    15.8185  16.1656

          k = 0.0000 0.5129 0.0000 (  5408 PWs)   bands (ev):

   -45.4161 -24.1543 -23.6738 -23.3336 -20.8869 -12.8077  -3.6260  -3.0943
    -2.8883  -2.7928  -1.3621  -0.5638   3.1794   6.3623   6.9710   7.5017
     8.3064   9.6165  10.3939  11.4208  12.2368  12.9483  13.5477  14.9174
    15.3852  15.4233

          k = 0.0000-0.5861 0.0000 (  5402 PWs)   bands (ev):

   -45.4125 -24.1825 -23.6617 -23.3404 -20.8903 -12.7753  -3.6591  -3.1431
    -2.8961  -2.8245  -1.3584  -0.5850   3.1693   6.4356   7.0188   7.5342
     8.4878   9.9719  10.4960  11.6714  12.0576  12.6789  13.5914  14.5471
    15.1978  15.2058

          k = 0.0625 0.0366 0.0000 (  5403 PWs)   bands (ev):

   -45.5045 -24.0994 -23.1968 -23.1416 -20.9549 -13.4981  -3.5842  -2.8112
    -2.7279  -1.6474  -0.0467   0.1591   3.5061   5.4349   5.7183   6.0407
     6.7899   6.8936   7.9880   8.9859  11.2584  13.8852  14.3614  14.8787
    15.3898  17.2978

          k = 0.0625 0.1099 0.0000 (  5403 PWs)   bands (ev):

   -45.4976 -24.0763 -23.2643 -23.1695 -20.9355 -13.4492  -3.5119  -2.8661
    -2.7588  -1.6288  -0.2879   0.0421   3.5278   5.4621   5.7367   6.1399
     6.8083   6.9899   8.2373   9.3031  11.5263  13.9181  14.0982  14.8929
    15.2306  17.1928

          k = 0.0625 0.1832 0.0000 (  5388 PWs)   bands (ev):

   -45.4848 -24.0349 -23.3977 -23.2025 -20.9077 -13.3565  -3.3938  -2.9802
    -2.7827  -1.6243  -0.7329  -0.0996   3.5317   5.4350   5.9746   6.1883
     7.0081   7.1972   8.6754   9.7645  12.0151  13.4373  13.9559  14.9937
    15.5314  17.0050

          k = 0.0625 0.2564 0.0000 (  5389 PWs)   bands (ev):

   -45.4680 -23.9881 -23.5556 -23.2410 -20.8845 -13.2309  -3.3035  -3.0757
    -2.8096  -1.7192  -1.1738  -0.2547   3.4786   5.5183   6.1916   6.4257
     7.2323   7.5947   9.2063  10.2507  12.3360  13.2434  13.6684  15.4578
    16.0818  16.8111

          k = 0.0625 0.3297 0.0000 (  5397 PWs)   bands (ev):

   -45.4497 -23.9703 -23.6803 -23.2813 -20.8731 -13.0882  -3.3609  -3.0458
    -2.8449  -2.0623  -1.3523  -0.4063   3.3856   5.7667   6.3091   6.9121
     7.4351   8.1358   9.7114  10.7026  12.1495  13.1464  14.1697  15.8186
    16.2786  16.6362

          k = 0.0625 0.4030 0.0000 (  5408 PWs)   bands (ev):

   -45.4328 -24.0288 -23.7091 -23.3180 -20.8734 -12.9495  -3.4708  -3.0090
    -2.8868  -2.4508  -1.3773  -0.5364   3.3039   6.0867   6.5154   7.2854
     7.7163   8.7839  10.0878  11.0746  12.1200  13.0069  14.8453  15.0627
    15.8225  16.5663

          k = 0.0625 0.4762 0.0000 (  5406 PWs)   bands (ev):

   -45.4197 -24.1142 -23.6838 -23.3460 -20.8800 -12.8384  -3.5639  -3.0734
    -2.9120  -2.6776  -1.3732  -0.6309   3.2592   6.3337   6.7858   7.4427
     8.0457   9.5199  10.3612  11.3715  12.2513  13.0288  13.8713  14.9756
    15.3324  16.0730

          k = 0.0625 0.5495 0.0000 (  5410 PWs)   bands (ev):

   -45.4127 -24.1662 -23.6619 -23.3611 -20.8857 -12.7762  -3.6200  -3.1666
    -2.9189  -2.7484  -1.3677  -0.6804   3.2441   6.4615   6.9707   7.4922
     8.2589  10.1419  10.5784  11.6276  12.2014  12.7860  13.5284  14.5593
    15.1451  15.4449

          k = 0.1250 0.0733 0.0000 (  5398 PWs)   bands (ev):

   -45.4949 -24.0663 -23.3125 -23.1616 -20.9269 -13.4287  -3.4801  -2.9197
    -2.7351  -1.6286  -0.4560   0.0701   3.5090   5.3981   5.8754   6.1496
     6.8851   7.0246   8.3380   9.4245  11.6367  13.7556  14.0496  15.0583
    15.1818  17.2544

          k = 0.1250 0.1465 0.0000 (  5400 PWs)   bands (ev):

   -45.4854 -24.0360 -23.4065 -23.1896 -20.9072 -13.3599  -3.3935  -2.9958
    -2.7604  -1.6298  -0.7631  -0.0472   3.5061   5.4116   6.0330   6.1877
     7.0002   7.2088   8.6629   9.7588  12.0021  13.4160  13.9336  14.9883
    15.5782  17.0511

          k = 0.1250 0.2198 0.0000 (  5391 PWs)   bands (ev):

   -45.4711 -23.9948 -23.5326 -23.2335 -20.8858 -13.2537  -3.2903  -3.0848
    -2.8019  -1.6860  -1.1221  -0.2343   3.4925   5.4098   6.2239   6.4473
     7.1441   7.5492   9.1267  10.1931  12.5500  13.0126  13.6167  15.2493
    16.1275  16.7827

          k = 0.1250 0.2931 0.0000 (  5394 PWs)   bands (ev):

   -45.4543 -23.9648 -23.6508 -23.2862 -20.8710 -13.1230  -3.2898  -3.0806
    -2.8573  -1.9164  -1.3395  -0.4456   3.4657   5.5237   6.3258   6.9036
     7.3336   8.0444   9.6361  10.6617  12.5456  13.1740  13.4851  15.5630
    16.1824  17.1626

          k = 0.1250 0.3663 0.0000 (  5406 PWs)   bands (ev):

   -45.4374 -23.9891 -23.7038 -23.3390 -20.8663 -12.9857  -3.3836  -3.0125
    -2.9250  -2.2591  -1.3927  -0.6448   3.4394   5.8033   6.4447   7.1778
     7.6624   8.7083  10.0948  11.1138  12.3423  13.0287  14.2272  15.1774
    15.9979  16.5285

          k = 0.1250 0.4396 0.0000 (  5423 PWs)   bands (ev):

   -45.4230 -24.0617 -23.6892 -23.3839 -20.8693 -12.8637  -3.4710  -3.0693
    -2.9376  -2.5103  -1.3991  -0.8066   3.4303   6.2074   6.5467   7.3272
     7.9171   9.5368  10.4529  11.4839  12.3431  13.0019  14.3576  14.7438
    15.2576  16.4481

          k = 0.1250 0.5129 0.0000 (  5412 PWs)   bands (ev):

   -45.4133 -24.1235 -23.6622 -23.4141 -20.8746 -12.7790  -3.5293  -3.1969
    -2.9260  -2.6172  -1.3972  -0.9119   3.4362   6.5302   6.7036   7.4261
     7.9724  10.3691  10.7498  11.7113  12.3934  13.0309  13.5279  14.5559
    15.0927  15.9860

          k = 0.1250 0.5861 0.0000 (  5398 PWs)   bands (ev):

   -45.4099 -24.1464 -23.6509 -23.4248 -20.8770 -12.7486  -3.5499  -3.2531
    -2.9243  -2.6422  -1.3962  -0.9482   3.4411   6.5688   6.8975   7.4415
     7.9560  10.6441  11.0833  11.9096  12.1571  12.7746  13.5361  14.3709
    15.2320  15.4123

          k = 0.1250 0.0000 0.0000 (  5396 PWs)   bands (ev):

   -45.4982 -24.0772 -23.2773 -23.1526 -20.9349 -13.4525  -3.5123  -2.8908
    -2.7266  -1.6327  -0.3304   0.1026   3.5088   5.3669   5.8650   6.1362
     6.8419   6.9688   8.2212   9.2928  11.5118  13.8877  14.0521  14.9777
    15.2424  17.2551

          k = 0.1875 0.1099 0.0000 (  5410 PWs)   bands (ev):

   -45.4804 -24.0201 -23.4723 -23.1892 -20.8970 -13.3215  -3.3568  -3.0462
    -2.7449  -1.6585  -0.9610  -0.0459   3.4519   5.4635   6.1449   6.2052
     7.1841   7.2694   8.8356   9.9273  12.1111  13.3009  13.8164  15.2690
    15.6703  17.1007

          k = 0.1875 0.1832 0.0000 (  5412 PWs)   bands (ev):

   -45.4695 -23.9914 -23.5662 -23.2198 -20.8831 -13.2394  -3.3033  -3.0924
    -2.7756  -1.7405  -1.1977  -0.1715   3.4217   5.5154   6.2159   6.4733
     7.2418   7.5884   9.1823  10.2453  12.3324  13.1894  13.6261  15.4277
    16.1625  16.8635

          k = 0.1875 0.2564 0.0000 (  5406 PWs)   bands (ev):

   -45.4552 -23.9673 -23.6553 -23.2747 -20.8702 -13.1282  -3.2930  -3.0832
    -2.8412  -1.9315  -1.3459  -0.4020   3.4327   5.5324   6.3380   6.9157
     7.3442   8.0372   9.6247  10.6616  12.5654  13.1432  13.4392  15.5541
    16.1921  17.0790

          k = 0.1875 0.3297 0.0000 (  5407 PWs)   bands (ev):

   -45.4396 -23.9769 -23.6996 -23.3445 -20.8626 -13.0024  -3.3420  -3.0185
    -2.9356  -2.1798  -1.4057  -0.6794   3.4903   5.6331   6.5170   7.0834
     7.6759   8.6820  10.0995  11.1347  12.6607  12.9901  13.7123  15.0955
    16.3399  16.4487

          k = 0.1875 0.4030 0.0000 (  5422 PWs)   bands (ev):

   -45.4253 -24.0246 -23.6901 -23.4149 -20.8610 -12.8807  -3.4045  -3.0596
    -2.9530  -2.3803  -1.4330  -0.9412   3.5749   5.8786   6.6529   7.1558
     7.9309   9.5325  10.5504  11.6018  12.6267  12.9250  14.2602  14.5439
    15.4157  16.2593

          k = 0.1875 0.4762 0.0000 (  5410 PWs)   bands (ev):

   -45.4142 -24.0748 -23.6624 -23.4719 -20.8633 -12.7837  -3.4597  -3.1796
    -2.9204  -2.4861  -1.4556  -1.1364   3.6564   6.2572   6.6673   7.3142
     7.9207  10.4464  10.9266  11.9275  12.5695  13.0612  13.9533  14.5186
    14.9209  16.0689

          k = 0.1875 0.5495 0.0000 (  5413 PWs)   bands (ev):

   -45.4082 -24.1040 -23.6428 -23.5041 -20.8657 -12.7297  -3.4954  -3.2533
    -2.9102  -2.5211  -1.4778  -1.2329   3.7062   6.6177   6.6581   7.4465
     7.7345  10.8729  11.5616  12.0423  12.4774  12.9570  13.5683  14.4669
    15.0537  15.7816

          k = 0.1875-0.0366 0.0000 (  5411 PWs)   bands (ev):

   -45.4863 -24.0374 -23.4098 -23.1810 -20.9061 -13.3649  -3.3939  -3.0047
    -2.7407  -1.6347  -0.7658  -0.0250   3.4876   5.3552   6.1044   6.2136
     7.0496   7.1600   8.6447   9.7510  11.9844  13.4155  13.9136  14.9986
    15.6154  17.0480

          k = 0.2500 0.1465 0.0000 (  5412 PWs)   bands (ev):

   -45.4632 -23.9813 -23.6296 -23.2211 -20.8768 -13.1895  -3.3344  -3.0808
    -2.7617  -1.8837  -1.3005  -0.1711   3.3336   5.6855   6.2612   6.5949
     7.3812   7.7593   9.3712  10.4109  12.1349  13.2034  13.8654  15.8052
    16.2835  16.8697

          k = 0.2500 0.2198 0.0000 (  5409 PWs)   bands (ev):

   -45.4523 -23.9773 -23.6885 -23.2540 -20.8705 -13.1032  -3.3671  -3.0504
    -2.8034  -2.0915  -1.3669  -0.3032   3.3080   5.7768   6.3328   6.9597
     7.4569   8.1148   9.6823  10.7051  12.1479  13.0897  14.0723  15.7666
    16.2757  16.5802

          k = 0.2500 0.2931 0.0000 (  5404 PWs)   bands (ev):

   -45.4393 -23.9958 -23.7084 -23.3187 -20.8643 -12.9975  -3.3906  -3.0067
    -2.9031  -2.2758  -1.4026  -0.5718   3.3823   5.8142   6.4698   7.1859
     7.6852   8.6927  10.0804  11.1222  12.3527  12.9916  14.1264  15.1471
    15.8913  16.5287

          k = 0.2500 0.3663 0.0000 (  5407 PWs)   bands (ev):

   -45.4263 -24.0283 -23.6921 -23.4044 -20.8598 -12.8872  -3.4080  -3.0460
    -2.9542  -2.3845  -1.4362  -0.9082   3.5474   5.8801   6.6753   7.1491
     7.9407   9.5241  10.5479  11.6103  12.6497  12.9036  14.1955  14.5065
    15.3374  16.3027

          k = 0.2500 0.4396 0.0000 (  5412 PWs)   bands (ev):

   -45.4153 -24.0540 -23.6633 -23.4927 -20.8578 -12.7900  -3.4423  -3.1506
    -2.9153  -2.4226  -1.5012  -1.2076   3.7510   6.0499   6.7514   7.2283
     7.9462  10.4450  11.0087  11.9960  12.7775  13.0421  14.1623  14.4836
    14.7283  15.6789

          k = 0.2500 0.5129 0.0000 (  5416 PWs)   bands (ev):

   -45.4079 -24.0658 -23.6395 -23.5609 -20.8574 -12.7229  -3.5012  -3.1779
    -2.8904  -2.4187  -1.6411  -1.3469   3.9166   6.3341   6.6889   7.3886
     7.7523  10.9792  11.6079  12.0901  12.9691  13.3398  13.7812  14.3746
    14.7994  15.4554

          k = 0.2500 0.5861 0.0000 (  5424 PWs)   bands (ev):

   -45.4053 -24.0682 -23.6300 -23.5875 -20.8574 -12.6990  -3.5305  -3.1754
    -2.8826  -2.4091  -1.7230  -1.3741   3.9795   6.5422   6.6445   7.3705
     7.6679  10.9991  12.1055  12.5281  12.5664  13.1663  13.8290  14.3519
    14.9488  15.7451

          k = 0.2500-0.0733 0.0000 (  5425 PWs)   bands (ev):

   -45.4705 -23.9926 -23.5639 -23.2169 -20.8814 -13.2455  -3.3030  -3.0919
    -2.7630  -1.7395  -1.1870  -0.1733   3.4140   5.4847   6.2249   6.5254
     7.2445   7.5771   9.1681  10.2399  12.3250  13.2038  13.6258  15.4361
    16.1466  16.8225

          k = 0.2500 0.0000 0.0000 (  5418 PWs)   bands (ev):

   -45.4731 -23.9978 -23.5341 -23.2210 -20.8830 -13.2649  -3.2900  -3.0919
    -2.7713  -1.6944  -1.1155  -0.2049   3.4594   5.3665   6.2614   6.5260
     7.1512   7.5302   9.0974  10.1831  12.5222  13.0337  13.5956  15.2391
    16.1532  16.7553

          k = 0.3125 0.1832 0.0000 (  5396 PWs)   bands (ev):

   -45.4460 -24.0008 -23.7145 -23.2526 -20.8702 -13.0507  -3.4377  -3.0215
    -2.7843  -2.2995  -1.3845  -0.2862   3.2111   5.9749   6.4862   7.0626
     7.5873   8.3240   9.8171  10.8207  11.9992  12.9918  14.6042  15.5312
    16.3464  16.4893

          k = 0.3125 0.2564 0.0000 (  5404 PWs)   bands (ev):

   -45.4364 -24.0384 -23.7149 -23.2863 -20.8695 -12.9714  -3.4794  -3.0025
    -2.8441  -2.4644  -1.3975  -0.4212   3.2180   6.1078   6.5299   7.3198
     7.7435   8.7542  10.0637  11.0898  12.0949  12.9384  14.7085  14.9329
    15.8554  16.5015

          k = 0.3125 0.3297 0.0000 (  5411 PWs)   bands (ev):

   -45.4260 -24.0701 -23.6938 -23.3576 -20.8658 -12.8823  -3.4797  -3.0452
    -2.9279  -2.5097  -1.4151  -0.7178   3.3623   6.2114   6.5782   7.3346
     7.9383   9.5133  10.4458  11.5095  12.3255  12.9484  14.2400  14.6419
    15.2128  16.3860

          k = 0.3125 0.4030 0.0000 (  5412 PWs)   bands (ev):

   -45.4163 -24.0804 -23.6658 -23.4541 -20.8606 -12.7970  -3.4621  -3.1660
    -2.9159  -2.4813  -1.4573  -1.0903   3.6153   6.2417   6.7047   7.3104
     7.9357  10.4194  10.9302  11.9613  12.5782  13.0284  13.8258  14.4887
    14.8336  16.1097

          k = 0.3125 0.4762 0.0000 (  5424 PWs)   bands (ev):

   -45.4090 -24.0680 -23.6413 -23.5527 -20.8559 -12.7298  -3.4971  -3.1754
    -2.8878  -2.4160  -1.6217  -1.3479   3.9024   6.3157   6.7049   7.3896
     7.7635  10.9580  11.6039  12.1088  13.0067  13.3019  13.6908  14.4145
    14.7538  15.4731

          k = 0.3125 0.5495 0.0000 (  5435 PWs)   bands (ev):

   -45.4050 -24.0485 -23.6280 -23.6193 -20.8532 -12.6926  -3.5488  -3.1216
    -2.8620  -2.3317  -1.8795  -1.4052   4.1033   6.4546   6.6531   7.2592
     7.7455  10.9899  12.1076  12.5097  13.2969  13.4570  13.6192  14.1135
    14.9669  15.6901

          k = 0.3125-0.1099 0.0000 (  5415 PWs)   bands (ev):

   -45.4533 -23.9766 -23.6854 -23.2543 -20.8685 -13.1096  -3.3631  -3.0489
    -2.7933  -2.0774  -1.3640  -0.3166   3.3119   5.7704   6.3410   6.9634
     7.4475   8.1163   9.6712  10.7001  12.1512  13.0943  14.1054  15.7630
    16.2510  16.5769

          k = 0.3125-0.0366 0.0000 (  5418 PWs)   bands (ev):

   -45.4573 -23.9685 -23.6509 -23.2704 -20.8666 -13.1408  -3.2890  -3.0812
    -2.8184  -1.9159  -1.3378  -0.4084   3.4236   5.5079   6.3790   6.9339
     7.3304   8.0331   9.6019  10.6531  12.5780  13.1456  13.4598  15.5295
    16.1375  17.0746

          k = 0.3750 0.2198 0.0000 (  5415 PWs)   bands (ev):

   -45.4313 -24.0863 -23.7078 -23.2792 -20.8737 -12.9271  -3.5504  -3.0080
    -2.8078  -2.6396  -1.3960  -0.3771   3.1279   6.2249   6.7854   7.4035
     7.9026   8.9452  10.1131  11.1520  12.0820  12.9135  14.2520  15.1204
    15.9221  16.0238

          k = 0.3750 0.2931 0.0000 (  5419 PWs)   bands (ev):

   -45.4243 -24.1229 -23.6899 -23.3116 -20.8747 -12.8663  -3.5756  -3.0531
    -2.8798  -2.6646  -1.4002  -0.5100   3.1720   6.3786   6.7764   7.4765
     8.0505   9.4892  10.3421  11.3868  12.1902  12.9344  13.7574  14.8843
    15.3183  16.0151

          k = 0.3750 0.3663 0.0000 (  5409 PWs)   bands (ev):

   -45.4172 -24.1309 -23.6677 -23.3848 -20.8697 -12.8036  -3.5393  -3.1704
    -2.9122  -2.5974  -1.4181  -0.8189   3.3671   6.5835   6.6761   7.4463
     7.9765  10.3305  10.7534  11.7453  12.3227  12.9350  13.4571  14.5048
    15.0198  15.9198

          k = 0.3750 0.4396 0.0000 (  5413 PWs)   bands (ev):

   -45.4113 -24.1085 -23.6473 -23.4831 -20.8616 -12.7490  -3.4925  -3.2379
    -2.9015  -2.5046  -1.4718  -1.1946   3.6648   6.5875   6.6902   7.4627
     7.7432  10.8250  11.5591  12.1031  12.4006  12.9040  13.5213  14.3998
    15.0205  15.7091

          k = 0.3750 0.5129 0.0000 (  5429 PWs)   bands (ev):

   -45.4073 -24.0690 -23.6331 -23.5764 -20.8544 -12.7118  -3.5202  -3.1672
    -2.8776  -2.3964  -1.6946  -1.3861   3.9671   6.5097   6.6606   7.3636
     7.6955  10.9501  12.1443  12.4274  12.5233  13.2598  13.7996  14.3281
    14.9455  15.6722

          k = 0.3750 0.5861 0.0000 (  5448 PWs)   bands (ev):

   -45.4059 -24.0468 -23.6275 -23.6186 -20.8517 -12.6986  -3.5430  -3.1143
    -2.8602  -2.3174  -1.8790  -1.4128   4.1066   6.4508   6.6495   7.2432
     7.7622  10.9608  12.1287  12.3854  13.3857  13.4044  13.7831  14.0245
    14.9329  15.6407

          k = 0.3750-0.1465 0.0000 (  5416 PWs)   bands (ev):

   -45.4373 -24.0348 -23.7142 -23.2880 -20.8676 -12.9770  -3.4736  -3.0000
    -2.8351  -2.4513  -1.3976  -0.4373   3.2276   6.1181   6.5417   7.3056
     7.7169   8.7545  10.0457  11.0848  12.0996  12.9407  14.7425  14.9680
    15.7941  16.5240

          k = 0.3750-0.0733 0.0000 (  5403 PWs)   bands (ev):

   -45.4413 -23.9913 -23.7059 -23.3194 -20.8605 -13.0096  -3.3811  -3.0051
    -2.8822  -2.2473  -1.4021  -0.5959   3.3924   5.8091   6.4952   7.1878
     7.6429   8.6868  10.0547  11.1127  12.3677  12.9969  14.1819  15.1263
    15.9010  16.4789

          k = 0.3750 0.0000 0.0000 (  5404 PWs)   bands (ev):

   -45.4427 -23.9750 -23.6975 -23.3377 -20.8575 -13.0209  -3.3342  -3.0148
    -2.9030  -2.1510  -1.4064  -0.6832   3.4801   5.6213   6.5730   7.0780
     7.6419   8.6679  10.0665  11.1251  12.7140  12.9831  13.7042  15.0592
    16.2637  16.4193

          k = 0.4375 0.2564 0.0000 (  5415 PWs)   bands (ev):

   -45.4215 -24.1614 -23.6808 -23.2968 -20.8804 -12.8410  -3.6383  -3.0739
    -2.8272  -2.7871  -1.3939  -0.4347   3.0888   6.4104   6.9846   7.5376
     8.2749   9.5820  10.3572  11.4156  12.1493  12.8253  13.4794  14.8097
    15.2823  15.5294

          k = 0.4375 0.3297 0.0000 (  5431 PWs)   bands (ev):

   -45.4178 -24.1733 -23.6687 -23.3257 -20.8794 -12.8084  -3.6337  -3.1383
    -2.8891  -2.7195  -1.3986  -0.5596   3.1589   6.5157   6.9669   7.5292
     8.2260  10.1124  10.5612  11.6118  12.0869  12.6840  13.4790  14.4785
    15.0764  15.4765

          k = 0.4375 0.4030 0.0000 (  5415 PWs)   bands (ev):

   -45.4144 -24.1515 -23.6570 -23.3954 -20.8710 -12.7773  -3.5584  -3.2198
    -2.9081  -2.6131  -1.4188  -0.8603   3.3766   6.6153   6.8897   7.4726
     7.9267  10.5872  11.0823  11.9135  12.0479  12.7094  13.4995  14.2992
    15.1648  15.3944

          k = 0.4375 0.4762 0.0000 (  5413 PWs)   bands (ev):

   -45.4119 -24.1053 -23.6477 -23.4843 -20.8603 -12.7530  -3.4891  -3.2274
    -2.9010  -2.4958  -1.4717  -1.2063   3.6724   6.6219   6.6667   7.4824
     7.7038  10.8020  11.4655  12.0968  12.4742  12.9233  13.5200  14.4112
    15.0138  15.7464

          k = 0.4375 0.5495 0.0000 (  5428 PWs)   bands (ev):

   -45.4105 -24.0621 -23.6421 -23.5531 -20.8531 -12.7397  -3.4887  -3.1557
    -2.8857  -2.3908  -1.6264  -1.3654   3.9148   6.3250   6.6914   7.3991
     7.7395  10.9134  11.4784  12.1428  12.9598  13.4080  13.7538  14.3871
    14.7318  15.4837

          k = 0.4375-0.1832 0.0000 (  5416 PWs)   bands (ev):

   -45.4249 -24.1195 -23.6902 -23.3132 -20.8734 -12.8702  -3.5704  -3.0458
    -2.8767  -2.6586  -1.4005  -0.5225   3.1807   6.3772   6.8144   7.4665
     8.0139   9.4749  10.3113  11.3851  12.1997  12.9313  13.7783  14.9248
    15.2755  16.0376

          k = 0.4375-0.1099 0.0000 (  5406 PWs)   bands (ev):

   -45.4275 -24.0631 -23.6939 -23.3602 -20.8627 -12.8919  -3.4698  -3.0285
    -2.9226  -2.4889  -1.4159  -0.7437   3.3788   6.2281   6.5848   7.3539
     7.8719   9.4898  10.3959  11.5008  12.3438  12.9471  14.2747  14.6895
    15.2074  16.3923

          k = 0.4375-0.0366 0.0000 (  5418 PWs)   bands (ev):

   -45.4289 -24.0205 -23.6921 -23.4042 -20.8551 -12.9035  -3.3965  -3.0176
    -2.9487  -2.3485  -1.4382  -0.9347   3.5600   5.8767   6.6935   7.1745
     7.8761   9.4892  10.4936  11.5995  12.6751  12.9192  14.2126  14.5172
    15.3697  16.2332

          k =-0.5000-0.2931 0.0000 (  5428 PWs)   bands (ev):

   -45.4180 -24.1892 -23.6690 -23.3030 -20.8835 -12.8101  -3.6735  -3.1182
    -2.8370  -2.8124  -1.3921  -0.4543   3.0786   6.4870   7.0356   7.5725
     8.4362   9.9396  10.4726  11.6248  11.9448  12.5848  13.5304  14.4468
    15.0719  15.3536

          k =-0.5000-0.2198 0.0000 (  5413 PWs)   bands (ev):

   -45.4180 -24.1720 -23.6689 -23.3263 -20.8789 -12.8098  -3.6315  -3.1349
    -2.8886  -2.7178  -1.3986  -0.5642   3.1624   6.5097   6.9951   7.5211
     8.2120  10.0919  10.5472  11.6061  12.1073  12.6866  13.4761  14.4871
    15.0957  15.4629

          k =-0.5000-0.1465 0.0000 (  5401 PWs)   bands (ev):

   -45.4180 -24.1262 -23.6682 -23.3868 -20.8680 -12.8090  -3.5328  -3.1573
    -2.9112  -2.5880  -1.4183  -0.8351   3.3784   6.5676   6.7244   7.4589
     7.9213  10.3012  10.6836  11.7397  12.3626  12.9372  13.4781  14.5180
    15.0360  15.9318

          k =-0.5000-0.0733 0.0000 (  5418 PWs)   bands (ev):

   -45.4181 -24.0724 -23.6665 -23.4563 -20.8572 -12.8082  -3.4530  -3.1404
    -2.9136  -2.4561  -1.4578  -1.1182   3.6328   6.2589   6.6909   7.3547
     7.8644  10.3801  10.8288  11.9596  12.5954  13.0507  13.8773  14.4997
    14.8653  16.1084

          k =-0.5000-0.0000 0.0000 (  5416 PWs)   bands (ev):

   -45.4181 -24.0465 -23.6650 -23.4894 -20.8529 -12.8079  -3.4314  -3.1169
    -2.9112  -2.3863  -1.5004  -1.2303   3.7594   6.0463   6.7509   7.2735
     7.8849  10.3894  10.9025  12.0161  12.7299  13.1515  14.1484  14.4692
    14.7453  15.6747

     highest occupied, lowest unoccupied level (ev):     4.1066    5.3552

!    total energy              =    -446.24440883 Ry
     total all-electron energy =     -8320.714688 Ry
     estimated scf accuracy    <          2.3E-11 Ry

     The total energy is the sum of the following terms:
     one-electron contribution =    -305.98839677 Ry
     hartree contribution      =     161.26221709 Ry
     xc contribution           =     -38.53525632 Ry
     ewald contribution        =       3.64307097 Ry
     one-center paw contrib.   =    -266.62604380 Ry

     convergence has been achieved in   7 iterations

     negative rho (up, down):  8.386E-05 0.000E+00

     Forces acting on atoms (cartesian axes, Ry/au):

     atom    1 type  1   force =     0.00000000    0.00365729   -0.00000596
     atom    2 type  2   force =     0.00000000   -0.00174626    0.00234573
     atom    3 type  3   force =     0.00000000   -0.00191103   -0.00233977
     The non-local contrib.  to forces
     atom    1 type  1   force =     0.00000000   -0.00026040   -0.02122716
     atom    2 type  2   force =     0.00000000   -0.01409706   -1.10816779
     atom    3 type  3   force =     0.00000000   -0.00198221    0.22234063
     The ionic contribution  to forces
     atom    1 type  1   force =    -0.00000001   -0.09138287   -0.40854596
     atom    2 type  2   force =     0.00000001    0.05768859   27.16363749
     atom    3 type  3   force =     0.00000000    0.03369428  -26.75509153
     The local contribution  to forces
     atom    1 type  1   force =    -0.00000000    0.09512556    0.42604854
     atom    2 type  2   force =     0.00000027   -0.04543908  -26.05674157
     atom    3 type  3   force =     0.00000003   -0.03360187   26.53747351
     The core correction contribution to forces
     atom    1 type  1   force =     0.00000000    0.00011782    0.00367145
     atom    2 type  2   force =     0.00000000    0.00004181    0.00356320
     atom    3 type  3   force =    -0.00000000   -0.00007884   -0.00711756
     The Hubbard contrib.    to forces
     atom    1 type  1   force =     0.00000000    0.00000000    0.00000000
     atom    2 type  2   force =     0.00000000    0.00000000    0.00000000
     atom    3 type  3   force =     0.00000000    0.00000000    0.00000000
     The SCF correction term to forces
     atom    1 type  1   force =    -0.00000000   -0.00000203   -0.00000697
     atom    2 type  2   force =    -0.00000000    0.00000028    0.00000027
     atom    3 type  3   force =     0.00000000   -0.00000161    0.00000104

     Total force =     0.005573     Total SCF correction =     0.000008
     Energy error            =      9.4E-05 Ry
     Gradient error          =      3.7E-03 Ry/Bohr

     number of scf cycles    =   3
     number of bfgs steps    =   2

     energy             old  =    -446.2443151927 Ry
     energy             new  =    -446.2444088317 Ry

     CASE: energy            _new < energy            _old

     new trust radius        =       0.0133931557 bohr
     new conv_thr            =       0.0000000009 Ry


ATOMIC_POSITIONS (angstrom)
Zr           -0.0000000000        0.0161006283        9.5699575029
F            -0.0000000020        1.8742814286       10.9128355887
Cl           -0.0000000020        1.8726386518        7.8033818169



     Writing config-only to output data dir ./tmp/ZrFCl.save/
     NEW-OLD atomic charge density approx. for the potential

     Check: negative core charge=   -0.000005

     negative rho (up, down):  8.188E-05 0.000E+00

     total cpu time spent up to now is       37.6 secs

     Self-consistent Calculation

     iteration #  1     ecut=    65.00 Ry     beta= 0.70
     Davidson diagonalization with overlap
     ethr =  1.00E-06,  avg # of iterations =  4.1

     Threshold (ethr) on eigenvalues was too large:
     Diagonalizing with lowered threshold

     Davidson diagonalization with overlap
     ethr =  7.69E-08,  avg # of iterations =  1.2

     negative rho (up, down):  8.122E-05 0.000E+00

     total cpu time spent up to now is       40.9 secs

     total energy              =    -446.24446563 Ry
     estimated scf accuracy    <       0.00001988 Ry

     iteration #  2     ecut=    65.00 Ry     beta= 0.70
     Davidson diagonalization with overlap
     ethr =  7.65E-08,  avg # of iterations =  2.0

     negative rho (up, down):  8.178E-05 0.000E+00

     total cpu time spent up to now is       42.2 secs

     total energy              =    -446.24446588 Ry
     estimated scf accuracy    <       0.00002327 Ry

     iteration #  3     ecut=    65.00 Ry     beta= 0.70
     Davidson diagonalization with overlap
     ethr =  7.65E-08,  avg # of iterations =  1.5

     negative rho (up, down):  8.193E-05 0.000E+00

     total cpu time spent up to now is       43.4 secs

     total energy              =    -446.24447189 Ry
     estimated scf accuracy    <       0.00000342 Ry

     iteration #  4     ecut=    65.00 Ry     beta= 0.70
     Davidson diagonalization with overlap
     ethr =  1.32E-08,  avg # of iterations =  1.2

     negative rho (up, down):  8.194E-05 0.000E+00

     total cpu time spent up to now is       44.5 secs

     total energy              =    -446.24447253 Ry
     estimated scf accuracy    <       0.00000028 Ry

     iteration #  5     ecut=    65.00 Ry     beta= 0.70
     Davidson diagonalization with overlap
     ethr =  1.06E-09,  avg # of iterations =  2.0

     negative rho (up, down):  8.194E-05 0.000E+00

     total cpu time spent up to now is       45.8 secs

     total energy              =    -446.24447260 Ry
     estimated scf accuracy    <       0.00000006 Ry

     iteration #  6     ecut=    65.00 Ry     beta= 0.70
     Davidson diagonalization with overlap
     ethr =  2.49E-10,  avg # of iterations =  2.0

     negative rho (up, down):  8.195E-05 0.000E+00

     total cpu time spent up to now is       47.1 secs

     total energy              =    -446.24447262 Ry
     estimated scf accuracy    <          4.1E-09 Ry

     iteration #  7     ecut=    65.00 Ry     beta= 0.70
     Davidson diagonalization with overlap
     ethr =  1.56E-11,  avg # of iterations =  2.0

     negative rho (up, down):  8.195E-05 0.000E+00

     total cpu time spent up to now is       48.4 secs

     End of self-consistent calculation

          k = 0.0000 0.0000 0.0000 (  5391 PWs)   bands (ev):

   -45.5240 -24.1192 -23.1717 -23.1465 -20.9605 -13.5229  -3.6132  -2.7501
    -2.7108  -1.6646   0.1144   0.2062   3.4697   5.4464   5.6532   5.9507
     6.7883   6.8605   7.8644   8.7968  11.1288  13.8156  14.5787  14.8159
    15.5594  17.2608

          k = 0.0000 0.0733 0.0000 (  5395 PWs)   bands (ev):

   -45.5204 -24.1071 -23.1905 -23.1788 -20.9492 -13.4978  -3.5734  -2.7582
    -2.7510  -1.6501   0.0382   0.0821   3.4870   5.5091   5.5922   6.0410
     6.8143   6.8374   7.9978   8.9967  11.2637  13.9001  14.4977  14.6851
    15.3856  17.2307

          k = 0.0000 0.1465 0.0000 (  5413 PWs)   bands (ev):

   -45.5102 -24.0729 -23.3099 -23.1989 -20.9220 -13.4249  -3.4679  -2.8767
    -2.7555  -1.6270  -0.3918  -0.0067   3.5110   5.4889   5.7019   6.1524
     6.8994   6.9680   8.3596   9.4448  11.6548  13.7923  14.1036  15.0025
    15.0922  17.1403

          k = 0.0000 0.2198 0.0000 (  5385 PWs)   bands (ev):

   -45.4948 -24.0247 -23.4731 -23.2288 -20.8934 -13.3124  -3.3435  -3.0113
    -2.7670  -1.6472  -0.9192  -0.1313   3.4815   5.4952   6.0301   6.1722
     7.1428   7.2714   8.8666   9.9490  12.1337  13.3358  13.8560  15.3172
    15.5194  16.9885

          k = 0.0000 0.2931 0.0000 (  5383 PWs)   bands (ev):

   -45.4766 -23.9830 -23.6345 -23.2638 -20.8747 -13.1738  -3.3175  -3.0578
    -2.7875  -1.8559  -1.2858  -0.2671   3.3814   5.6771   6.2553   6.4813
     7.3281   7.7769   9.4045  10.4267  12.1377  13.2455  13.9392  15.8705
    16.1606  16.8132

          k = 0.0000 0.3663 0.0000 (  5420 PWs)   bands (ev):

   -45.4583 -24.0009 -23.7220 -23.2985 -20.8696 -13.0279  -3.4198  -3.0095
    -2.8149  -2.2774  -1.3725  -0.3921   3.2650   5.9449   6.4755   6.9898
     7.5296   8.3487   9.8447  10.8254  12.0157  13.0358  14.7234  15.6722
    16.2316  16.5729

          k = 0.0000 0.4396 0.0000 (  5404 PWs)   bands (ev):

   -45.4428 -24.0885 -23.7137 -23.3277 -20.8745 -12.8978  -3.5318  -3.0075
    -2.8430  -2.6279  -1.3787  -0.4906   3.1828   6.1841   6.7704   7.3479
     7.8679   8.9709  10.1381  11.1523  12.1230  12.9805  14.3928  15.2381
    15.8009  16.1480

          k = 0.0000 0.5129 0.0000 (  5408 PWs)   bands (ev):

   -45.4323 -24.1656 -23.6851 -23.3471 -20.8820 -12.8072  -3.6178  -3.0861
    -2.8640  -2.7817  -1.3722  -0.5531   3.1436   6.3640   6.9619   7.4751
     8.2851   9.6033  10.3889  11.4238  12.2275  12.9399  13.5546  14.9102
    15.3670  15.4128

          k = 0.0000-0.5861 0.0000 (  5402 PWs)   bands (ev):

   -45.4287 -24.1940 -23.6728 -23.3539 -20.8854 -12.7746  -3.6520  -3.1352
    -2.8718  -2.8119  -1.3689  -0.5744   3.1334   6.4389   7.0083   7.5067
     8.4672   9.9625  10.4886  11.6533  12.0705  12.6734  13.5974  14.5278
    15.1797  15.2050

          k = 0.0625 0.0366 0.0000 (  5403 PWs)   bands (ev):

   -45.5206 -24.1076 -23.2102 -23.1573 -20.9493 -13.4988  -3.5741  -2.7894
    -2.7175  -1.6515  -0.0329   0.1602   3.4821   5.4241   5.6901   6.0353
     6.7655   6.8978   7.9906   8.9881  11.2584  13.8975  14.3482  14.8724
    15.3611  17.2840

          k = 0.0625 0.1099 0.0000 (  5403 PWs)   bands (ev):

   -45.5137 -24.0844 -23.2787 -23.1839 -20.9301 -13.4499  -3.5009  -2.8514
    -2.7415  -1.6328  -0.2834   0.0520   3.5024   5.4422   5.7180   6.1379
     6.8034   6.9696   8.2390   9.3085  11.5249  13.9154  14.1007  14.8830
    15.2024  17.1787

          k = 0.0625 0.1832 0.0000 (  5388 PWs)   bands (ev):

   -45.5009 -24.0428 -23.4127 -23.2163 -20.9026 -13.3571  -3.3812  -2.9696
    -2.7615  -1.6284  -0.7321  -0.0869   3.5040   5.4106   5.9608   6.1917
     6.9903   7.1836   8.6752   9.7727  12.0117  13.4295  13.9487  14.9834
    15.5193  16.9893

          k = 0.0625 0.2564 0.0000 (  5389 PWs)   bands (ev):

   -45.4841 -23.9958 -23.5707 -23.2545 -20.8796 -13.2312  -3.2891  -3.0665
    -2.7871  -1.7226  -1.1752  -0.2424   3.4484   5.4961   6.1919   6.4164
     7.2005   7.5927   9.2032  10.2599  12.3309  13.2328  13.6552  15.4546
    16.0777  16.7906

          k = 0.0625 0.3297 0.0000 (  5397 PWs)   bands (ev):

   -45.4659 -23.9782 -23.6951 -23.2946 -20.8683 -13.0883  -3.3481  -3.0342
    -2.8218  -2.0628  -1.3575  -0.3949   3.3533   5.7495   6.3101   6.8994
     7.4020   8.1340   9.7040  10.7124  12.1465  13.1235  14.1671  15.8166
    16.2711  16.6326

          k = 0.0625 0.4030 0.0000 (  5408 PWs)   bands (ev):

   -45.4489 -24.0386 -23.7220 -23.3313 -20.8687 -12.9493  -3.4597  -2.9965
    -2.8640  -2.4479  -1.3849  -0.5260   3.2703   6.0779   6.5118   7.2652
     7.6898   8.7781  10.0769  11.0860  12.1167  12.9857  14.8585  15.0472
    15.8102  16.5610

          k = 0.0625 0.4762 0.0000 (  5406 PWs)   bands (ev):

   -45.4359 -24.1252 -23.6955 -23.3592 -20.8753 -12.8378  -3.5548  -3.0616
    -2.8920  -2.6681  -1.3822  -0.6212   3.2248   6.3332   6.7771   7.4176
     8.0229   9.5097  10.3531  11.3799  12.2429  13.0134  13.8794  14.9637
    15.3280  16.0529

          k = 0.0625 0.5495 0.0000 (  5410 PWs)   bands (ev):

   -45.4289 -24.1776 -23.6732 -23.3743 -20.8810 -12.7755  -3.6126  -3.1558
    -2.8999  -2.7347  -1.3774  -0.6710   3.2093   6.4640   6.9606   7.4658
     8.2360  10.1346  10.5692  11.6224  12.1995  12.7816  13.5323  14.5457
    15.1396  15.4296

          k = 0.1250 0.0733 0.0000 (  5398 PWs)   bands (ev):

   -45.5110 -24.0747 -23.3248 -23.1770 -20.9222 -13.4292  -3.4702  -2.9007
    -2.7236  -1.6320  -0.4469   0.0732   3.4907   5.3806   5.8516   6.1385
     6.8729   7.0222   8.3375   9.4261  11.6347  13.7450  14.0509  15.0514
    15.1713  17.2437

          k = 0.1250 0.1465 0.0000 (  5400 PWs)   bands (ev):

   -45.5015 -24.0443 -23.4197 -23.2041 -20.9027 -13.3603  -3.3825  -2.9806
    -2.7452  -1.6325  -0.7596  -0.0398   3.4861   5.3883   6.0131   6.1834
     6.9909   7.1968   8.6616   9.7634  11.9977  13.4065  13.9284  14.9842
    15.5693  17.0343

          k = 0.1250 0.2198 0.0000 (  5391 PWs)   bands (ev):

   -45.4873 -24.0028 -23.5465 -23.2473 -20.8814 -13.2539  -3.2775  -3.0726
    -2.7838  -1.6876  -1.1229  -0.2250   3.4702   5.3851   6.2175   6.4367
     7.1201   7.5454   9.1236  10.2000  12.5433  13.0047  13.6044  15.2484
    16.1240  16.7627

          k = 0.1250 0.2931 0.0000 (  5394 PWs)   bands (ev):

   -45.4705 -23.9725 -23.6653 -23.2994 -20.8668 -13.1229  -3.2769  -3.0687
    -2.8374  -1.9166  -1.3436  -0.4364   3.4406   5.5010   6.3261   6.8875
     7.3043   8.0439   9.6296  10.6697  12.5433  13.1518  13.4804  15.5607
    16.1788  17.1598

          k = 0.1250 0.3663 0.0000 (  5406 PWs)   bands (ev):

   -45.4535 -23.9979 -23.7175 -23.3519 -20.8620 -12.9855  -3.3722  -2.9989
    -2.9047  -2.2583  -1.3981  -0.6366   3.4117   5.7842   6.4467   7.1523
     7.6398   8.7063  10.0843  11.1227  12.3419  13.0087  14.2194  15.1719
    15.9922  16.5300

          k = 0.1250 0.4396 0.0000 (  5423 PWs)   bands (ev):

   -45.4392 -24.0720 -23.7016 -23.3965 -20.8650 -12.8632  -3.4610  -3.0523
    -2.9220  -2.5056  -1.4054  -0.7997   3.4006   6.1934   6.5467   7.2999
     7.8962   9.5322  10.4413  11.4925  12.3389  12.9874  14.3523  14.7403
    15.2496  16.4412

          k = 0.1250 0.5129 0.0000 (  5412 PWs)   bands (ev):

   -45.4295 -24.1345 -23.6741 -23.4265 -20.8703 -12.7782  -3.5208  -3.1822
    -2.9108  -2.6078  -1.4040  -0.9059   3.4053   6.5292   6.6929   7.4009
     7.9486  10.3659  10.7375  11.7153  12.3826  13.0222  13.5334  14.5445
    15.0912  15.9672

          k = 0.1250 0.5861 0.0000 (  5398 PWs)   bands (ev):

   -45.4261 -24.1576 -23.6626 -23.4372 -20.8728 -12.7477  -3.5421  -3.2392
    -2.9090  -2.6310  -1.4031  -0.9426   3.4098   6.5684   6.8884   7.4170
     7.9298  10.6451  11.0664  11.8968  12.1668  12.7650  13.5391  14.3649
    15.2275  15.3946

          k = 0.1250 0.0000 0.0000 (  5396 PWs)   bands (ev):

   -45.5143 -24.0857 -23.2890 -23.1686 -20.9302 -13.4530  -3.5027  -2.8695
    -2.7174  -1.6363  -0.3176   0.1023   3.4911   5.3523   5.8378   6.1245
     6.8156   6.9831   8.2207   9.2928  11.5108  13.8805  14.0504  14.9682
    15.2356  17.2499

          k = 0.1875 0.1099 0.0000 (  5410 PWs)   bands (ev):

   -45.4966 -24.0286 -23.4834 -23.2044 -20.8933 -13.3215  -3.3466  -3.0300
    -2.7337  -1.6590  -0.9577  -0.0423   3.4405   5.4405   6.1330   6.1807
     7.1816   7.2592   8.8307   9.9283  12.1048  13.2918  13.8124  15.2725
    15.6645  17.0925

          k = 0.1875 0.1832 0.0000 (  5412 PWs)   bands (ev):

   -45.4857 -23.9996 -23.5784 -23.2342 -20.8794 -13.2393  -3.2912  -3.0791
    -2.7619  -1.7387  -1.1997  -0.1656   3.4082   5.4905   6.2006   6.4586
     7.2266   7.5848   9.1768  10.2484  12.3214  13.1844  13.6211  15.4268
    16.1608  16.8446

          k = 0.1875 0.2564 0.0000 (  5406 PWs)   bands (ev):

   -45.4714 -23.9750 -23.6686 -23.2885 -20.8665 -13.1279  -3.2793  -3.0721
    -2.8253  -1.9295  -1.3505  -0.3953   3.4171   5.5066   6.3290   6.8987
     7.3209   8.0375   9.6171  10.6670  12.5541  13.1338  13.4367  15.5470
    16.1913  17.0719

          k = 0.1875 0.3297 0.0000 (  5407 PWs)   bands (ev):

   -45.4559 -23.9848 -23.7133 -23.3575 -20.8588 -13.0019  -3.3293  -3.0066
    -2.9181  -2.1793  -1.4101  -0.6733   3.4722   5.6086   6.5139   7.0581
     7.6540   8.6825  10.0883  11.1421  12.6589  12.9757  13.7056  15.0854
    16.3388  16.4482

          k = 0.1875 0.4030 0.0000 (  5422 PWs)   bands (ev):

   -45.4415 -24.0336 -23.7032 -23.4273 -20.8572 -12.8800  -3.3929  -3.0417
    -2.9406  -2.3791  -1.4366  -0.9370   3.5538   5.8573   6.6526   7.1264
     7.9102   9.5317  10.5365  11.6092  12.6271  12.9139  14.2456  14.5366
    15.4151  16.2583

          k = 0.1875 0.4762 0.0000 (  5410 PWs)   bands (ev):

   -45.4305 -24.0848 -23.6750 -23.4838 -20.8595 -12.7828  -3.4486  -3.1646
    -2.9076  -2.4818  -1.4571  -1.1356   3.6325   6.2403   6.6633   7.2885
     7.8989  10.4458  10.9138  11.9310  12.5620  13.0565  13.9464  14.5173
    14.9126  16.0712

          k = 0.1875 0.5495 0.0000 (  5413 PWs)   bands (ev):

   -45.4245 -24.1144 -23.6553 -23.5158 -20.8619 -12.7286  -3.4837  -3.2412
    -2.8971  -2.5142  -1.4765  -1.2359   3.6807   6.6061   6.6510   7.4239
     7.7096  10.8687  11.5528  12.0410  12.4690  12.9516  13.5720  14.4640
    15.0471  15.7718

          k = 0.1875-0.0366 0.0000 (  5411 PWs)   bands (ev):

   -45.5024 -24.0461 -23.4200 -23.1971 -20.9023 -13.3650  -3.3845  -2.9861
    -2.7317  -1.6365  -0.7581  -0.0244   3.4777   5.3341   6.0901   6.1854
     7.0451   7.1578   8.6395   9.7506  11.9816  13.4001  13.9120  15.0040
    15.6098  17.0462

          k = 0.2500 0.1465 0.0000 (  5412 PWs)   bands (ev):

   -45.4794 -23.9893 -23.6406 -23.2362 -20.8736 -13.1890  -3.3216  -3.0696
    -2.7510  -1.8788  -1.3048  -0.1674   3.3270   5.6621   6.2421   6.5762
     7.3724   7.7527   9.3611  10.4099  12.1263  13.1972  13.8649  15.8086
    16.2807  16.8597

          k = 0.2500 0.2198 0.0000 (  5409 PWs)   bands (ev):

   -45.4685 -23.9844 -23.7010 -23.2684 -20.8672 -13.1026  -3.3534  -3.0406
    -2.7906  -2.0883  -1.3719  -0.2983   3.2992   5.7542   6.3128   6.9419
     7.4401   8.1134   9.6713  10.7061  12.1390  13.0840  14.0724  15.7566
    16.2820  16.5793

          k = 0.2500 0.2931 0.0000 (  5404 PWs)   bands (ev):

   -45.4556 -24.0026 -23.7218 -23.3324 -20.8609 -12.9967  -3.3768  -2.9970
    -2.8885  -2.2753  -1.4069  -0.5669   3.3719   5.7898   6.4534   7.1677
     7.6626   8.6941  10.0666  11.1269  12.3439  12.9882  14.1245  15.1368
    15.8934  16.5249

          k = 0.2500 0.3663 0.0000 (  5407 PWs)   bands (ev):

   -45.4426 -24.0357 -23.7056 -23.4175 -20.8564 -12.8862  -3.3948  -3.0307
    -2.9443  -2.3846  -1.4395  -0.9046   3.5354   5.8558   6.6612   7.1293
     7.9177   9.5256  10.5307  11.6181  12.6406  12.9065  14.1893  14.4942
    15.3375  16.2968

          k = 0.2500 0.4396 0.0000 (  5412 PWs)   bands (ev):

   -45.4316 -24.0621 -23.6766 -23.5051 -20.8543 -12.7888  -3.4291  -3.1371
    -2.9047  -2.4213  -1.5013  -1.2081   3.7366   6.0285   6.7375   7.2077
     7.9233  10.4465  10.9917  12.0020  12.7730  13.0428  14.1484  14.4782
    14.7266  15.6801

          k = 0.2500 0.5129 0.0000 (  5416 PWs)   bands (ev):

   -45.4242 -24.0744 -23.6527 -23.5728 -20.8539 -12.7217  -3.4871  -3.1671
    -2.8794  -2.4156  -1.6365  -1.3532   3.8994   6.3180   6.6741   7.3664
     7.7299  10.9713  11.6062  12.0871  12.9626  13.3364  13.7843  14.3750
    14.7875  15.4563

          k = 0.2500 0.5861 0.0000 (  5424 PWs)   bands (ev):

   -45.4216 -24.0771 -23.6432 -23.5992 -20.8539 -12.6977  -3.5161  -3.1656
    -2.8714  -2.4052  -1.7177  -1.3816   3.9610   6.5328   6.6273   7.3431
     7.6480  10.9907  12.0984  12.5239  12.5712  13.1607  13.8304  14.3511
    14.9458  15.7429

          k = 0.2500-0.0733 0.0000 (  5425 PWs)   bands (ev):

   -45.4868 -24.0011 -23.5735 -23.2328 -20.8783 -13.2451  -3.2918  -3.0782
    -2.7543  -1.7359  -1.1876  -0.1718   3.4099   5.4596   6.2084   6.5019
     7.2456   7.5660   9.1571  10.2387  12.3180  13.1946  13.6242  15.4467
    16.1379  16.8249

          k = 0.2500 0.0000 0.0000 (  5418 PWs)   bands (ev):

   -45.4893 -24.0064 -23.5430 -23.2374 -20.8799 -13.2645  -3.2797  -3.0767
    -2.7635  -1.6921  -1.1135  -0.2048   3.4566   5.3412   6.2427   6.5017
     7.1563   7.5187   9.0858  10.1821  12.5197  13.0183  13.5940  15.2516
    16.1422  16.7600

          k = 0.3125 0.1832 0.0000 (  5396 PWs)   bands (ev):

   -45.4623 -24.0064 -23.7274 -23.2676 -20.8671 -13.0497  -3.4246  -3.0130
    -2.7743  -2.2957  -1.3891  -0.2828   3.2062   5.9544   6.4623   7.0470
     7.5746   8.3155   9.8024  10.8176  11.9947  12.9879  14.6009  15.5378
    16.3421  16.4879

          k = 0.3125 0.2564 0.0000 (  5404 PWs)   bands (ev):

   -45.4527 -24.0438 -23.7286 -23.3007 -20.8662 -12.9702  -3.4663  -2.9936
    -2.8321  -2.4643  -1.4012  -0.4171   3.2115   6.0886   6.5064   7.3016
     7.7234   8.7515  10.0483  11.0897  12.0890  12.9370  14.7007  14.9433
    15.8492  16.4921

          k = 0.3125 0.3297 0.0000 (  5411 PWs)   bands (ev):

   -45.4423 -24.0758 -23.7078 -23.3714 -20.8624 -12.8810  -3.4667  -3.0325
    -2.9196  -2.5102  -1.4180  -0.7142   3.3548   6.1912   6.5544   7.3196
     7.9122   9.5138  10.4276  11.5130  12.3184  12.9514  14.2426  14.6360
    15.2067  16.3731

          k = 0.3125 0.4030 0.0000 (  5412 PWs)   bands (ev):

   -45.4327 -24.0864 -23.6797 -23.4676 -20.8572 -12.7956  -3.4490  -3.1539
    -2.9078  -2.4809  -1.4594  -1.0883   3.6070   6.2219   6.6799   7.2963
     7.9092  10.4209  10.9102  11.9683  12.5726  13.0320  13.8256  14.4789
    14.8263  16.1054

          k = 0.3125 0.4762 0.0000 (  5424 PWs)   bands (ev):

   -45.4253 -24.0742 -23.6553 -23.5660 -20.8525 -12.7282  -3.4836  -3.1646
    -2.8790  -2.4144  -1.6207  -1.3507   3.8927   6.2987   6.6825   7.3706
     7.7381  10.9479  11.6019  12.1105  13.0037  13.3010  13.6890  14.4108
    14.7418  15.4768

          k = 0.3125 0.5495 0.0000 (  5435 PWs)   bands (ev):

   -45.4213 -24.0547 -23.6418 -23.6328 -20.8498 -12.6910  -3.5354  -3.1113
    -2.8524  -2.3291  -1.8782  -1.4098   4.0920   6.4447   6.6314   7.2317
     7.7228  10.9802  12.1025  12.5142  13.3038  13.4561  13.6112  14.1037
    14.9650  15.6861

          k = 0.3125-0.1099 0.0000 (  5415 PWs)   bands (ev):

   -45.4696 -23.9831 -23.6967 -23.2700 -20.8656 -13.1086  -3.3499  -3.0399
    -2.7854  -2.0711  -1.3690  -0.3148   3.3097   5.7454   6.3198   6.9500
     7.4409   8.1037   9.6551  10.6968  12.1466  13.0894  14.1034  15.7668
    16.2467  16.5803

          k = 0.3125-0.0366 0.0000 (  5418 PWs)   bands (ev):

   -45.4736 -23.9757 -23.6606 -23.2868 -20.8638 -13.1399  -3.2753  -3.0719
    -2.8118  -1.9088  -1.3420  -0.4082   3.4239   5.4811   6.3536   6.9248
     7.3274   8.0191   9.5838  10.6512  12.5715  13.1425  13.4558  15.5363
    16.1300  17.0818

          k = 0.3750 0.2198 0.0000 (  5415 PWs)   bands (ev):

   -45.4476 -24.0904 -23.7222 -23.2940 -20.8704 -12.9255  -3.5380  -3.0012
    -2.7984  -2.6377  -1.3992  -0.3740   3.1231   6.2030   6.7641   7.3872
     7.8895   8.9295  10.1014  11.1467  12.0768  12.9139  14.2509  15.1247
    15.9134  16.0226

          k = 0.3750 0.2931 0.0000 (  5419 PWs)   bands (ev):

   -45.4406 -24.1273 -23.7045 -23.3260 -20.8712 -12.8647  -3.5633  -3.0450
    -2.8710  -2.6642  -1.4024  -0.5067   3.1662   6.3545   6.7603   7.4583
     8.0272   9.4800  10.3307  11.3823  12.1848  12.9385  13.7596  14.8852
    15.3093  16.0093

          k = 0.3750 0.3663 0.0000 (  5409 PWs)   bands (ev):

   -45.4336 -24.1354 -23.6824 -23.3990 -20.8662 -12.8019  -3.5270  -3.1615
    -2.9050  -2.5963  -1.4200  -0.8163   3.3608   6.5557   6.6623   7.4311
     7.9485  10.3234  10.7412  11.7427  12.3179  12.9418  13.4597  14.4978
    15.0119  15.9160

          k = 0.3750 0.4396 0.0000 (  5413 PWs)   bands (ev):

   -45.4276 -24.1129 -23.6620 -23.4973 -20.8581 -12.7472  -3.4801  -3.2290
    -2.8940  -2.5029  -1.4737  -1.1936   3.6581   6.5730   6.6646   7.4472
     7.7138  10.8138  11.5549  12.1052  12.3947  12.9048  13.5193  14.3940
    15.0109  15.7132

          k = 0.3750 0.5129 0.0000 (  5429 PWs)   bands (ev):

   -45.4236 -24.0729 -23.6478 -23.5910 -20.8510 -12.7099  -3.5085  -3.1577
    -2.8689  -2.3941  -1.6955  -1.3885   3.9601   6.5000   6.6348   7.3415
     7.6683  10.9414  12.1399  12.4302  12.5262  13.2474  13.7926  14.3226
    14.9472  15.6725

          k = 0.3750 0.5861 0.0000 (  5448 PWs)   bands (ev):

   -45.4222 -24.0501 -23.6422 -23.6337 -20.8482 -12.6967  -3.5316  -3.1048
    -2.8504  -2.3143  -1.8810  -1.4160   4.0992   6.4435   6.6230   7.2199
     7.7345  10.9536  12.1212  12.3906  13.3896  13.4085  13.7616  14.0104
    14.9392  15.6479

          k = 0.3750-0.1465 0.0000 (  5416 PWs)   bands (ev):

   -45.4536 -24.0387 -23.7282 -23.3033 -20.8644 -12.9755  -3.4612  -2.9931
    -2.8285  -2.4455  -1.4017  -0.4353   3.2247   6.0951   6.5176   7.2955
     7.7079   8.7369  10.0301  11.0794  12.0959  12.9384  14.7300  14.9798
    15.7920  16.5229

          k = 0.3750-0.0733 0.0000 (  5403 PWs)   bands (ev):

   -45.4576 -23.9953 -23.7188 -23.3356 -20.8575 -13.0082  -3.3683  -2.9971
    -2.8769  -2.2401  -1.4067  -0.5956   3.3922   5.7839   6.4683   7.1829
     7.6353   8.6710  10.0338  11.1090  12.3643  12.9942  14.1801  15.1151
    15.9088  16.4811

          k = 0.3750 0.0000 0.0000 (  5404 PWs)   bands (ev):

   -45.4590 -23.9792 -23.7096 -23.3544 -20.8545 -13.0195  -3.3211  -3.0062
    -2.8986  -2.1432  -1.4110  -0.6839   3.4814   5.5952   6.5398   7.0799
     7.6343   8.6532  10.0432  11.1227  12.7055  12.9887  13.6983  15.0482
    16.2751  16.4174

          k = 0.4375 0.2564 0.0000 (  5415 PWs)   bands (ev):

   -45.4378 -24.1650 -23.6958 -23.3115 -20.8768 -12.8392  -3.6267  -3.0705
    -2.8170  -2.7853  -1.3958  -0.4318   3.0836   6.3835   6.9700   7.5187
     8.2637   9.5548  10.3552  11.4056  12.1457  12.8293  13.4788  14.8124
    15.2748  15.5254

          k = 0.4375 0.3297 0.0000 (  5431 PWs)   bands (ev):

   -45.4342 -24.1769 -23.6839 -23.3402 -20.8757 -12.8065  -3.6221  -3.1339
    -2.8814  -2.7163  -1.4001  -0.5568   3.1533   6.4856   6.9579   7.5094
     8.2065  10.0880  10.5597  11.6031  12.0880  12.6844  13.4821  14.4765
    15.0699  15.4725

          k = 0.4375 0.4030 0.0000 (  5415 PWs)   bands (ev):

   -45.4308 -24.1549 -23.6721 -23.4100 -20.8674 -12.7754  -3.5466  -3.2147
    -2.9007  -2.6099  -1.4206  -0.8586   3.3709   6.5857   6.8795   7.4539
     7.9048  10.5714  11.0744  11.9065  12.0529  12.7026  13.5015  14.2966
    15.1567  15.3969

          k = 0.4375 0.4762 0.0000 (  5413 PWs)   bands (ev):

   -45.4282 -24.1081 -23.6628 -23.4994 -20.8568 -12.7511  -3.4778  -3.2211
    -2.8928  -2.4925  -1.4741  -1.2062   3.6671   6.6071   6.6412   7.4652
     7.6798  10.7943  11.4589  12.0934  12.4667  12.9147  13.5154  14.4122
    15.0154  15.7449

          k = 0.4375 0.5495 0.0000 (  5428 PWs)   bands (ev):

   -45.4268 -24.0641 -23.6572 -23.5691 -20.8496 -12.7377  -3.4785  -3.1482
    -2.8761  -2.3872  -1.6285  -1.3678   3.9100   6.3110   6.6638   7.3863
     7.7116  10.9107  11.4733  12.1332  12.9558  13.3868  13.7506  14.3847
    14.7410  15.4931

          k = 0.4375-0.1832 0.0000 (  5416 PWs)   bands (ev):

   -45.4412 -24.1227 -23.7051 -23.3282 -20.8699 -12.8684  -3.5585  -3.0428
    -2.8696  -2.6523  -1.4033  -0.5204   3.1765   6.3528   6.7923   7.4516
     8.0074   9.4500  10.3060  11.3757  12.1931  12.9322  13.7767  14.9301
    15.2675  16.0381

          k = 0.4375-0.1099 0.0000 (  5406 PWs)   bands (ev):

   -45.4438 -24.0656 -23.7087 -23.3759 -20.8594 -12.8902  -3.4578  -3.0254
    -2.9145  -2.4822  -1.4195  -0.7432   3.3764   6.2055   6.5585   7.3412
     7.8652   9.4736  10.3811  11.4946  12.3366  12.9434  14.2722  14.6887
    15.2083  16.3945

          k = 0.4375-0.0366 0.0000 (  5418 PWs)   bands (ev):

   -45.4452 -24.0225 -23.7064 -23.4207 -20.8519 -12.9017  -3.3846  -3.0139
    -2.9403  -2.3413  -1.4421  -0.9358   3.5596   5.8535   6.6602   7.1700
     7.8676   9.4787  10.4713  11.5958  12.6714  12.9122  14.2156  14.5010
    15.3766  16.2397

          k =-0.5000-0.2931 0.0000 (  5428 PWs)   bands (ev):

   -45.4344 -24.1926 -23.6843 -23.3177 -20.8798 -12.8081  -3.6622  -3.1163
    -2.8256  -2.8111  -1.3935  -0.4516   3.0732   6.4571   7.0245   7.5526
     8.4260   9.9045  10.4727  11.6173  11.9478  12.5817  13.5330  14.4465
    15.0676  15.3483

          k =-0.5000-0.2198 0.0000 (  5413 PWs)   bands (ev):

   -45.4344 -24.1752 -23.6842 -23.3411 -20.8752 -12.8078  -3.6200  -3.1328
    -2.8809  -2.7127  -1.4004  -0.5619   3.1571   6.4811   6.9805   7.5029
     8.2006  10.0610  10.5483  11.5976  12.1067  12.6844  13.4755  14.4894
    15.0897  15.4614

          k =-0.5000-0.1465 0.0000 (  5401 PWs)   bands (ev):

   -45.4344 -24.1289 -23.6835 -23.4020 -20.8644 -12.8070  -3.5211  -3.1545
    -2.9031  -2.5828  -1.4209  -0.8340   3.3740   6.5417   6.7052   7.4411
     7.9100  10.2824  10.6801  11.7314  12.3517  12.9362  13.4744  14.5245
    15.0317  15.9331

          k =-0.5000-0.0733 0.0000 (  5418 PWs)   bands (ev):

   -45.4344 -24.0743 -23.6817 -23.4723 -20.8538 -12.8063  -3.4418  -3.1363
    -2.9048  -2.4507  -1.4608  -1.1190   3.6297   6.2401   6.6624   7.3401
     7.8506  10.3756  10.8140  11.9532  12.5835  13.0379  13.8786  14.5011
    14.8691  16.1116

          k =-0.5000-0.0000 0.0000 (  5416 PWs)   bands (ev):

   -45.4344 -24.0479 -23.6801 -23.5059 -20.8495 -12.8059  -3.4209  -3.1119
    -2.9018  -2.3807  -1.5032  -1.2325   3.7572   6.0269   6.7197   7.2631
     7.8693  10.3891  10.8838  12.0077  12.7316  13.1236  14.1507  14.4673
    14.7494  15.6867

     highest occupied, lowest unoccupied level (ev):     4.0992    5.3341

!    total energy              =    -446.24447262 Ry
     total all-electron energy =     -8320.714752 Ry
     estimated scf accuracy    <          5.2E-11 Ry

     The total energy is the sum of the following terms:
     one-electron contribution =    -305.10605598 Ry
     hartree contribution      =     160.81659876 Ry
     xc contribution           =     -38.53102618 Ry
     ewald contribution        =       3.20190618 Ry
     one-center paw contrib.   =    -266.62589540 Ry

     convergence has been achieved in   7 iterations

     negative rho (up, down):  8.195E-05 0.000E+00

     Forces acting on atoms (cartesian axes, Ry/au):

     atom    1 type  1   force =     0.00000000    0.00021579    0.00007618
     atom    2 type  2   force =     0.00000000   -0.00039509    0.00067013
     atom    3 type  3   force =     0.00000000    0.00017930   -0.00074632
     The non-local contrib.  to forces
     atom    1 type  1   force =     0.00000000   -0.00274343   -0.02115976
     atom    2 type  2   force =     0.00000000   -0.01872426   -1.11334989
     atom    3 type  3   force =     0.00000000   -0.00095103    0.22325002
     The ionic contribution  to forces
     atom    1 type  1   force =    -0.00000001   -0.15040318   -0.42804749
     atom    2 type  2   force =     0.00000001    0.09800166   27.13609757
     atom    3 type  3   force =     0.00000000    0.05240151  -26.70805008
     The local contribution  to forces
     atom    1 type  1   force =    -0.00000000    0.15317491    0.44561118
     atom    2 type  2   force =     0.00000027   -0.07977987  -26.02569655
     atom    3 type  3   force =     0.00000003   -0.05114884   26.49114326
     The core correction contribution to forces
     atom    1 type  1   force =     0.00000000    0.00013520    0.00364961
     atom    2 type  2   force =     0.00000000    0.00005165    0.00358694
     atom    3 type  3   force =    -0.00000000   -0.00017546   -0.00712193
     The Hubbard contrib.    to forces
     atom    1 type  1   force =     0.00000000    0.00000000    0.00000000
     atom    2 type  2   force =     0.00000000    0.00000000    0.00000000
     atom    3 type  3   force =     0.00000000    0.00000000    0.00000000
     The SCF correction term to forces
     atom    1 type  1   force =    -0.00000000   -0.00000306   -0.00000831
     atom    2 type  2   force =    -0.00000000    0.00000037    0.00000110
     atom    3 type  3   force =     0.00000000   -0.00000224    0.00000144

     Total force =     0.001117     Total SCF correction =     0.000009
     Energy error            =      6.4E-05 Ry
     Gradient error          =      7.5E-04 Ry/Bohr

     number of scf cycles    =   4
     number of bfgs steps    =   3

     energy             old  =    -446.2444088317 Ry
     energy             new  =    -446.2444726190 Ry

     CASE: energy            _new < energy            _old

     new trust radius        =       0.0021787622 bohr
     new conv_thr            =       0.0000000006 Ry


ATOMIC_POSITIONS (angstrom)
Zr           -0.0000000000        0.0171186886        9.5699910683
F            -0.0000000020        1.8736312338       10.9137877145
Cl           -0.0000000020        1.8722707862        7.8023961257



     Writing config-only to output data dir ./tmp/ZrFCl.save/
     NEW-OLD atomic charge density approx. for the potential

     Check: negative core charge=   -0.000005

     negative rho (up, down):  8.153E-05 0.000E+00

     total cpu time spent up to now is       48.8 secs

     Self-consistent Calculation

     iteration #  1     ecut=    65.00 Ry     beta= 0.70
     Davidson diagonalization with overlap
     ethr =  1.00E-06,  avg # of iterations =  2.0

     Threshold (ethr) on eigenvalues was too large:
     Diagonalizing with lowered threshold

     Davidson diagonalization with overlap
     ethr =  2.78E-09,  avg # of iterations =  4.0

     negative rho (up, down):  8.140E-05 0.000E+00

     total cpu time spent up to now is       52.0 secs

     total energy              =    -446.24447434 Ry
     estimated scf accuracy    <       0.00000081 Ry

     iteration #  2     ecut=    65.00 Ry     beta= 0.70
     Davidson diagonalization with overlap
     ethr =  3.11E-09,  avg # of iterations =  2.0

     negative rho (up, down):  8.152E-05 0.000E+00

     total cpu time spent up to now is       53.3 secs

     total energy              =    -446.24447434 Ry
     estimated scf accuracy    <       0.00000131 Ry

     iteration #  3     ecut=    65.00 Ry     beta= 0.70
     Davidson diagonalization with overlap
     ethr =  3.11E-09,  avg # of iterations =  1.8

     negative rho (up, down):  8.156E-05 0.000E+00

     total cpu time spent up to now is       54.5 secs

     total energy              =    -446.24447464 Ry
     estimated scf accuracy    <       0.00000009 Ry

     iteration #  4     ecut=    65.00 Ry     beta= 0.70
     Davidson diagonalization with overlap
     ethr =  3.58E-10,  avg # of iterations =  2.0

     negative rho (up, down):  8.157E-05 0.000E+00

     total cpu time spent up to now is       55.8 secs

     total energy              =    -446.24447466 Ry
     estimated scf accuracy    <       0.00000001 Ry

     iteration #  5     ecut=    65.00 Ry     beta= 0.70
     Davidson diagonalization with overlap
     ethr =  4.28E-11,  avg # of iterations =  2.0

     negative rho (up, down):  8.157E-05 0.000E+00

     total cpu time spent up to now is       57.0 secs

     total energy              =    -446.24447466 Ry
     estimated scf accuracy    <          2.1E-09 Ry

     iteration #  6     ecut=    65.00 Ry     beta= 0.70
     Davidson diagonalization with overlap
     ethr =  7.98E-12,  avg # of iterations =  2.0

     negative rho (up, down):  8.157E-05 0.000E+00

     total cpu time spent up to now is       58.3 secs

     End of self-consistent calculation

          k = 0.0000 0.0000 0.0000 (  5391 PWs)   bands (ev):

   -45.5275 -24.1211 -23.1748 -23.1499 -20.9595 -13.5228  -3.6111  -2.7458
    -2.7087  -1.6654   0.1178   0.2073   3.4640   5.4436   5.6470   5.9501
     6.7826   6.8619   7.8653   8.7974  11.1290  13.8185  14.5763  14.8145
    15.5506  17.2589

          k = 0.0000 0.0733 0.0000 (  5395 PWs)   bands (ev):

   -45.5239 -24.1089 -23.1938 -23.1819 -20.9482 -13.4976  -3.5712  -2.7562
    -2.7467  -1.6509   0.0393   0.0854   3.4812   5.5064   5.5862   6.0406
     6.8152   6.8316   7.9985   8.9976  11.2638  13.9028  14.4964  14.6828
    15.3770  17.2286

          k = 0.0000 0.1465 0.0000 (  5413 PWs)   bands (ev):

   -45.5137 -24.0748 -23.3132 -23.2020 -20.9211 -13.4248  -3.4655  -2.8748
    -2.7512  -1.6277  -0.3910  -0.0035   3.5052   5.4832   5.6991   6.1526
     6.8994   6.9621   8.3598   9.4462  11.6545  13.7908  14.1048  15.0006
    15.0858  17.1377

          k = 0.0000 0.2198 0.0000 (  5385 PWs)   bands (ev):

   -45.4983 -24.0265 -23.4763 -23.2319 -20.8925 -13.3122  -3.3409  -3.0096
    -2.7627  -1.6477  -0.9187  -0.1284   3.4755   5.4898   6.0273   6.1724
     7.1367   7.2711   8.8661   9.9506  12.1328  13.3343  13.8538  15.3151
    15.5182  16.9853

          k = 0.0000 0.2931 0.0000 (  5383 PWs)   bands (ev):

   -45.4802 -23.9848 -23.6377 -23.2668 -20.8739 -13.1735  -3.3148  -3.0560
    -2.7832  -1.8556  -1.2864  -0.2644   3.3754   5.6725   6.2550   6.4785
     7.3218   7.7763   9.4030  10.4282  12.1366  13.2418  13.9389  15.8696
    16.1604  16.8092

          k = 0.0000 0.3663 0.0000 (  5420 PWs)   bands (ev):

   -45.4619 -24.0028 -23.7250 -23.3016 -20.8688 -13.0275  -3.4174  -3.0073
    -2.8106  -2.2767  -1.3737  -0.3896   3.2589   5.9418   6.4741   6.9868
     7.5233   8.3473   9.8421  10.8270  12.0151  13.0318  14.7242  15.6714
    16.2293  16.5724

          k = 0.0000 0.4396 0.0000 (  5404 PWs)   bands (ev):

   -45.4463 -24.0907 -23.7165 -23.3307 -20.8737 -12.8973  -3.5297  -3.0054
    -2.8387  -2.6266  -1.3801  -0.4883   3.1766   6.1822   6.7683   7.3434
     7.8629   8.9681  10.1359  11.1539  12.1218  12.9773  14.3941  15.2379
    15.7980  16.1446

          k = 0.0000 0.5129 0.0000 (  5408 PWs)   bands (ev):

   -45.4359 -24.1679 -23.6877 -23.3501 -20.8812 -12.8066  -3.6161  -3.0846
    -2.8597  -2.7797  -1.3738  -0.5508   3.1373   6.3625   6.9595   7.4697
     8.2810   9.5995  10.3880  11.4237  12.2259  12.9386  13.5558  14.9089
    15.3641  15.4107

          k = 0.0000-0.5861 0.0000 (  5402 PWs)   bands (ev):

   -45.4322 -24.1963 -23.6755 -23.3569 -20.8846 -12.7740  -3.6504  -3.1338
    -2.8675  -2.8097  -1.3705  -0.5722   3.1271   6.4377   7.0057   7.5011
     8.4632   9.9590  10.4875  11.6498  12.0727  12.6725  13.5986  14.5244
    15.1768  15.2046

          k = 0.0625 0.0366 0.0000 (  5403 PWs)   bands (ev):

   -45.5242 -24.1094 -23.2132 -23.1607 -20.9483 -13.4987  -3.5720  -2.7855
    -2.7152  -1.6523  -0.0300   0.1616   3.4767   5.4210   5.6842   6.0345
     6.7610   6.8982   7.9912   8.9886  11.2585  13.9002  14.3455  14.8710
    15.3541  17.2812

          k = 0.0625 0.1099 0.0000 (  5403 PWs)   bands (ev):

   -45.5173 -24.0862 -23.2819 -23.1871 -20.9292 -13.4497  -3.4988  -2.8486
    -2.7381  -1.6335  -0.2819   0.0545   3.4970   5.4376   5.7137   6.1373
     6.8019   6.9663   8.2394   9.3095  11.5247  13.9148  14.1012  14.8807
    15.1968  17.1760

          k = 0.0625 0.1832 0.0000 (  5388 PWs)   bands (ev):

   -45.5045 -24.0447 -23.4158 -23.2194 -20.9017 -13.3569  -3.3788  -2.9675
    -2.7576  -1.6289  -0.7313  -0.0842   3.4985   5.4053   5.9575   6.1918
     6.9869   7.1812   8.6750   9.7741  12.0110  13.4276  13.9472  14.9818
    15.5169  16.9864

          k = 0.0625 0.2564 0.0000 (  5389 PWs)   bands (ev):

   -45.4877 -23.9977 -23.5739 -23.2575 -20.8788 -13.2309  -3.2863  -3.0646
    -2.7830  -1.7227  -1.1752  -0.2397   3.4428   5.4910   6.1911   6.4142
     7.1947   7.5919   9.2022  10.2614  12.3298  13.2307  13.6529  15.4544
    16.0769  16.7869

          k = 0.0625 0.3297 0.0000 (  5397 PWs)   bands (ev):

   -45.4694 -23.9800 -23.6982 -23.2976 -20.8676 -13.0879  -3.3456  -3.0321
    -2.8176  -2.0622  -1.3585  -0.3925   3.3476   5.7451   6.3094   6.8966
     7.3957   8.1331   9.7019  10.7139  12.1458  13.1196  14.1668  15.8161
    16.2699  16.6321

          k = 0.0625 0.4030 0.0000 (  5408 PWs)   bands (ev):

   -45.4525 -24.0407 -23.7249 -23.3343 -20.8680 -12.9488  -3.4575  -2.9942
    -2.8599  -2.4470  -1.3861  -0.5238   3.2644   6.0749   6.5103   7.2611
     7.6846   8.7764  10.0742  11.0877  12.1160  12.9822  14.8601  15.0452
    15.8081  16.5600

          k = 0.0625 0.4762 0.0000 (  5406 PWs)   bands (ev):

   -45.4395 -24.1274 -23.6982 -23.3622 -20.8745 -12.8373  -3.5529  -3.0594
    -2.8884  -2.6663  -1.3836  -0.6191   3.2188   6.3314   6.7747   7.4125
     8.0183   9.5069  10.3513  11.3809  12.2413  13.0110  13.8806  14.9617
    15.3271  16.0493

          k = 0.0625 0.5495 0.0000 (  5410 PWs)   bands (ev):

   -45.4325 -24.1799 -23.6759 -23.3772 -20.8802 -12.7749  -3.6110  -3.1538
    -2.8965  -2.7323  -1.3788  -0.6690   3.2033   6.4627   6.9581   7.4603
     8.2313  10.1318  10.5678  11.6210  12.1992  12.7809  13.5331  14.5433
    15.1384  15.4269

          k = 0.1250 0.0733 0.0000 (  5398 PWs)   bands (ev):

   -45.5145 -24.0767 -23.3276 -23.1804 -20.9214 -13.4290  -3.4681  -2.8972
    -2.7213  -1.6326  -0.4448   0.0748   3.4864   5.3763   5.8464   6.1367
     6.8704   7.0214   8.3375   9.4266  11.6344  13.7428  14.0514  15.0487
    15.1695  17.2411

          k = 0.1250 0.1465 0.0000 (  5400 PWs)   bands (ev):

   -45.5051 -24.0462 -23.4226 -23.2072 -20.9019 -13.3600  -3.3803  -2.9777
    -2.7422  -1.6330  -0.7584  -0.0376   3.4818   5.3831   6.0087   6.1823
     6.9889   7.1944   8.6613   9.7644  11.9969  13.4045  13.9272  14.9834
    15.5674  17.0311

          k = 0.1250 0.2198 0.0000 (  5391 PWs)   bands (ev):

   -45.4908 -24.0047 -23.5494 -23.2503 -20.8807 -13.2536  -3.2750  -3.0703
    -2.7804  -1.6875  -1.1227  -0.2228   3.4658   5.3797   6.2155   6.4344
     7.1156   7.5443   9.1226  10.2013  12.5420  13.0030  13.6019  15.2487
    16.1231  16.7590

          k = 0.1250 0.2931 0.0000 (  5394 PWs)   bands (ev):

   -45.4740 -23.9744 -23.6683 -23.3024 -20.8661 -13.1226  -3.2743  -3.0664
    -2.8338  -1.9159  -1.3443  -0.4343   3.4360   5.4957   6.3251   6.8844
     7.2987   8.0433   9.6277  10.6711  12.5426  13.1478  13.4796  15.5603
    16.1782  17.1588

          k = 0.1250 0.3663 0.0000 (  5406 PWs)   bands (ev):

   -45.4571 -23.9998 -23.7205 -23.3548 -20.8614 -12.9850  -3.3699  -2.9964
    -2.9009  -2.2576  -1.3991  -0.6347   3.4068   5.7796   6.4458   7.1475
     7.6353   8.7054  10.0815  11.1241  12.3417  13.0053  14.2182  15.1703
    15.9913  16.5304

          k = 0.1250 0.4396 0.0000 (  5423 PWs)   bands (ev):

   -45.4427 -24.0741 -23.7044 -23.3993 -20.8643 -12.8626  -3.4590  -3.0492
    -2.9191  -2.5046  -1.4064  -0.7981   3.3954   6.1897   6.5455   7.2945
     7.8918   9.5308  10.4384  11.4938  12.3379  12.9851  14.3512  14.7396
    15.2483  16.4397

          k = 0.1250 0.5129 0.0000 (  5412 PWs)   bands (ev):

   -45.4331 -24.1367 -23.6769 -23.4293 -20.8696 -12.7776  -3.5190  -3.1794
    -2.9081  -2.6060  -1.4050  -0.9045   3.3998   6.5272   6.6904   7.3957
     7.9434  10.3646  10.7351  11.7156  12.3805  13.0208  13.5343  14.5424
    15.0908  15.9638

          k = 0.1250 0.5861 0.0000 (  5398 PWs)   bands (ev):

   -45.4297 -24.1598 -23.6653 -23.4400 -20.8721 -12.7471  -3.5405  -3.2365
    -2.9063  -2.6291  -1.4041  -0.9413   3.4042   6.5666   6.8862   7.4118
     7.9242  10.6446  11.0632  11.8941  12.1685  12.7632  13.5400  14.3635
    15.2262  15.3919

          k = 0.1250 0.0000 0.0000 (  5396 PWs)   bands (ev):

   -45.5179 -24.0876 -23.2917 -23.1720 -20.9294 -13.4528  -3.5007  -2.8656
    -2.7154  -1.6370  -0.3148   0.1035   3.4868   5.3486   5.8320   6.1227
     6.8113   6.9844   8.2209   9.2931  11.5106  13.8788  14.0506  14.9655
    15.2335  17.2483

          k = 0.1875 0.1099 0.0000 (  5410 PWs)   bands (ev):

   -45.5001 -24.0306 -23.4860 -23.2077 -20.8926 -13.3212  -3.3445  -3.0269
    -2.7313  -1.6590  -0.9567  -0.0406   3.4376   5.4354   6.1296   6.1768
     7.1801   7.2577   8.8298   9.9287  12.1034  13.2900  13.8113  15.2727
    15.6635  17.0903

          k = 0.1875 0.1832 0.0000 (  5412 PWs)   bands (ev):

   -45.4892 -24.0015 -23.5811 -23.2374 -20.8788 -13.2390  -3.2888  -3.0766
    -2.7592  -1.7381  -1.1998  -0.1638   3.4051   5.4850   6.1972   6.4555
     7.2234   7.5838   9.1756  10.2491  12.3192  13.1832  13.6199  15.4270
    16.1604  16.8408

          k = 0.1875 0.2564 0.0000 (  5406 PWs)   bands (ev):

   -45.4749 -23.9769 -23.6715 -23.2915 -20.8659 -13.1275  -3.2766  -3.0700
    -2.8223  -1.9286  -1.3513  -0.3935   3.4139   5.5010   6.3265   6.8955
     7.3163   8.0370   9.6151  10.6681  12.5521  13.1315  13.4363  15.5460
    16.1911  17.0700

          k = 0.1875 0.3297 0.0000 (  5407 PWs)   bands (ev):

   -45.4594 -23.9866 -23.7163 -23.3604 -20.8582 -13.0014  -3.3268  -3.0043
    -2.9148  -2.1786  -1.4109  -0.6718   3.4688   5.6031   6.5121   7.0534
     7.6496   8.6821  10.0854  11.1435  12.6584  12.9732  13.7043  15.0832
    16.3388  16.4480

          k = 0.1875 0.4030 0.0000 (  5422 PWs)   bands (ev):

   -45.4451 -24.0355 -23.7062 -23.4301 -20.8566 -12.8795  -3.3907  -3.0384
    -2.9383  -2.3785  -1.4372  -0.9359   3.5500   5.8525   6.6511   7.1209
     7.9059   9.5312  10.5331  11.6106  12.6269  12.9121  14.2432  14.5346
    15.4150  16.2582

          k = 0.1875 0.4762 0.0000 (  5410 PWs)   bands (ev):

   -45.4340 -24.0868 -23.6779 -23.4866 -20.8589 -12.7822  -3.4464  -3.1616
    -2.9052  -2.4808  -1.4573  -1.1351   3.6282   6.2364   6.6610   7.2834
     7.8941  10.4456  10.9108  11.9318  12.5603  13.0556  13.9451  14.5167
    14.9113  16.0715

          k = 0.1875 0.5495 0.0000 (  5413 PWs)   bands (ev):

   -45.4281 -24.1165 -23.6581 -23.5185 -20.8613 -12.7280  -3.4814  -3.2387
    -2.8947  -2.5129  -1.4762  -1.2360   3.6761   6.6029   6.6487   7.4191
     7.7039  10.8677  11.5510  12.0408  12.4671  12.9505  13.5727  14.4631
    15.0459  15.7699

          k = 0.1875-0.0366 0.0000 (  5411 PWs)   bands (ev):

   -45.5060 -24.0481 -23.4224 -23.2005 -20.9017 -13.3647  -3.3825  -2.9827
    -2.7297  -1.6369  -0.7563  -0.0231   3.4749   5.3294   6.0863   6.1810
     7.0434   7.1573   8.6387   9.7509  11.9810  13.3971  13.9113  15.0044
    15.6087  17.0452

          k = 0.2500 0.1465 0.0000 (  5412 PWs)   bands (ev):

   -45.4830 -23.9911 -23.6431 -23.2394 -20.8731 -13.1886  -3.3190  -3.0675
    -2.7488  -1.8776  -1.3055  -0.1659   3.3250   5.6571   6.2382   6.5723
     7.3699   7.7513   9.3590  10.4099  12.1246  13.1954  13.8649  15.8090
    16.2803  16.8577

          k = 0.2500 0.2198 0.0000 (  5409 PWs)   bands (ev):

   -45.4721 -23.9861 -23.7038 -23.2715 -20.8667 -13.1021  -3.3508  -3.0387
    -2.7881  -2.0872  -1.3729  -0.2967   3.2970   5.7493   6.3087   6.9383
     7.4364   8.1126   9.6688  10.7064  12.1374  13.0822  14.0725  15.7550
    16.2829  16.5790

          k = 0.2500 0.2931 0.0000 (  5404 PWs)   bands (ev):

   -45.4591 -24.0043 -23.7248 -23.3354 -20.8603 -12.9962  -3.3742  -2.9951
    -2.8856  -2.2747  -1.4076  -0.5654   3.3696   5.7845   6.4497   7.1640
     7.6581   8.6938  10.0635  11.1278  12.3424  12.9870  14.1241  15.1347
    15.8937  16.5244

          k = 0.2500 0.3663 0.0000 (  5407 PWs)   bands (ev):

   -45.4462 -24.0374 -23.7086 -23.4204 -20.8558 -12.8857  -3.3923  -3.0278
    -2.9423  -2.3841  -1.4400  -0.9035   3.5329   5.8505   6.6575   7.1253
     7.9130   9.5255  10.5269  11.6195  12.6391  12.9065  14.1880  14.4916
    15.3375  16.2959

          k = 0.2500 0.4396 0.0000 (  5412 PWs)   bands (ev):

   -45.4351 -24.0639 -23.6796 -23.5079 -20.8537 -12.7882  -3.4266  -3.1344
    -2.9027  -2.4208  -1.5012  -1.2079   3.7338   6.0238   6.7336   7.2035
     7.9183  10.4468  10.9880  12.0032  12.7721  13.0421  14.1457  14.4769
    14.7265  15.6805

          k = 0.2500 0.5129 0.0000 (  5416 PWs)   bands (ev):

   -45.4278 -24.0763 -23.6557 -23.5756 -20.8533 -12.7210  -3.4845  -3.1649
    -2.8774  -2.4149  -1.6354  -1.3541   3.8962   6.3144   6.6701   7.3617
     7.7246  10.9698  11.6056  12.0867  12.9610  13.3354  13.7848  14.3747
    14.7855  15.4566

          k = 0.2500 0.5861 0.0000 (  5424 PWs)   bands (ev):

   -45.4252 -24.0790 -23.6462 -23.6019 -20.8534 -12.6970  -3.5134  -3.1636
    -2.8693  -2.4043  -1.7165  -1.3827   3.9576   6.5308   6.6228   7.3374
     7.6430  10.9891  12.0971  12.5231  12.5720  13.1591  13.8307  14.3503
    14.9454  15.7419

          k = 0.2500-0.0733 0.0000 (  5425 PWs)   bands (ev):

   -45.4903 -24.0031 -23.5758 -23.2362 -20.8778 -13.2447  -3.2895  -3.0756
    -2.7524  -1.7352  -1.1875  -0.1705   3.4082   5.4542   6.2052   6.4972
     7.2446   7.5641   9.1551  10.2388  12.3164  13.1927  13.6235  15.4482
    16.1366  16.8245

          k = 0.2500 0.0000 0.0000 (  5418 PWs)   bands (ev):

   -45.4929 -24.0084 -23.5452 -23.2409 -20.8794 -13.2641  -3.2776  -3.0738
    -2.7618  -1.6916  -1.1128  -0.2037   3.4551   5.3357   6.2392   6.4969
     7.1559   7.5167   9.0838  10.1823  12.5190  13.0153  13.5930  15.2536
    16.1404  16.7599

          k = 0.3125 0.1832 0.0000 (  5396 PWs)   bands (ev):

   -45.4658 -24.0079 -23.7303 -23.2708 -20.8666 -13.0491  -3.4220  -3.0114
    -2.7722  -2.2946  -1.3900  -0.2813   3.2045   5.9500   6.4575   7.0436
     7.5715   8.3136   9.7993  10.8174  11.9938  12.9864  14.6006  15.5387
    16.3411  16.4875

          k = 0.3125 0.2564 0.0000 (  5404 PWs)   bands (ev):

   -45.4562 -24.0452 -23.7316 -23.3038 -20.8657 -12.9696  -3.4637  -2.9919
    -2.8297  -2.4638  -1.4019  -0.4157   3.2096   6.0844   6.5015   7.2979
     7.7192   8.7503  10.0450  11.0898  12.0879  12.9360  14.6994  14.9448
    15.8478  16.4904

          k = 0.3125 0.3297 0.0000 (  5411 PWs)   bands (ev):

   -45.4459 -24.0772 -23.7108 -23.3745 -20.8619 -12.8804  -3.4642  -3.0301
    -2.9179  -2.5099  -1.4184  -0.7130   3.3529   6.1868   6.5494   7.3162
     7.9071   9.5133  10.4240  11.5136  12.3170  12.9514  14.2428  14.6348
    15.2054  16.3709

          k = 0.3125 0.4030 0.0000 (  5412 PWs)   bands (ev):

   -45.4362 -24.0879 -23.6828 -23.4705 -20.8567 -12.7949  -3.4465  -3.1515
    -2.9062  -2.4805  -1.4595  -1.0876   3.6050   6.2175   6.6745   7.2930
     7.9038  10.4210  10.9063  11.9695  12.5712  13.0321  13.8253  14.4771
    14.8249  16.1047

          k = 0.3125 0.4762 0.0000 (  5424 PWs)   bands (ev):

   -45.4289 -24.0756 -23.6584 -23.5689 -20.8519 -12.7275  -3.4811  -3.1624
    -2.8772  -2.4138  -1.6201  -1.3511   3.8906   6.2950   6.6774   7.3664
     7.7325  10.9461  11.6013  12.1107  13.0028  13.3002  13.6885  14.4100
    14.7397  15.4776

          k = 0.3125 0.5495 0.0000 (  5435 PWs)   bands (ev):

   -45.4249 -24.0561 -23.6449 -23.6357 -20.8492 -12.6903  -3.5327  -3.1093
    -2.8505  -2.3283  -1.8777  -1.4105   4.0897   6.4424   6.6263   7.2258
     7.7175  10.9782  12.1016  12.5150  13.3050  13.4560  13.6091  14.1015
    14.9648  15.6853

          k = 0.3125-0.1099 0.0000 (  5415 PWs)   bands (ev):

   -45.4732 -23.9847 -23.6992 -23.2733 -20.8651 -13.1081  -3.3473  -3.0381
    -2.7837  -2.0696  -1.3700  -0.3135   3.3084   5.7402   6.3157   6.9468
     7.4387   8.1014   9.6519  10.6966  12.1455  13.0877  14.1032  15.7671
    16.2459  16.5807

          k = 0.3125-0.0366 0.0000 (  5418 PWs)   bands (ev):

   -45.4771 -23.9774 -23.6629 -23.2903 -20.8633 -13.1394  -3.2726  -3.0700
    -2.8103  -1.9073  -1.3427  -0.4072   3.4231   5.4754   6.3490   6.9223
     7.3258   8.0166   9.5804  10.6513  12.5700  13.1411  13.4551  15.5371
    16.1288  17.0816

          k = 0.3750 0.2198 0.0000 (  5415 PWs)   bands (ev):

   -45.4512 -24.0916 -23.7254 -23.2972 -20.8699 -12.9249  -3.5356  -2.9999
    -2.7964  -2.6369  -1.3998  -0.3726   3.1215   6.1985   6.7597   7.3836
     7.8865   8.9261  10.0990  11.1459  12.0756  12.9133  14.2507  15.1254
    15.9115  16.0217

          k = 0.3750 0.2931 0.0000 (  5419 PWs)   bands (ev):

   -45.4442 -24.1285 -23.7077 -23.3291 -20.8707 -12.8640  -3.5609  -3.0434
    -2.8692  -2.6637  -1.4028  -0.5054   3.1644   6.3495   6.7566   7.4545
     8.0225   9.4775  10.3285  11.3815  12.1835  12.9388  13.7599  14.8852
    15.3073  16.0080

          k = 0.3750 0.3663 0.0000 (  5409 PWs)   bands (ev):

   -45.4372 -24.1366 -23.6855 -23.4021 -20.8656 -12.8012  -3.5247  -3.1596
    -2.9035  -2.5957  -1.4203  -0.8152   3.3590   6.5500   6.6591   7.4276
     7.9428  10.3217  10.7389  11.7420  12.3166  12.9427  13.4599  14.4964
    15.0102  15.9151

          k = 0.3750 0.4396 0.0000 (  5413 PWs)   bands (ev):

   -45.4312 -24.1141 -23.6652 -23.5004 -20.8575 -12.7465  -3.4778  -3.2271
    -2.8925  -2.5023  -1.4738  -1.1931   3.6564   6.5695   6.6595   7.4436
     7.7077  10.8117  11.5537  12.1055  12.3934  12.9045  13.5188  14.3929
    15.0089  15.7136

          k = 0.3750 0.5129 0.0000 (  5429 PWs)   bands (ev):

   -45.4272 -24.0740 -23.6510 -23.5942 -20.8504 -12.7092  -3.5061  -3.1558
    -2.8672  -2.3933  -1.6952  -1.3889   3.9584   6.4978   6.6291   7.3366
     7.6624  10.9395  12.1390  12.4307  12.5266  13.2448  13.7911  14.3216
    14.9474  15.6725

          k = 0.3750 0.5861 0.0000 (  5448 PWs)   bands (ev):

   -45.4258 -24.0511 -23.6454 -23.6369 -20.8477 -12.6960  -3.5292  -3.1029
    -2.8486  -2.3133  -1.8810  -1.4165   4.0976   6.4419   6.6171   7.2147
     7.7285  10.9519  12.1200  12.3915  13.3901  13.4093  13.7577  14.0077
    14.9401  15.6490

          k = 0.3750-0.1465 0.0000 (  5416 PWs)   bands (ev):

   -45.4572 -24.0399 -23.7312 -23.3066 -20.8639 -12.9749  -3.4587  -2.9916
    -2.8269  -2.4441  -1.4026  -0.4341   3.2234   6.0903   6.5129   7.2927
     7.7056   8.7335  10.0268  11.0788  12.0950  12.9373  14.7281  14.9815
    15.7913  16.5222

          k = 0.3750-0.0733 0.0000 (  5403 PWs)   bands (ev):

   -45.4612 -23.9965 -23.7217 -23.3390 -20.8571 -13.0076  -3.3659  -2.9954
    -2.8755  -2.2385  -1.4075  -0.5947   3.3914   5.7785   6.4632   7.1809
     7.6331   8.6680  10.0296  11.1088  12.3635  12.9931  14.1796  15.1129
    15.9098  16.4814

          k = 0.3750 0.0000 0.0000 (  5404 PWs)   bands (ev):

   -45.4626 -23.9804 -23.7124 -23.3579 -20.8541 -13.0189  -3.3186  -3.0044
    -2.8973  -2.1415  -1.4118  -0.6832   3.4809   5.5896   6.5339   7.0791
     7.6320   8.6504  10.0386  11.1228  12.7040  12.9889  13.6970  15.0459
    16.2770  16.4168

          k = 0.4375 0.2564 0.0000 (  5415 PWs)   bands (ev):

   -45.4414 -24.1660 -23.6991 -23.3147 -20.8762 -12.8384  -3.6244  -3.0697
    -2.8150  -2.7845  -1.3962  -0.4305   3.0818   6.3781   6.9667   7.5146
     8.2610   9.5491  10.3548  11.4037  12.1446  12.8298  13.4786  14.8126
    15.2730  15.5244

          k = 0.4375 0.3297 0.0000 (  5431 PWs)   bands (ev):

   -45.4378 -24.1780 -23.6871 -23.3434 -20.8751 -12.8057  -3.6198  -3.1329
    -2.8797  -2.7154  -1.4004  -0.5556   3.1515   6.4796   6.9555   7.5052
     8.2024  10.0830  10.5593  11.6013  12.0880  12.6842  13.4826  14.4757
    15.0683  15.4716

          k = 0.4375 0.4030 0.0000 (  5415 PWs)   bands (ev):

   -45.4344 -24.1560 -23.6754 -23.4132 -20.8668 -12.7746  -3.5444  -3.2134
    -2.8992  -2.6090  -1.4209  -0.8577   3.3692   6.5796   6.8772   7.4498
     7.8999  10.5685  11.0725  11.9048  12.0538  12.7010  13.5018  14.2959
    15.1551  15.3968

          k = 0.4375 0.4762 0.0000 (  5413 PWs)   bands (ev):

   -45.4318 -24.1091 -23.6661 -23.5027 -20.8562 -12.7503  -3.4756  -3.2196
    -2.8912  -2.4917  -1.4742  -1.2058   3.6656   6.6038   6.6360   7.4614
     7.6745  10.7926  11.4573  12.0930  12.4649  12.9131  13.5144  14.4122
    15.0154  15.7440

          k = 0.4375 0.5495 0.0000 (  5428 PWs)   bands (ev):

   -45.4304 -24.0649 -23.6605 -23.5724 -20.8491 -12.7369  -3.4764  -3.1466
    -2.8742  -2.3862  -1.6283  -1.3682   3.9087   6.3079   6.6578   7.3833
     7.7056  10.9096  11.4721  12.1318  12.9547  13.3832  13.7499  14.3843
    14.7419  15.4947

          k = 0.4375-0.1832 0.0000 (  5416 PWs)   bands (ev):

   -45.4448 -24.1237 -23.7084 -23.3315 -20.8693 -12.8677  -3.5562  -3.0420
    -2.8680  -2.6509  -1.4038  -0.5192   3.1750   6.3478   6.7879   7.4480
     8.0054   9.4450  10.3046  11.3743  12.1915  12.9320  13.7764  14.9307
    15.2661  16.0374

          k = 0.4375-0.1099 0.0000 (  5406 PWs)   bands (ev):

   -45.4474 -24.0666 -23.7119 -23.3793 -20.8589 -12.8895  -3.4555  -3.0244
    -2.9128  -2.4808  -1.4201  -0.7424   3.3752   6.2008   6.5534   7.3381
     7.8631   9.4705  10.3778  11.4939  12.3351  12.9424  14.2715  14.6884
    15.2083  16.3942

          k = 0.4375-0.0366 0.0000 (  5418 PWs)   bands (ev):

   -45.4488 -24.0234 -23.7095 -23.4242 -20.8514 -12.9010  -3.3823  -3.0127
    -2.9385  -2.3398  -1.4427  -0.9354   3.5588   5.8485   6.6539   7.1682
     7.8652   9.4766  10.4666  11.5957  12.6705  12.9108  14.2155  14.4980
    15.3775  16.2405

          k =-0.5000-0.2931 0.0000 (  5428 PWs)   bands (ev):

   -45.4380 -24.1936 -23.6876 -23.3209 -20.8791 -12.8074  -3.6600  -3.1158
    -2.8233  -2.8104  -1.3939  -0.4503   3.0714   6.4511   7.0219   7.5483
     8.4235   9.8974  10.4726  11.6154  11.9486  12.5808  13.5336  14.4456
    15.0667  15.3470

          k =-0.5000-0.2198 0.0000 (  5413 PWs)   bands (ev):

   -45.4380 -24.1762 -23.6874 -23.3443 -20.8746 -12.8071  -3.6178  -3.1320
    -2.8793  -2.7114  -1.4008  -0.5607   3.1554   6.4753   6.9774   7.4988
     8.1977  10.0550  10.5483  11.5959  12.1064  12.6838  13.4754  14.4892
    15.0888  15.4605

          k =-0.5000-0.1465 0.0000 (  5401 PWs)   bands (ev):

   -45.4380 -24.1299 -23.6867 -23.4053 -20.8638 -12.8063  -3.5188  -3.1535
    -2.9015  -2.5816  -1.4213  -0.8332   3.3725   6.5363   6.7015   7.4371
     7.9070  10.2788  10.6789  11.7300  12.3493  12.9359  13.4738  14.5252
    15.0311  15.9325

          k =-0.5000-0.0733 0.0000 (  5418 PWs)   bands (ev):

   -45.4380 -24.0751 -23.6849 -23.4757 -20.8532 -12.8055  -3.4396  -3.1351
    -2.9030  -2.4495  -1.4612  -1.1187   3.6285   6.2360   6.6565   7.3369
     7.8471  10.3747  10.8105  11.9526  12.5811  13.0357  13.8785  14.5011
    14.8695  16.1119

          k =-0.5000-0.0000 0.0000 (  5416 PWs)   bands (ev):

   -45.4380 -24.0486 -23.6833 -23.5094 -20.8489 -12.8052  -3.4188  -3.1106
    -2.8999  -2.3794  -1.5034  -1.2327   3.7562   6.0226   6.7133   7.2606
     7.8655  10.3890  10.8795  12.0069  12.7316  13.1190  14.1505  14.4666
    14.7501  15.6887

     highest occupied, lowest unoccupied level (ev):     4.0976    5.3294

!    total energy              =    -446.24447466 Ry
     total all-electron energy =     -8320.714754 Ry
     estimated scf accuracy    <          1.2E-10 Ry

     The total energy is the sum of the following terms:
     one-electron contribution =    -304.90999545 Ry
     hartree contribution      =     160.71763849 Ry
     xc contribution           =     -38.53009053 Ry
     ewald contribution        =       3.10383504 Ry
     one-center paw contrib.   =    -266.62586221 Ry

     convergence has been achieved in   6 iterations

     negative rho (up, down):  8.157E-05 0.000E+00

     Forces acting on atoms (cartesian axes, Ry/au):

     atom    1 type  1   force =     0.00000000   -0.00025803    0.00003195
     atom    2 type  2   force =     0.00000000   -0.00018016    0.00033264
     atom    3 type  3   force =     0.00000000    0.00043820   -0.00036459
     The non-local contrib.  to forces
     atom    1 type  1   force =     0.00000000   -0.00309715   -0.02113524
     atom    2 type  2   force =     0.00000000   -0.01946846   -1.11439183
     atom    3 type  3   force =     0.00000000   -0.00082261    0.22346181
     The ionic contribution  to forces
     atom    1 type  1   force =    -0.00000001   -0.15922037   -0.43252283
     atom    2 type  2   force =     0.00000001    0.10443006   27.12982957
     atom    3 type  3   force =     0.00000000    0.05479031  -26.69730674
     The local contribution  to forces
     atom    1 type  1   force =    -0.00000000    0.16186534    0.45000606
     atom    2 type  2   force =     0.00000027   -0.08524976  -26.01871623
     atom    3 type  3   force =     0.00000003   -0.05339909   26.48058566
     The core correction contribution to forces
     atom    1 type  1   force =     0.00000000    0.00013714    0.00364357
     atom    2 type  2   force =     0.00000000    0.00005335    0.00359183
     atom    3 type  3   force =    -0.00000000   -0.00018739   -0.00712167
     The Hubbard contrib.    to forces
     atom    1 type  1   force =     0.00000000    0.00000000    0.00000000
     atom    2 type  2   force =     0.00000000    0.00000000    0.00000000
     atom    3 type  3   force =     0.00000000    0.00000000    0.00000000
     The SCF correction term to forces
     atom    1 type  1   force =    -0.00000000    0.00000230    0.00001401
     atom    2 type  2   force =    -0.00000000   -0.00000006   -0.00000707
     atom    3 type  3   force =     0.00000000    0.00000229   -0.00001002

     Total force =     0.000732     Total SCF correction =     0.000019
     Energy error            =      2.0E-06 Ry
     Gradient error          =      4.4E-04 Ry/Bohr

     number of scf cycles    =   5
     number of bfgs steps    =   4

     energy             old  =    -446.2444726190 Ry
     energy             new  =    -446.2444746641 Ry

     CASE: energy            _new < energy            _old

     new trust radius        =       0.0009673112 bohr
     new conv_thr            =            1.0E-10 Ry


ATOMIC_POSITIONS (angstrom)
Zr           -0.0000000000        0.0171979085        9.5700167255
F            -0.0000000020        1.8733622983       10.9142232531
Cl           -0.0000000020        1.8724605018        7.8019349299



     Writing config-only to output data dir ./tmp/ZrFCl.save/
     NEW-OLD atomic charge density approx. for the potential

     Check: negative core charge=   -0.000005

     negative rho (up, down):  8.140E-05 0.000E+00

     total cpu time spent up to now is       58.8 secs

     Self-consistent Calculation

     iteration #  1     ecut=    65.00 Ry     beta= 0.70
     Davidson diagonalization with overlap
     ethr =  1.00E-06,  avg # of iterations =  2.0

     Threshold (ethr) on eigenvalues was too large:
     Diagonalizing with lowered threshold

     Davidson diagonalization with overlap
     ethr =  5.11E-10,  avg # of iterations =  4.0

     negative rho (up, down):  8.135E-05 0.000E+00

     total cpu time spent up to now is       61.8 secs

     total energy              =    -446.24447524 Ry
     estimated scf accuracy    <       0.00000015 Ry

     iteration #  2     ecut=    65.00 Ry     beta= 0.70
     Davidson diagonalization with overlap
     ethr =  5.84E-10,  avg # of iterations =  2.0

     negative rho (up, down):  8.141E-05 0.000E+00

     total cpu time spent up to now is       63.1 secs

     total energy              =    -446.24447524 Ry
     estimated scf accuracy    <       0.00000029 Ry

     iteration #  3     ecut=    65.00 Ry     beta= 0.70
     Davidson diagonalization with overlap
     ethr =  5.84E-10,  avg # of iterations =  1.9

     negative rho (up, down):  8.143E-05 0.000E+00

     total cpu time spent up to now is       64.3 secs

     total energy              =    -446.24447530 Ry
     estimated scf accuracy    <       0.00000001 Ry

     iteration #  4     ecut=    65.00 Ry     beta= 0.70
     Davidson diagonalization with overlap
     ethr =  5.40E-11,  avg # of iterations =  2.0

     negative rho (up, down):  8.143E-05 0.000E+00

     total cpu time spent up to now is       65.6 secs

     total energy              =    -446.24447530 Ry
     estimated scf accuracy    <          1.6E-09 Ry

     iteration #  5     ecut=    65.00 Ry     beta= 0.70
     Davidson diagonalization with overlap
     ethr =  6.18E-12,  avg # of iterations =  2.0

     negative rho (up, down):  8.144E-05 0.000E+00

     total cpu time spent up to now is       66.8 secs

     total energy              =    -446.24447530 Ry
     estimated scf accuracy    <          3.2E-10 Ry

     iteration #  6     ecut=    65.00 Ry     beta= 0.70
     Davidson diagonalization with overlap
     ethr =  1.25E-12,  avg # of iterations =  2.0

     negative rho (up, down):  8.144E-05 0.000E+00

     total cpu time spent up to now is       68.1 secs

     End of self-consistent calculation

          k = 0.0000 0.0000 0.0000 (  5391 PWs)   bands (ev):

   -45.5292 -24.1219 -23.1763 -23.1515 -20.9590 -13.5226  -3.6101  -2.7441
    -2.7074  -1.6658   0.1190   0.2085   3.4613   5.4417   5.6448   5.9499
     6.7813   6.8613   7.8657   8.7977  11.1292  13.8199  14.5752  14.8139
    15.5465  17.2580

          k = 0.0000 0.0733 0.0000 (  5395 PWs)   bands (ev):

   -45.5256 -24.1098 -23.1953 -23.1834 -20.9477 -13.4975  -3.5703  -2.7550
    -2.7450  -1.6512   0.0404   0.0866   3.4787   5.5045   5.5840   6.0403
     6.8146   6.8302   7.9988   8.9979  11.2639  13.9041  14.4955  14.6818
    15.3735  17.2277

          k = 0.0000 0.1465 0.0000 (  5413 PWs)   bands (ev):

   -45.5154 -24.0756 -23.3146 -23.2035 -20.9207 -13.4246  -3.4645  -2.8737
    -2.7495  -1.6279  -0.3901  -0.0024   3.5028   5.4808   5.6974   6.1522
     6.8990   6.9606   8.3599   9.4466  11.6544  13.7902  14.1050  14.9998
    15.0838  17.1368

          k = 0.0000 0.2198 0.0000 (  5385 PWs)   bands (ev):

   -45.5000 -24.0274 -23.4777 -23.2333 -20.8922 -13.3120  -3.3397  -3.0086
    -2.7611  -1.6477  -0.9183  -0.1274   3.4735   5.4873   6.0257   6.1719
     7.1349   7.2707   8.8657   9.9509  12.1324  13.3336  13.8531  15.3148
    15.5176  16.9842

          k = 0.0000 0.2931 0.0000 (  5383 PWs)   bands (ev):

   -45.4818 -23.9857 -23.6390 -23.2683 -20.8736 -13.1732  -3.3135  -3.0551
    -2.7816  -1.8551  -1.2867  -0.2634   3.3736   5.6701   6.2543   6.4771
     7.3197   7.7758   9.4021  10.4284  12.1362  13.2408  13.9390  15.8696
    16.1603  16.8079

          k = 0.0000 0.3663 0.0000 (  5420 PWs)   bands (ev):

   -45.4636 -24.0036 -23.7264 -23.3030 -20.8685 -13.0271  -3.4163  -3.0064
    -2.8090  -2.2761  -1.3741  -0.3887   3.2571   5.9398   6.4730   6.9855
     7.5210   8.3464   9.8407  10.8271  12.0150  13.0309  14.7243  15.6715
    16.2287  16.5723

          k = 0.0000 0.4396 0.0000 (  5404 PWs)   bands (ev):

   -45.4480 -24.0915 -23.7178 -23.3322 -20.8733 -12.8969  -3.5286  -3.0046
    -2.8371  -2.6261  -1.3805  -0.4875   3.1748   6.1803   6.7670   7.3416
     7.8610   8.9664  10.1348  11.1539  12.1216  12.9768  14.3943  15.2381
    15.7973  16.1435

          k = 0.0000 0.5129 0.0000 (  5408 PWs)   bands (ev):

   -45.4376 -24.1687 -23.6891 -23.3516 -20.8808 -12.8061  -3.6151  -3.0840
    -2.8581  -2.7790  -1.3741  -0.5500   3.1355   6.3606   6.9580   7.4674
     8.2794   9.5971  10.3878  11.4231  12.2256  12.9385  13.5561  14.9087
    15.3634  15.4099

          k = 0.0000-0.5861 0.0000 (  5402 PWs)   bands (ev):

   -45.4339 -24.1971 -23.6768 -23.3584 -20.8842 -12.7735  -3.6495  -3.1333
    -2.8659  -2.8090  -1.3708  -0.5714   3.1253   6.4356   7.0043   7.4987
     8.4616   9.9565  10.4873  11.6486  12.0733  12.6724  13.5990  14.5235
    15.1761  15.2042

          k = 0.0625 0.0366 0.0000 (  5403 PWs)   bands (ev):

   -45.5258 -24.1103 -23.2146 -23.1622 -20.9479 -13.4985  -3.5711  -2.7838
    -2.7140  -1.6526  -0.0289   0.1628   3.4742   5.4190   5.6820   6.0342
     6.7599   6.8974   7.9916   8.9889  11.2586  13.9014  14.3444  14.8703
    15.3506  17.2801

          k = 0.0625 0.1099 0.0000 (  5403 PWs)   bands (ev):

   -45.5189 -24.0871 -23.2833 -23.1886 -20.9288 -13.4495  -3.4977  -2.8473
    -2.7366  -1.6338  -0.2809   0.0556   3.4946   5.4354   5.7118   6.1369
     6.8012   6.9651   8.2395   9.3099  11.5247  13.9145  14.1013  14.8795
    15.1945  17.1750

          k = 0.0625 0.1832 0.0000 (  5388 PWs)   bands (ev):

   -45.5061 -24.0456 -23.4172 -23.2208 -20.9014 -13.3567  -3.3777  -2.9663
    -2.7560  -1.6290  -0.7307  -0.0831   3.4965   5.4029   5.9557   6.1913
     6.9858   7.1802   8.6748   9.7745  12.0108  13.4266  13.9467  14.9815
    15.5160  16.9853

          k = 0.0625 0.2564 0.0000 (  5389 PWs)   bands (ev):

   -45.4893 -23.9986 -23.5752 -23.2590 -20.8785 -13.2307  -3.2851  -3.0637
    -2.7814  -1.7223  -1.1752  -0.2388   3.4410   5.4885   6.1900   6.4130
     7.1929   7.5914   9.2014  10.2617  12.3292  13.2300  13.6523  15.4547
    16.0765  16.7856

          k = 0.0625 0.3297 0.0000 (  5397 PWs)   bands (ev):

   -45.4711 -23.9809 -23.6995 -23.2991 -20.8673 -13.0876  -3.3445  -3.0311
    -2.8160  -2.0616  -1.3589  -0.3916   3.3459   5.7428   6.3083   6.8953
     7.3935   8.1325   9.7006  10.7140  12.1456  13.1186  14.1668  15.8158
    16.2696  16.6321

          k = 0.0625 0.4030 0.0000 (  5408 PWs)   bands (ev):

   -45.4542 -24.0415 -23.7262 -23.3357 -20.8676 -12.9484  -3.4564  -2.9933
    -2.8584  -2.4465  -1.3865  -0.5230   3.2627   6.0728   6.5090   7.2594
     7.6826   8.7753  10.0727  11.0878  12.1159  12.9815  14.8599  15.0454
    15.8075  16.5596

          k = 0.0625 0.4762 0.0000 (  5406 PWs)   bands (ev):

   -45.4412 -24.1282 -23.6996 -23.3636 -20.8742 -12.8368  -3.5519  -3.0585
    -2.8871  -2.6657  -1.3839  -0.6183   3.2171   6.3295   6.7733   7.4104
     8.0163   9.5052  10.3506  11.3807  12.2409  13.0107  13.8810  14.9613
    15.3267  16.0483

          k = 0.0625 0.5495 0.0000 (  5410 PWs)   bands (ev):

   -45.4341 -24.1807 -23.6772 -23.3787 -20.8798 -12.7744  -3.6100  -3.1530
    -2.8953  -2.7315  -1.3791  -0.6682   3.2015   6.4606   6.9567   7.4581
     8.2293  10.1297  10.5676  11.6202  12.1993  12.7809  13.5335  14.5426
    15.1379  15.4263

          k = 0.1250 0.0733 0.0000 (  5398 PWs)   bands (ev):

   -45.5162 -24.0775 -23.3289 -23.1819 -20.9211 -13.4288  -3.4671  -2.8957
    -2.7200  -1.6329  -0.4439   0.0760   3.4842   5.3742   5.8444   6.1361
     6.8697   7.0204   8.3376   9.4270  11.6343  13.7418  14.0517  15.0467
    15.1689  17.2398

          k = 0.1250 0.1465 0.0000 (  5400 PWs)   bands (ev):

   -45.5067 -24.0471 -23.4239 -23.2087 -20.9016 -13.3598  -3.3793  -2.9765
    -2.7408  -1.6331  -0.7577  -0.0365   3.4798   5.3807   6.0068   6.1817
     6.9882   7.1933   8.6611   9.7648  11.9966  13.4035  13.9267  14.9831
    15.5666  17.0300

          k = 0.1250 0.2198 0.0000 (  5391 PWs)   bands (ev):

   -45.4925 -24.0056 -23.5507 -23.2518 -20.8804 -13.2533  -3.2739  -3.0692
    -2.7790  -1.6873  -1.1225  -0.2218   3.4641   5.3771   6.2142   6.4333
     7.1142   7.5436   9.1220  10.2017  12.5415  13.0021  13.6010  15.2491
    16.1226  16.7577

          k = 0.1250 0.2931 0.0000 (  5394 PWs)   bands (ev):

   -45.4757 -23.9752 -23.6696 -23.3038 -20.8658 -13.1223  -3.2732  -3.0654
    -2.8324  -1.9153  -1.3446  -0.4335   3.4345   5.4932   6.3240   6.8832
     7.2966   8.0428   9.6266  10.6715  12.5421  13.1468  13.4793  15.5603
    16.1780  17.1582

          k = 0.1250 0.3663 0.0000 (  5406 PWs)   bands (ev):

   -45.4588 -24.0006 -23.7219 -23.3562 -20.8611 -12.9847  -3.3688  -2.9954
    -2.8995  -2.2570  -1.3994  -0.6340   3.4053   5.7772   6.4446   7.1457
     7.6334   8.7047  10.0799  11.1244  12.3415  13.0046  14.2179  15.1695
    15.9912  16.5307

          k = 0.1250 0.4396 0.0000 (  5423 PWs)   bands (ev):

   -45.4444 -24.0749 -23.7058 -23.4007 -20.8640 -12.8622  -3.4580  -3.0479
    -2.9180  -2.5041  -1.4066  -0.7974   3.3938   6.1875   6.5440   7.2925
     7.8898   9.5300  10.4370  11.4940  12.3376  12.9847  14.3509  14.7392
    15.2481  16.4392

          k = 0.1250 0.5129 0.0000 (  5412 PWs)   bands (ev):

   -45.4348 -24.1375 -23.6782 -23.4307 -20.8693 -12.7772  -3.5181  -3.1782
    -2.9071  -2.6055  -1.4052  -0.9039   3.3982   6.5250   6.6891   7.3936
     7.9411  10.3635  10.7343  11.7154  12.3798  13.0207  13.5347  14.5417
    15.0906  15.9630

          k = 0.1250 0.5861 0.0000 (  5398 PWs)   bands (ev):

   -45.4314 -24.1606 -23.6667 -23.4414 -20.8717 -12.7467  -3.5396  -3.2355
    -2.9053  -2.6284  -1.4043  -0.9407   3.4026   6.5644   6.8851   7.4096
     7.9217  10.6437  11.0622  11.8931  12.1692  12.7626  13.5405  14.3628
    15.2255  15.3915

          k = 0.1250 0.0000 0.0000 (  5396 PWs)   bands (ev):

   -45.5195 -24.0885 -23.2931 -23.1736 -20.9290 -13.4526  -3.4997  -2.8641
    -2.7142  -1.6373  -0.3139   0.1047   3.4846   5.3465   5.8298   6.1222
     6.8102   6.9837   8.2211   9.2934  11.5106  13.8780  14.0509  14.9639
    15.2321  17.2471

          k = 0.1875 0.1099 0.0000 (  5410 PWs)   bands (ev):

   -45.5018 -24.0315 -23.4872 -23.2092 -20.8923 -13.3210  -3.3434  -3.0257
    -2.7301  -1.6591  -0.9562  -0.0395   3.4359   5.4330   6.1279   6.1756
     7.1790   7.2570   8.8295   9.9291  12.1029  13.2892  13.8105  15.2725
    15.6631  17.0892

          k = 0.1875 0.1832 0.0000 (  5412 PWs)   bands (ev):

   -45.4909 -24.0024 -23.5823 -23.2389 -20.8785 -13.2387  -3.2876  -3.0756
    -2.7579  -1.7378  -1.1998  -0.1627   3.4036   5.4826   6.1958   6.4541
     7.2221   7.5831   9.1749  10.2495  12.3184  13.1825  13.6193  15.4274
    16.1600  16.8395

          k = 0.1875 0.2564 0.0000 (  5406 PWs)   bands (ev):

   -45.4766 -23.9777 -23.6728 -23.2930 -20.8656 -13.1272  -3.2754  -3.0690
    -2.8210  -1.9280  -1.3516  -0.3926   3.4126   5.4984   6.3251   6.8943
     7.3145   8.0365   9.6140  10.6685  12.5515  13.1303  13.4361  15.5460
    16.1909  17.0693

          k = 0.1875 0.3297 0.0000 (  5407 PWs)   bands (ev):

   -45.4611 -23.9874 -23.7176 -23.3618 -20.8580 -13.0011  -3.3257  -3.0033
    -2.9135  -2.1781  -1.4112  -0.6711   3.4676   5.6005   6.5107   7.0517
     7.6478   8.6816  10.0839  11.1439  12.6581  12.9724  13.7038  15.0822
    16.3391  16.4479

          k = 0.1875 0.4030 0.0000 (  5422 PWs)   bands (ev):

   -45.4467 -24.0363 -23.7076 -23.4315 -20.8564 -12.8791  -3.3897  -3.0371
    -2.9373  -2.3781  -1.4373  -0.9354   3.5487   5.8502   6.6495   7.1189
     7.9040   9.5309  10.5314  11.6111  12.6265  12.9118  14.2427  14.5334
    15.4152  16.2583

          k = 0.1875 0.4762 0.0000 (  5410 PWs)   bands (ev):

   -45.4357 -24.0876 -23.6793 -23.4879 -20.8586 -12.7817  -3.4454  -3.1604
    -2.9043  -2.4804  -1.4573  -1.1348   3.6269   6.2344   6.6590   7.2814
     7.8919  10.4455  10.9092  11.9321  12.5594  13.0554  13.9448  14.5162
    14.9112  16.0716

          k = 0.1875 0.5495 0.0000 (  5413 PWs)   bands (ev):

   -45.4297 -24.1173 -23.6595 -23.5198 -20.8610 -12.7275  -3.4804  -3.2376
    -2.8938  -2.5125  -1.4761  -1.2357   3.6746   6.6010   6.6471   7.4171
     7.7013  10.8671  11.5502  12.0408  12.4662  12.9502  13.5731  14.4625
    15.0455  15.7694

          k = 0.1875-0.0366 0.0000 (  5411 PWs)   bands (ev):

   -45.5077 -24.0490 -23.4237 -23.2020 -20.9014 -13.3645  -3.3815  -2.9813
    -2.7285  -1.6371  -0.7556  -0.0219   3.4731   5.3271   6.0845   6.1799
     7.0423   7.1567   8.6386   9.7513  11.9806  13.3960  13.9107  15.0039
    15.6083  17.0441

          k = 0.2500 0.1465 0.0000 (  5412 PWs)   bands (ev):

   -45.4847 -23.9920 -23.6443 -23.2409 -20.8729 -13.1883  -3.3178  -3.0665
    -2.7476  -1.8771  -1.3057  -0.1648   3.3236   5.6548   6.2367   6.5707
     7.3684   7.7508   9.3582  10.4102  12.1238  13.1942  13.8650  15.8091
    16.2802  16.8565

          k = 0.2500 0.2198 0.0000 (  5409 PWs)   bands (ev):

   -45.4737 -23.9869 -23.7051 -23.2730 -20.8664 -13.1018  -3.3495  -3.0378
    -2.7868  -2.0866  -1.3732  -0.2957   3.2957   5.7470   6.3069   6.9370
     7.4346   8.1121   9.6677  10.7067  12.1369  13.0810  14.0725  15.7547
    16.2830  16.5790

          k = 0.2500 0.2931 0.0000 (  5404 PWs)   bands (ev):

   -45.4608 -24.0050 -23.7261 -23.3369 -20.8601 -12.9958  -3.3731  -2.9942
    -2.8844  -2.2741  -1.4079  -0.5647   3.3685   5.7821   6.4479   7.1625
     7.6562   8.6933  10.0621  11.1281  12.3421  12.9860  14.1238  15.1339
    15.8939  16.5243

          k = 0.2500 0.3663 0.0000 (  5407 PWs)   bands (ev):

   -45.4478 -24.0381 -23.7099 -23.4218 -20.8556 -12.8853  -3.3912  -3.0265
    -2.9414  -2.3837  -1.4401  -0.9030   3.5319   5.8481   6.6556   7.1235
     7.9111   9.5252  10.5253  11.6200  12.6388  12.9060  14.1874  14.4905
    15.3376  16.2957

          k = 0.2500 0.4396 0.0000 (  5412 PWs)   bands (ev):

   -45.4368 -24.0646 -23.6810 -23.5093 -20.8535 -12.7878  -3.4255  -3.1333
    -2.9018  -2.4204  -1.5010  -1.2078   3.7327   6.0216   6.7314   7.2016
     7.9161  10.4469  10.9864  12.0036  12.7718  13.0413  14.1449  14.4764
    14.7266  15.6809

          k = 0.2500 0.5129 0.0000 (  5416 PWs)   bands (ev):

   -45.4294 -24.0770 -23.6571 -23.5769 -20.8530 -12.7205  -3.4833  -3.1638
    -2.8764  -2.4146  -1.6351  -1.3542   3.8950   6.3128   6.6678   7.3597
     7.7220  10.9693  11.6052  12.0865  12.9601  13.3349  13.7849  14.3744
    14.7850  15.4570

          k = 0.2500 0.5861 0.0000 (  5424 PWs)   bands (ev):

   -45.4269 -24.0797 -23.6476 -23.6033 -20.8531 -12.6965  -3.5122  -3.1626
    -2.8684  -2.4040  -1.7161  -1.3828   3.9564   6.5298   6.6204   7.3348
     7.6403  10.9884  12.0967  12.5229  12.5722  13.1581  13.8309  14.3496
    14.9456  15.7412

          k = 0.2500-0.0733 0.0000 (  5425 PWs)   bands (ev):

   -45.4920 -24.0040 -23.5770 -23.2377 -20.8775 -13.2445  -3.2883  -3.0745
    -2.7513  -1.7349  -1.1874  -0.1694   3.4068   5.4518   6.2041   6.4952
     7.2433   7.5636   9.1545  10.2392  12.3156  13.1919  13.6228  15.4484
    16.1364  16.8236

          k = 0.2500 0.0000 0.0000 (  5418 PWs)   bands (ev):

   -45.4945 -24.0093 -23.5464 -23.2424 -20.8792 -13.2639  -3.2765  -3.0726
    -2.7607  -1.6915  -1.1125  -0.2026   3.4537   5.3333   6.2382   6.4949
     7.1546   7.5161   9.0832  10.1828  12.5185  13.0142  13.5920  15.2539
    16.1401  16.7592

          k = 0.3125 0.1832 0.0000 (  5396 PWs)   bands (ev):

   -45.4675 -24.0086 -23.7316 -23.2723 -20.8663 -13.0488  -3.4208  -3.0105
    -2.7711  -2.2940  -1.3904  -0.2803   3.2033   5.9483   6.4556   7.0421
     7.5698   8.3128   9.7980  10.8175  11.9934  12.9852  14.6007  15.5389
    16.3406  16.4872

          k = 0.3125 0.2564 0.0000 (  5404 PWs)   bands (ev):

   -45.4579 -24.0459 -23.7330 -23.3053 -20.8654 -12.9693  -3.4626  -2.9911
    -2.8285  -2.4633  -1.4022  -0.4148   3.2084   6.0826   6.4994   7.2964
     7.7173   8.7495  10.0437  11.0900  12.0875  12.9351  14.6992  14.9451
    15.8471  16.4897

          k = 0.3125 0.3297 0.0000 (  5411 PWs)   bands (ev):

   -45.4475 -24.0779 -23.7122 -23.3759 -20.8616 -12.8800  -3.4631  -3.0291
    -2.9170  -2.5094  -1.4186  -0.7123   3.3518   6.1848   6.5473   7.3145
     7.9051   9.5128  10.4226  11.5138  12.3164  12.9508  14.2427  14.6343
    15.2048  16.3703

          k = 0.3125 0.4030 0.0000 (  5412 PWs)   bands (ev):

   -45.4379 -24.0886 -23.6842 -23.4719 -20.8564 -12.7945  -3.4455  -3.1504
    -2.9054  -2.4800  -1.4595  -1.0872   3.6040   6.2155   6.6723   7.2912
     7.9016  10.4210  10.9049  11.9697  12.5705  13.0316  13.8252  14.4766
    14.8244  16.1047

          k = 0.3125 0.4762 0.0000 (  5424 PWs)   bands (ev):

   -45.4305 -24.0763 -23.6598 -23.5703 -20.8517 -12.7271  -3.4799  -3.1614
    -2.8764  -2.4135  -1.6197  -1.3513   3.8896   6.2933   6.6752   7.3644
     7.7299  10.9455  11.6011  12.1106  13.0022  13.2995  13.6884  14.4097
    14.7390  15.4781

          k = 0.3125 0.5495 0.0000 (  5435 PWs)   bands (ev):

   -45.4266 -24.0567 -23.6463 -23.6371 -20.8490 -12.6898  -3.5315  -3.1084
    -2.8497  -2.3279  -1.8775  -1.4107   4.0887   6.4413   6.6239   7.2232
     7.7149  10.9774  12.1012  12.5153  13.3054  13.4561  13.6078  14.1005
    14.9650  15.6850

          k = 0.3125-0.1099 0.0000 (  5415 PWs)   bands (ev):

   -45.4748 -23.9855 -23.7005 -23.2748 -20.8648 -13.1078  -3.3461  -3.0373
    -2.7826  -2.0689  -1.3703  -0.3125   3.3072   5.7380   6.3143   6.9451
     7.4372   8.1007   9.6507  10.6968  12.1450  13.0865  14.1032  15.7668
    16.2456  16.5806

          k = 0.3125-0.0366 0.0000 (  5418 PWs)   bands (ev):

   -45.4788 -23.9783 -23.6641 -23.2918 -20.8631 -13.1391  -3.2714  -3.0691
    -2.8092  -1.9067  -1.3430  -0.4063   3.4220   5.4730   6.3478   6.9207
     7.3243   8.0160   9.5793  10.6517  12.5693  13.1399  13.4548  15.5371
    16.1285  17.0808

          k = 0.3750 0.2198 0.0000 (  5415 PWs)   bands (ev):

   -45.4529 -24.0922 -23.7268 -23.2987 -20.8696 -12.9245  -3.5345  -2.9992
    -2.7953  -2.6364  -1.4001  -0.3716   3.1202   6.1968   6.7578   7.3819
     7.8849   8.9246  10.0979  11.1459  12.0750  12.9126  14.2508  15.1256
    15.9107  16.0209

          k = 0.3750 0.2931 0.0000 (  5419 PWs)   bands (ev):

   -45.4459 -24.1291 -23.7091 -23.3306 -20.8704 -12.8636  -3.5599  -3.0427
    -2.8682  -2.6631  -1.4031  -0.5046   3.1631   6.3477   6.7547   7.4528
     8.0205   9.4762  10.3277  11.3812  12.1828  12.9385  13.7601  14.8850
    15.3063  16.0074

          k = 0.3750 0.3663 0.0000 (  5409 PWs)   bands (ev):

   -45.4388 -24.1373 -23.6870 -23.4035 -20.8653 -12.8008  -3.5237  -3.1587
    -2.9027  -2.5952  -1.4204  -0.8146   3.3579   6.5480   6.6573   7.4259
     7.9405  10.3209  10.7380  11.7417  12.3158  12.9427  13.4599  14.4960
    15.0094  15.9147

          k = 0.3750 0.4396 0.0000 (  5413 PWs)   bands (ev):

   -45.4329 -24.1147 -23.6666 -23.5018 -20.8572 -12.7461  -3.4767  -3.2262
    -2.8917  -2.5019  -1.4737  -1.1929   3.6553   6.5678   6.6576   7.4417
     7.7050  10.8109  11.5531  12.1054  12.3927  12.9040  13.5184  14.3927
    15.0081  15.7135

          k = 0.3750 0.5129 0.0000 (  5429 PWs)   bands (ev):

   -45.4289 -24.0745 -23.6525 -23.5956 -20.8502 -12.7087  -3.5050  -3.1549
    -2.8664  -2.3929  -1.6948  -1.3891   3.9575   6.4968   6.6267   7.3343
     7.6597  10.9386  12.1386  12.4309  12.5268  13.2438  13.7905  14.3213
    14.9473  15.6726

          k = 0.3750 0.5861 0.0000 (  5448 PWs)   bands (ev):

   -45.4275 -24.0517 -23.6469 -23.6384 -20.8474 -12.6955  -3.5280  -3.1020
    -2.8477  -2.3127  -1.8808  -1.4167   4.0967   6.4411   6.6145   7.2122
     7.7258  10.9509  12.1196  12.3919  13.3900  13.4096  13.7565  14.0067
    14.9401  15.6493

          k = 0.3750-0.1465 0.0000 (  5416 PWs)   bands (ev):

   -45.4589 -24.0405 -23.7326 -23.3081 -20.8637 -12.9746  -3.4576  -2.9908
    -2.8259  -2.4435  -1.4029  -0.4332   3.2222   6.0885   6.5112   7.2910
     7.7041   8.7324  10.0253  11.0790  12.0945  12.9363  14.7279  14.9817
    15.7908  16.5215

          k = 0.3750-0.0733 0.0000 (  5403 PWs)   bands (ev):

   -45.4628 -23.9972 -23.7230 -23.3405 -20.8568 -13.0072  -3.3647  -2.9946
    -2.8745  -2.2378  -1.4079  -0.5939   3.3904   5.7762   6.4617   7.1794
     7.6316   8.6672  10.0279  11.1092  12.3631  12.9921  14.1794  15.1120
    15.9099  16.4813

          k = 0.3750 0.0000 0.0000 (  5404 PWs)   bands (ev):

   -45.4642 -23.9811 -23.7137 -23.3594 -20.8538 -13.0185  -3.3175  -3.0035
    -2.8964  -2.1409  -1.4121  -0.6825   3.4801   5.5872   6.5323   7.0777
     7.6304   8.6497  10.0368  11.1233  12.7035  12.9882  13.6964  15.0449
    16.2775  16.4164

          k = 0.4375 0.2564 0.0000 (  5415 PWs)   bands (ev):

   -45.4431 -24.1666 -23.7005 -23.3162 -20.8759 -12.8380  -3.6234  -3.0692
    -2.8138  -2.7839  -1.3964  -0.4296   3.0805   6.3761   6.9652   7.5127
     8.2597   9.5467  10.3545  11.4030  12.1439  12.8298  13.4786  14.8125
    15.2722  15.5236

          k = 0.4375 0.3297 0.0000 (  5431 PWs)   bands (ev):

   -45.4394 -24.1786 -23.6886 -23.3449 -20.8748 -12.8053  -3.6189  -3.1323
    -2.8788  -2.7146  -1.4006  -0.5548   3.1502   6.4775   6.9542   7.5033
     8.2005  10.0810  10.5590  11.6005  12.0879  12.6839  13.4827  14.4751
    15.0675  15.4711

          k = 0.4375 0.4030 0.0000 (  5415 PWs)   bands (ev):

   -45.4361 -24.1566 -23.6769 -23.4146 -20.8665 -12.7742  -3.5434  -3.2126
    -2.8984  -2.6084  -1.4210  -0.8570   3.3681   6.5774   6.8761   7.4478
     7.8977  10.5674  11.0714  11.9040  12.0544  12.7002  13.5018  14.2955
    15.1545  15.3963

          k = 0.4375 0.4762 0.0000 (  5413 PWs)   bands (ev):

   -45.4335 -24.1096 -23.6676 -23.5041 -20.8559 -12.7499  -3.4746  -3.2187
    -2.8904  -2.4912  -1.4741  -1.2056   3.6645   6.6023   6.6339   7.4596
     7.6720  10.7917  11.4566  12.0929  12.4642  12.9127  13.5141  14.4120
    15.0153  15.7434

          k = 0.4375 0.5495 0.0000 (  5428 PWs)   bands (ev):

   -45.4321 -24.0654 -23.6619 -23.5739 -20.8488 -12.7365  -3.4753  -3.1457
    -2.8734  -2.3857  -1.6279  -1.3685   3.9078   6.3064   6.6554   7.3818
     7.7029  10.9087  11.4717  12.1316  12.9543  13.3822  13.7495  14.3843
    14.7417  15.4953

          k = 0.4375-0.1832 0.0000 (  5416 PWs)   bands (ev):

   -45.4465 -24.1243 -23.7098 -23.3329 -20.8690 -12.8673  -3.5552  -3.0413
    -2.8671  -2.6502  -1.4041  -0.5184   3.1738   6.3459   6.7863   7.4460
     8.0041   9.4432  10.3038  11.3741  12.1906  12.9316  13.7765  14.9306
    15.2656  16.0365

          k = 0.4375-0.1099 0.0000 (  5406 PWs)   bands (ev):

   -45.4491 -24.0671 -23.7133 -23.3808 -20.8586 -12.8891  -3.4545  -3.0235
    -2.9119  -2.4802  -1.4204  -0.7416   3.3741   6.1988   6.5516   7.3363
     7.8616   9.4695  10.3761  11.4941  12.3344  12.9418  14.2713  14.6881
    15.2082  16.3935

          k = 0.4375-0.0366 0.0000 (  5418 PWs)   bands (ev):

   -45.4505 -24.0239 -23.7109 -23.4257 -20.8511 -12.9006  -3.3812  -3.0118
    -2.9376  -2.3392  -1.4429  -0.9349   3.5580   5.8463   6.6519   7.1669
     7.8635   9.4761  10.4645  11.5962  12.6701  12.9103  14.2149  14.4968
    15.3777  16.2405

          k =-0.5000-0.2931 0.0000 (  5428 PWs)   bands (ev):

   -45.4397 -24.1942 -23.6890 -23.3223 -20.8788 -12.8069  -3.6590  -3.1153
    -2.8221  -2.8098  -1.3941  -0.4494   3.0701   6.4489   7.0206   7.5463
     8.4222   9.8947  10.4724  11.6143  11.9491  12.5803  13.5339  14.4448
    15.0664  15.3462

          k =-0.5000-0.2198 0.0000 (  5413 PWs)   bands (ev):

   -45.4397 -24.1768 -23.6889 -23.3458 -20.8743 -12.8066  -3.6168  -3.1315
    -2.8784  -2.7106  -1.4010  -0.5599   3.1542   6.4732   6.9762   7.4967
     8.1962  10.0527  10.5480  11.5951  12.1062  12.6835  13.4755  14.4887
    15.0886  15.4595

          k =-0.5000-0.1465 0.0000 (  5401 PWs)   bands (ev):

   -45.4397 -24.1305 -23.6882 -23.4067 -20.8635 -12.8059  -3.5178  -3.1527
    -2.9007  -2.5810  -1.4215  -0.8325   3.3713   6.5341   6.7001   7.4350
     7.9052  10.2775  10.6780  11.7298  12.3482  12.9358  13.4736  14.5249
    15.0309  15.9316

          k =-0.5000-0.0733 0.0000 (  5418 PWs)   bands (ev):

   -45.4397 -24.0756 -23.6864 -23.4771 -20.8530 -12.8051  -3.4386  -3.1342
    -2.9022  -2.4490  -1.4613  -1.1184   3.6276   6.2341   6.6543   7.3353
     7.8451  10.3744  10.8086  11.9528  12.5802  13.0352  13.8783  14.5009
    14.8694  16.1118

          k =-0.5000-0.0000 0.0000 (  5416 PWs)   bands (ev):

   -45.4397 -24.0491 -23.6847 -23.5108 -20.8487 -12.8048  -3.4177  -3.1098
    -2.8990  -2.3789  -1.5033  -1.2326   3.7554   6.0205   6.7110   7.2593
     7.8635  10.3890  10.8773  12.0071  12.7313  13.1179  14.1498  14.4661
    14.7502  15.6892

     highest occupied, lowest unoccupied level (ev):     4.0967    5.3271

!    total energy              =    -446.24447530 Ry
     total all-electron energy =     -8320.714755 Ry
     estimated scf accuracy    <          1.5E-11 Ry

     The total energy is the sum of the following terms:
     one-electron contribution =    -304.81898225 Ry
     hartree contribution      =     160.67167180 Ry
     xc contribution           =     -38.52963908 Ry
     ewald contribution        =       3.05832043 Ry
     one-center paw contrib.   =    -266.62584621 Ry

     convergence has been achieved in   6 iterations

     negative rho (up, down):  8.144E-05 0.000E+00

     Forces acting on atoms (cartesian axes, Ry/au):

     atom    1 type  1   force =     0.00000000   -0.00027397    0.00000111
     atom    2 type  2   force =     0.00000000   -0.00013458    0.00017784
     atom    3 type  3   force =     0.00000000    0.00040856   -0.00017895
     The non-local contrib.  to forces
     atom    1 type  1   force =     0.00000000   -0.00312315   -0.02112220
     atom    2 type  2   force =     0.00000000   -0.01960917   -1.11485713
     atom    3 type  3   force =     0.00000000   -0.00083671    0.22356596
     The ionic contribution  to forces
     atom    1 type  1   force =    -0.00000001   -0.16029356   -0.43462294
     atom    2 type  2   force =     0.00000001    0.10568937   27.12684190
     atom    3 type  3   force =     0.00000000    0.05460419  -26.69221897
     The local contribution  to forces
     atom    1 type  1   force =    -0.00000000    0.16295208    0.45207871
     atom    2 type  2   force =     0.00000027   -0.08632163  -26.01542005
     atom    3 type  3   force =     0.00000003   -0.05322515   26.47557389
     The core correction contribution to forces
     atom    1 type  1   force =     0.00000000    0.00013697    0.00364102
     atom    2 type  2   force =     0.00000000    0.00005374    0.00359409
     atom    3 type  3   force =    -0.00000000   -0.00018666   -0.00712203
     The Hubbard contrib.    to forces
     atom    1 type  1   force =     0.00000000    0.00000000    0.00000000
     atom    2 type  2   force =     0.00000000    0.00000000    0.00000000
     atom    3 type  3   force =     0.00000000    0.00000000    0.00000000
     The SCF correction term to forces
     atom    1 type  1   force =    -0.00000000    0.00000025    0.00000326
     atom    2 type  2   force =    -0.00000000   -0.00000033   -0.00000424
     atom    3 type  3   force =     0.00000000   -0.00000056   -0.00000107

     Total force =     0.000569     Total SCF correction =     0.000005
     Energy error            =      6.4E-07 Ry
     Gradient error          =      4.1E-04 Ry/Bohr

     number of scf cycles    =   6
     number of bfgs steps    =   5

     energy             old  =    -446.2444746641 Ry
     energy             new  =    -446.2444753033 Ry

     CASE: energy            _new < energy            _old

     new trust radius        =       0.0010640423 bohr
     new conv_thr            =            1.0E-10 Ry


ATOMIC_POSITIONS (angstrom)
Zr           -0.0000000000        0.0170365805        9.5700341487
F            -0.0000000020        1.8731158949       10.9145941589
Cl           -0.0000000020        1.8728682333        7.8015466009



     Writing config-only to output data dir ./tmp/ZrFCl.save/
     NEW-OLD atomic charge density approx. for the potential

     Check: negative core charge=   -0.000005

     negative rho (up, down):  8.131E-05 0.000E+00

     total cpu time spent up to now is       68.6 secs

     Self-consistent Calculation

     iteration #  1     ecut=    65.00 Ry     beta= 0.70
     Davidson diagonalization with overlap
     ethr =  1.00E-06,  avg # of iterations =  2.0

     Threshold (ethr) on eigenvalues was too large:
     Diagonalizing with lowered threshold

     Davidson diagonalization with overlap
     ethr =  4.31E-10,  avg # of iterations =  4.0

     negative rho (up, down):  8.127E-05 0.000E+00

     total cpu time spent up to now is       71.6 secs

     total energy              =    -446.24447580 Ry
     estimated scf accuracy    <       0.00000012 Ry

     iteration #  2     ecut=    65.00 Ry     beta= 0.70
     Davidson diagonalization with overlap
     ethr =  4.73E-10,  avg # of iterations =  2.0

     negative rho (up, down):  8.132E-05 0.000E+00

     total cpu time spent up to now is       72.9 secs

     total energy              =    -446.24447580 Ry
     estimated scf accuracy    <       0.00000021 Ry

     iteration #  3     ecut=    65.00 Ry     beta= 0.70
     Davidson diagonalization with overlap
     ethr =  4.73E-10,  avg # of iterations =  1.8

     negative rho (up, down):  8.134E-05 0.000E+00

     total cpu time spent up to now is       74.1 secs

     total energy              =    -446.24447585 Ry
     estimated scf accuracy    <       0.00000001 Ry

     iteration #  4     ecut=    65.00 Ry     beta= 0.70
     Davidson diagonalization with overlap
     ethr =  5.14E-11,  avg # of iterations =  2.0

     negative rho (up, down):  8.134E-05 0.000E+00

     total cpu time spent up to now is       75.4 secs

     total energy              =    -446.24447585 Ry
     estimated scf accuracy    <          1.6E-09 Ry

     iteration #  5     ecut=    65.00 Ry     beta= 0.70
     Davidson diagonalization with overlap
     ethr =  5.98E-12,  avg # of iterations =  2.0

     negative rho (up, down):  8.135E-05 0.000E+00

     total cpu time spent up to now is       76.6 secs

     total energy              =    -446.24447585 Ry
     estimated scf accuracy    <          3.0E-10 Ry

     iteration #  6     ecut=    65.00 Ry     beta= 0.70
     Davidson diagonalization with overlap
     ethr =  1.15E-12,  avg # of iterations =  2.0

     negative rho (up, down):  8.135E-05 0.000E+00

     total cpu time spent up to now is       77.9 secs

     End of self-consistent calculation

          k = 0.0000 0.0000 0.0000 (  5391 PWs)   bands (ev):

   -45.5306 -24.1227 -23.1776 -23.1528 -20.9586 -13.5225  -3.6093  -2.7428
    -2.7062  -1.6661   0.1195   0.2099   3.4590   5.4397   5.6433   5.9496
     6.7810   6.8600   7.8662   8.7979  11.1293  13.8211  14.5742  14.8134
    15.5430  17.2573

          k = 0.0000 0.0733 0.0000 (  5395 PWs)   bands (ev):

   -45.5270 -24.1105 -23.1966 -23.1847 -20.9473 -13.4974  -3.5694  -2.7538
    -2.7437  -1.6514   0.0417   0.0871   3.4765   5.5025   5.5824   6.0400
     6.8135   6.8299   7.9992   8.9980  11.2640  13.9053  14.4946  14.6809
    15.3709  17.2270

          k = 0.0000 0.1465 0.0000 (  5413 PWs)   bands (ev):

   -45.5168 -24.0764 -23.3158 -23.2048 -20.9204 -13.4245  -3.4636  -2.8726
    -2.7483  -1.6281  -0.3891  -0.0019   3.5010   5.4790   5.6955   6.1517
     6.8983   6.9600   8.3599   9.4467  11.6544  13.7896  14.1050  14.9990
    15.0827  17.1361

          k = 0.0000 0.2198 0.0000 (  5385 PWs)   bands (ev):

   -45.5014 -24.0282 -23.4787 -23.2346 -20.8919 -13.3118  -3.3388  -3.0076
    -2.7598  -1.6475  -0.9178  -0.1268   3.4721   5.4852   6.0241   6.1712
     7.1339   7.2702   8.8653   9.9510  12.1321  13.3329  13.8529  15.3150
    15.5171  16.9836

          k = 0.0000 0.2931 0.0000 (  5383 PWs)   bands (ev):

   -45.4832 -23.9864 -23.6400 -23.2696 -20.8734 -13.1730  -3.3125  -3.0543
    -2.7804  -1.8544  -1.2870  -0.2629   3.3725   5.6679   6.2533   6.4757
     7.3183   7.7753   9.4011  10.4283  12.1358  13.2405  13.9390  15.8698
    16.1601  16.8073

          k = 0.0000 0.3663 0.0000 (  5420 PWs)   bands (ev):

   -45.4650 -24.0042 -23.7275 -23.3043 -20.8683 -13.0268  -3.4153  -3.0057
    -2.8079  -2.2756  -1.3744  -0.3882   3.2562   5.9376   6.4717   6.9843
     7.5193   8.3455   9.8393  10.8269  12.0150  13.0308  14.7242  15.6720
    16.2284  16.5723

          k = 0.0000 0.4396 0.0000 (  5404 PWs)   bands (ev):

   -45.4494 -24.0921 -23.7190 -23.3334 -20.8731 -12.8965  -3.5277  -3.0039
    -2.8360  -2.6258  -1.3806  -0.4871   3.1739   6.1782   6.7655   7.3402
     7.8595   8.9649  10.1339  11.1535  12.1215  12.9769  14.3943  15.2386
    15.7970  16.1429

          k = 0.0000 0.5129 0.0000 (  5408 PWs)   bands (ev):

   -45.4390 -24.1693 -23.6903 -23.3528 -20.8805 -12.8058  -3.6142  -3.0836
    -2.8570  -2.7787  -1.3741  -0.5497   3.1346   6.3582   6.9566   7.4657
     8.2781   9.5947  10.3877  11.4224  12.2256  12.9388  13.5564  14.9088
    15.3631  15.4094

          k = 0.0000-0.5861 0.0000 (  5402 PWs)   bands (ev):

   -45.4353 -24.1977 -23.6781 -23.3596 -20.8839 -12.7731  -3.6486  -3.1329
    -2.8648  -2.8085  -1.3708  -0.5711   3.1243   6.4330   7.0029   7.4969
     8.4604   9.9538  10.4872  11.6479  12.0737  12.6727  13.5992  14.5233
    15.1759  15.2040

          k = 0.0625 0.0366 0.0000 (  5403 PWs)   bands (ev):

   -45.5272 -24.1110 -23.2159 -23.1635 -20.9475 -13.4984  -3.5702  -2.7826
    -2.7128  -1.6529  -0.0283   0.1640   3.4720   5.4170   5.6804   6.0339
     6.7595   6.8962   7.9920   8.9892  11.2586  13.9026  14.3434  14.8697
    15.3475  17.2794

          k = 0.0625 0.1099 0.0000 (  5403 PWs)   bands (ev):

   -45.5203 -24.0879 -23.2845 -23.1899 -20.9284 -13.4494  -3.4969  -2.8461
    -2.7354  -1.6340  -0.2800   0.0564   3.4927   5.4335   5.7101   6.1365
     6.8006   6.9642   8.2397   9.3101  11.5247  13.9143  14.1013  14.8785
    15.1929  17.1744

          k = 0.0625 0.1832 0.0000 (  5388 PWs)   bands (ev):

   -45.5075 -24.0464 -23.4183 -23.2221 -20.9011 -13.3565  -3.3768  -2.9653
    -2.7548  -1.6290  -0.7300  -0.0825   3.4949   5.4008   5.9540   6.1906
     6.9852   7.1794   8.6746   9.7746  12.0107  13.4258  13.9464  14.9815
    15.5152  16.9846

          k = 0.0625 0.2564 0.0000 (  5389 PWs)   bands (ev):

   -45.4908 -23.9993 -23.5763 -23.2602 -20.8782 -13.2304  -3.2842  -3.0628
    -2.7803  -1.7218  -1.1752  -0.2383   3.4398   5.4863   6.1888   6.4119
     7.1917   7.5908   9.2007  10.2618  12.3287  13.2295  13.6521  15.4551
    16.0761  16.7848

          k = 0.0625 0.3297 0.0000 (  5397 PWs)   bands (ev):

   -45.4725 -23.9816 -23.7006 -23.3003 -20.8670 -13.0873  -3.3435  -3.0304
    -2.8149  -2.0609  -1.3592  -0.3912   3.3449   5.7405   6.3071   6.8942
     7.3919   8.1318   9.6993  10.7139  12.1453  13.1183  14.1668  15.8156
    16.2695  16.6323

          k = 0.0625 0.4030 0.0000 (  5408 PWs)   bands (ev):

   -45.4556 -24.0421 -23.7274 -23.3370 -20.8674 -12.9481  -3.4555  -2.9925
    -2.8573  -2.4461  -1.3867  -0.5226   3.2618   6.0707   6.5076   7.2582
     7.6809   8.7743  10.0714  11.0876  12.1159  12.9816  14.8591  15.0462
    15.8073  16.5593

          k = 0.0625 0.4762 0.0000 (  5406 PWs)   bands (ev):

   -45.4426 -24.1288 -23.7008 -23.3648 -20.8739 -12.8365  -3.5509  -3.0578
    -2.8861  -2.6653  -1.3840  -0.6180   3.2161   6.3272   6.7719   7.4088
     8.0147   9.5036  10.3500  11.3802  12.2408  13.0109  13.8813  14.9613
    15.3264  16.0478

          k = 0.0625 0.5495 0.0000 (  5410 PWs)   bands (ev):

   -45.4356 -24.1813 -23.6785 -23.3799 -20.8795 -12.7740  -3.6091  -3.1525
    -2.8944  -2.7310  -1.3792  -0.6679   3.2005   6.4581   6.9555   7.4563
     8.2277  10.1275  10.5676  11.6196  12.1994  12.7811  13.5338  14.5423
    15.1376  15.4261

          k = 0.1250 0.0733 0.0000 (  5398 PWs)   bands (ev):

   -45.5176 -24.0783 -23.3301 -23.1832 -20.9207 -13.4286  -3.4663  -2.8946
    -2.7188  -1.6331  -0.4433   0.0772   3.4823   5.3722   5.8428   6.1357
     6.8693   7.0192   8.3378   9.4274  11.6341  13.7411  14.0520  15.0448
    15.1685  17.2389

          k = 0.1250 0.1465 0.0000 (  5400 PWs)   bands (ev):

   -45.5081 -24.0478 -23.4250 -23.2100 -20.9013 -13.3597  -3.3784  -2.9754
    -2.7396  -1.6332  -0.7572  -0.0357   3.4782   5.3786   6.0052   6.1810
     6.9876   7.1923   8.6610   9.7651  11.9964  13.4027  13.9262  14.9830
    15.5657  17.0293

          k = 0.1250 0.2198 0.0000 (  5391 PWs)   bands (ev):

   -45.4939 -24.0064 -23.5518 -23.2531 -20.8801 -13.2531  -3.2729  -3.0682
    -2.7779  -1.6870  -1.1224  -0.2212   3.4628   5.3749   6.2128   6.4324
     7.1132   7.5429   9.1214  10.2019  12.5412  13.0014  13.6004  15.2498
    16.1220  16.7568

          k = 0.1250 0.2931 0.0000 (  5394 PWs)   bands (ev):

   -45.4771 -23.9759 -23.6707 -23.3051 -20.8656 -13.1220  -3.2721  -3.0646
    -2.8313  -1.9147  -1.3449  -0.4330   3.4335   5.4909   6.3225   6.8824
     7.2951   8.0422   9.6255  10.6716  12.5416  13.1465  13.4790  15.5603
    16.1778  17.1575

          k = 0.1250 0.3663 0.0000 (  5406 PWs)   bands (ev):

   -45.4602 -24.0013 -23.7230 -23.3574 -20.8608 -12.9844  -3.3678  -2.9946
    -2.8985  -2.2565  -1.3997  -0.6336   3.4044   5.7750   6.4430   7.1446
     7.6319   8.7041  10.0785  11.1245  12.3413  13.0045  14.2178  15.1685
    15.9914  16.5309

          k = 0.1250 0.4396 0.0000 (  5423 PWs)   bands (ev):

   -45.4458 -24.0755 -23.7070 -23.4020 -20.8638 -12.8619  -3.4570  -3.0470
    -2.9172  -2.5037  -1.4068  -0.7971   3.3929   6.1855   6.5423   7.2910
     7.8882   9.5293  10.4357  11.4940  12.3373  12.9848  14.3509  14.7388
    15.2481  16.4388

          k = 0.1250 0.5129 0.0000 (  5412 PWs)   bands (ev):

   -45.4362 -24.1381 -23.6795 -23.4320 -20.8690 -12.7768  -3.5172  -3.1774
    -2.9063  -2.6051  -1.4053  -0.9035   3.3973   6.5225   6.6879   7.3919
     7.9392  10.3624  10.7338  11.7151  12.3794  13.0208  13.5351  14.5413
    15.0904  15.9627

          k = 0.1250 0.5861 0.0000 (  5398 PWs)   bands (ev):

   -45.4328 -24.1612 -23.6679 -23.4426 -20.8715 -12.7463  -3.5387  -3.2347
    -2.9045  -2.6281  -1.4043  -0.9404   3.4016   6.5619   6.8840   7.4078
     7.9196  10.6426  11.0615  11.8924  12.1697  12.7624  13.5411  14.3622
    15.2249  15.3917

          k = 0.1250 0.0000 0.0000 (  5396 PWs)   bands (ev):

   -45.5209 -24.0892 -23.2943 -23.1749 -20.9287 -13.4525  -3.4989  -2.8628
    -2.7130  -1.6376  -0.3133   0.1060   3.4825   5.3445   5.8283   6.1219
     6.8098   6.9823   8.2214   9.2938  11.5105  13.8775  14.0513  14.9623
    15.2308  17.2458

          k = 0.1875 0.1099 0.0000 (  5410 PWs)   bands (ev):

   -45.5032 -24.0323 -23.4884 -23.2105 -20.8921 -13.3209  -3.3425  -3.0246
    -2.7289  -1.6592  -0.9559  -0.0384   3.4342   5.4310   6.1263   6.1750
     7.1779   7.2564   8.8294   9.9296  12.1023  13.2887  13.8097  15.2722
    15.6627  17.0882

          k = 0.1875 0.1832 0.0000 (  5412 PWs)   bands (ev):

   -45.4923 -24.0032 -23.5834 -23.2402 -20.8782 -13.2385  -3.2866  -3.0747
    -2.7568  -1.7376  -1.1997  -0.1619   3.4022   5.4804   6.1946   6.4530
     7.2210   7.5824   9.1745  10.2498  12.3178  13.1818  13.6186  15.4279
    16.1595  16.8385

          k = 0.1875 0.2564 0.0000 (  5406 PWs)   bands (ev):

   -45.4780 -23.9784 -23.6739 -23.2942 -20.8654 -13.1270  -3.2743  -3.0682
    -2.8199  -1.9274  -1.3518  -0.3920   3.4115   5.4962   6.3237   6.8934
     7.3130   8.0359   9.6131  10.6687  12.5511  13.1292  13.4360  15.5463
    16.1907  17.0689

          k = 0.1875 0.3297 0.0000 (  5407 PWs)   bands (ev):

   -45.4625 -23.9880 -23.7188 -23.3631 -20.8577 -13.0008  -3.3247  -3.0025
    -2.9124  -2.1776  -1.4114  -0.6707   3.4667   5.5983   6.5090   7.0506
     7.6464   8.6811  10.0826  11.1441  12.6578  12.9720  13.7034  15.0814
    16.3395  16.4479

          k = 0.1875 0.4030 0.0000 (  5422 PWs)   bands (ev):

   -45.4482 -24.0369 -23.7087 -23.4327 -20.8561 -12.8787  -3.3887  -3.0360
    -2.9365  -2.3777  -1.4375  -0.9351   3.5479   5.8481   6.6475   7.1175
     7.9025   9.5306  10.5299  11.6113  12.6261  12.9118  14.2426  14.5322
    15.4155  16.2584

          k = 0.1875 0.4762 0.0000 (  5410 PWs)   bands (ev):

   -45.4371 -24.0881 -23.6805 -23.4891 -20.8583 -12.7814  -3.4445  -3.1594
    -2.9035  -2.4802  -1.4574  -1.1345   3.6260   6.2327   6.6569   7.2798
     7.8900  10.4454  10.9079  11.9323  12.5586  13.0553  13.9448  14.5157
    14.9113  16.0716

          k = 0.1875 0.5495 0.0000 (  5413 PWs)   bands (ev):

   -45.4312 -24.1178 -23.6608 -23.5210 -20.8607 -12.7271  -3.4796  -3.2366
    -2.8930  -2.5123  -1.4761  -1.2355   3.6737   6.5990   6.6455   7.4153
     7.6989  10.8666  11.5497  12.0408  12.4654  12.9500  13.5734  14.4618
    15.0454  15.7694

          k = 0.1875-0.0366 0.0000 (  5411 PWs)   bands (ev):

   -45.5091 -24.0498 -23.4248 -23.2033 -20.9011 -13.3644  -3.3806  -2.9802
    -2.7274  -1.6373  -0.7552  -0.0207   3.4713   5.3251   6.0829   6.1794
     7.0412   7.1559   8.6387   9.7518  11.9803  13.3951  13.9101  15.0032
    15.6080  17.0429

          k = 0.2500 0.1465 0.0000 (  5412 PWs)   bands (ev):

   -45.4861 -23.9927 -23.6454 -23.2422 -20.8726 -13.1881  -3.3167  -3.0657
    -2.7465  -1.8768  -1.3059  -0.1637   3.3222   5.6530   6.2356   6.5693
     7.3669   7.7504   9.3576  10.4106  12.1232  13.1930  13.8649  15.8092
    16.2801  16.8556

          k = 0.2500 0.2198 0.0000 (  5409 PWs)   bands (ev):

   -45.4752 -23.9876 -23.7062 -23.2743 -20.8662 -13.1016  -3.3485  -3.0370
    -2.7857  -2.0862  -1.3735  -0.2949   3.2945   5.7452   6.3055   6.9360
     7.4331   8.1115   9.6669  10.7070  12.1365  13.0797  14.0724  15.7549
    16.2829  16.5789

          k = 0.2500 0.2931 0.0000 (  5404 PWs)   bands (ev):

   -45.4622 -24.0056 -23.7273 -23.3381 -20.8599 -12.9955  -3.3721  -2.9934
    -2.8833  -2.2737  -1.4081  -0.5641   3.3674   5.7802   6.4464   7.1613
     7.6548   8.6927  10.0610  11.1283  12.3419  12.9850  14.1234  15.1334
    15.8940  16.5244

          k = 0.2500 0.3663 0.0000 (  5407 PWs)   bands (ev):

   -45.4493 -24.0387 -23.7111 -23.4230 -20.8553 -12.8850  -3.3903  -3.0256
    -2.9406  -2.3833  -1.4402  -0.9027   3.5310   5.8461   6.6538   7.1220
     7.9097   9.5249  10.5240  11.6202  12.6387  12.9052  14.1870  14.4896
    15.3378  16.2958

          k = 0.2500 0.4396 0.0000 (  5412 PWs)   bands (ev):

   -45.4383 -24.0652 -23.6823 -23.5105 -20.8532 -12.7874  -3.4246  -3.1323
    -2.9010  -2.4201  -1.5010  -1.2077   3.7319   6.0198   6.7293   7.2001
     7.9144  10.4470  10.9850  12.0038  12.7716  13.0402  14.1443  14.4760
    14.7268  15.6814

          k = 0.2500 0.5129 0.0000 (  5416 PWs)   bands (ev):

   -45.4309 -24.0775 -23.6584 -23.5781 -20.8528 -12.7202  -3.4824  -3.1629
    -2.8757  -2.4143  -1.6349  -1.3542   3.8942   6.3113   6.6656   7.3580
     7.7198  10.9690  11.6049  12.0864  12.9593  13.3343  13.7852  14.3739
    14.7850  15.4575

          k = 0.2500 0.5861 0.0000 (  5424 PWs)   bands (ev):

   -45.4283 -24.0802 -23.6489 -23.6045 -20.8528 -12.6961  -3.5113  -3.1617
    -2.8676  -2.4038  -1.7160  -1.3828   3.9556   6.5289   6.6181   7.3327
     7.6379  10.9880  12.0963  12.5230  12.5725  13.1570  13.8311  14.3487
    14.9460  15.7404

          k = 0.2500-0.0733 0.0000 (  5425 PWs)   bands (ev):

   -45.4934 -24.0047 -23.5781 -23.2389 -20.8773 -13.2443  -3.2873  -3.0736
    -2.7501  -1.7349  -1.1873  -0.1683   3.4053   5.4498   6.2035   6.4936
     7.2416   7.5634   9.1542  10.2398  12.3148  13.1912  13.6220  15.4482
    16.1365  16.8225

          k = 0.2500 0.0000 0.0000 (  5418 PWs)   bands (ev):

   -45.4960 -24.0101 -23.5475 -23.2437 -20.8789 -13.2637  -3.2756  -3.0716
    -2.7595  -1.6916  -1.1123  -0.2014   3.4522   5.3312   6.2378   6.4932
     7.1529   7.5159   9.0830  10.1835  12.5179  13.0134  13.5909  15.2538
    16.1401  16.7581

          k = 0.3125 0.1832 0.0000 (  5396 PWs)   bands (ev):

   -45.4689 -24.0092 -23.7328 -23.2736 -20.8661 -13.0486  -3.4198  -3.0098
    -2.7700  -2.2936  -1.3908  -0.2793   3.2019   5.9469   6.4540   7.0408
     7.5681   8.3123   9.7971  10.8179  11.9929  12.9840  14.6008  15.5389
    16.3400  16.4871

          k = 0.3125 0.2564 0.0000 (  5404 PWs)   bands (ev):

   -45.4593 -24.0465 -23.7342 -23.3066 -20.8652 -12.9690  -3.4617  -2.9904
    -2.8275  -2.4628  -1.4025  -0.4140   3.2071   6.0812   6.4977   7.2953
     7.7157   8.7487  10.0428  11.0902  12.0871  12.9340  14.6993  14.9450
    15.8465  16.4893

          k = 0.3125 0.3297 0.0000 (  5411 PWs)   bands (ev):

   -45.4490 -24.0785 -23.7134 -23.3772 -20.8614 -12.8797  -3.4622  -3.0283
    -2.9161  -2.5089  -1.4188  -0.7117   3.3506   6.1833   6.5456   7.3129
     7.9037   9.5122  10.4217  11.5139  12.3160  12.9500  14.2426  14.6339
    15.2043  16.3701

          k = 0.3125 0.4030 0.0000 (  5412 PWs)   bands (ev):

   -45.4393 -24.0891 -23.6854 -23.4731 -20.8562 -12.7942  -3.4446  -3.1496
    -2.9046  -2.4796  -1.4595  -1.0870   3.6030   6.2139   6.6706   7.2895
     7.8999  10.4209  10.9038  11.9697  12.5698  13.0309  13.8251  14.4763
    14.8239  16.1050

          k = 0.3125 0.4762 0.0000 (  5424 PWs)   bands (ev):

   -45.4320 -24.0768 -23.6611 -23.5715 -20.8515 -12.7267  -3.4789  -3.1606
    -2.8756  -2.4131  -1.6194  -1.3514   3.8887   6.2918   6.6732   7.3627
     7.7278  10.9451  11.6009  12.1102  13.0017  13.2986  13.6884  14.4095
    14.7387  15.4786

          k = 0.3125 0.5495 0.0000 (  5435 PWs)   bands (ev):

   -45.4280 -24.0572 -23.6476 -23.6383 -20.8487 -12.6895  -3.5305  -3.1075
    -2.8489  -2.3276  -1.8773  -1.4108   4.0879   6.4404   6.6219   7.2209
     7.7126  10.9768  12.1008  12.5157  13.3059  13.4563  13.6066  14.0996
    14.9652  15.6850

          k = 0.3125-0.1099 0.0000 (  5415 PWs)   bands (ev):

   -45.4763 -23.9862 -23.7016 -23.2761 -20.8646 -13.1076  -3.3451  -3.0365
    -2.7814  -2.0686  -1.3707  -0.3115   3.3058   5.7362   6.3134   6.9434
     7.4355   8.1004   9.6499  10.6973  12.1444  13.0851  14.1032  15.7664
    16.2454  16.5805

          k = 0.3125-0.0366 0.0000 (  5418 PWs)   bands (ev):

   -45.4802 -23.9789 -23.6652 -23.2930 -20.8629 -13.1389  -3.2703  -3.0682
    -2.8081  -1.9064  -1.3432  -0.4053   3.4207   5.4709   6.3472   6.9190
     7.3225   8.0158   9.5786  10.6524  12.5686  13.1385  13.4545  15.5367
    16.1283  17.0798

          k = 0.3750 0.2198 0.0000 (  5415 PWs)   bands (ev):

   -45.4543 -24.0928 -23.7279 -23.2999 -20.8693 -12.9242  -3.5336  -2.9986
    -2.7942  -2.6359  -1.4005  -0.3707   3.1188   6.1956   6.7563   7.3804
     7.8834   8.9235  10.0971  11.1461  12.0744  12.9118  14.2511  15.1256
    15.9099  16.0199

          k = 0.3750 0.2931 0.0000 (  5419 PWs)   bands (ev):

   -45.4473 -24.1297 -23.7103 -23.3318 -20.8701 -12.8633  -3.5591  -3.0421
    -2.8673  -2.6624  -1.4034  -0.5038   3.1618   6.3465   6.7530   7.4514
     8.0189   9.4751  10.3272  11.3810  12.1821  12.9379  13.7603  14.8848
    15.3053  16.0068

          k = 0.3750 0.3663 0.0000 (  5409 PWs)   bands (ev):

   -45.4403 -24.1378 -23.6882 -23.4047 -20.8651 -12.8005  -3.5228  -3.1580
    -2.9019  -2.5946  -1.4206  -0.8141   3.3566   6.5468   6.6557   7.4243
     7.9387  10.3203  10.7373  11.7415  12.3151  12.9424  13.4598  14.4957
    15.0086  15.9143

          k = 0.3750 0.4396 0.0000 (  5413 PWs)   bands (ev):

   -45.4343 -24.1153 -23.6679 -23.5030 -20.8570 -12.7457  -3.4758  -3.2254
    -2.8910  -2.5014  -1.4736  -1.1928   3.6543   6.5662   6.6562   7.4400
     7.7029  10.8104  11.5526  12.1053  12.3922  12.9035  13.5181  14.3927
    15.0075  15.7133

          k = 0.3750 0.5129 0.0000 (  5429 PWs)   bands (ev):

   -45.4303 -24.0751 -23.6537 -23.5968 -20.8499 -12.7084  -3.5040  -3.1542
    -2.8657  -2.3925  -1.6944  -1.3893   3.9566   6.4958   6.6247   7.3322
     7.6576  10.9377  12.1382  12.4311  12.5269  13.2429  13.7899  14.3212
    14.9472  15.6729

          k = 0.3750 0.5861 0.0000 (  5448 PWs)   bands (ev):

   -45.4289 -24.0522 -23.6481 -23.6396 -20.8472 -12.6952  -3.5270  -3.1013
    -2.8470  -2.3123  -1.8806  -1.4169   4.0959   6.4404   6.6122   7.2101
     7.7237  10.9498  12.1193  12.3923  13.3899  13.4100  13.7559  14.0060
    14.9399  15.6495

          k = 0.3750-0.1465 0.0000 (  5416 PWs)   bands (ev):

   -45.4603 -24.0411 -23.7338 -23.3094 -20.8634 -12.9743  -3.4567  -2.9901
    -2.8248  -2.4431  -1.4033  -0.4323   3.2209   6.0871   6.5100   7.2892
     7.7027   8.7317  10.0241  11.0794  12.0940  12.9353  14.7282  14.9815
    15.7903  16.5207

          k = 0.3750-0.0733 0.0000 (  5403 PWs)   bands (ev):

   -45.4643 -23.9978 -23.7242 -23.3417 -20.8566 -13.0070  -3.3637  -2.9937
    -2.8735  -2.2375  -1.4082  -0.5931   3.3892   5.7744   6.4608   7.1777
     7.6300   8.6669  10.0266  11.1098  12.3626  12.9911  14.1791  15.1113
    15.9097  16.4812

          k = 0.3750 0.0000 0.0000 (  5404 PWs)   bands (ev):

   -45.4657 -23.9817 -23.7148 -23.3606 -20.8536 -13.0183  -3.3165  -3.0027
    -2.8953  -2.1405  -1.4124  -0.6817   3.4790   5.5851   6.5316   7.0760
     7.6288   8.6495  10.0356  11.1240  12.7032  12.9871  13.6958  15.0440
    16.2776  16.4160

          k = 0.4375 0.2564 0.0000 (  5415 PWs)   bands (ev):

   -45.4445 -24.1672 -23.7017 -23.3175 -20.8756 -12.8377  -3.6226  -3.0687
    -2.8127  -2.7833  -1.3968  -0.4287   3.0791   6.3748   6.9640   7.5110
     8.2584   9.5450  10.3543  11.4026  12.1433  12.8297  13.4787  14.8122
    15.2716  15.5227

          k = 0.4375 0.3297 0.0000 (  5431 PWs)   bands (ev):

   -45.4409 -24.1792 -23.6898 -23.3461 -20.8746 -12.8050  -3.6181  -3.1318
    -2.8780  -2.7139  -1.4009  -0.5540   3.1488   6.4761   6.9529   7.5018
     8.1989  10.0795  10.5586  11.5999  12.0877  12.6836  13.4828  14.4747
    15.0667  15.4707

          k = 0.4375 0.4030 0.0000 (  5415 PWs)   bands (ev):

   -45.4375 -24.1571 -23.6781 -23.4158 -20.8663 -12.7739  -3.5426  -3.2118
    -2.8977  -2.6078  -1.4212  -0.8565   3.3668   6.5758   6.8753   7.4460
     7.8957  10.5667  11.0703  11.9033  12.0549  12.6994  13.5018  14.2952
    15.1542  15.3955

          k = 0.4375 0.4762 0.0000 (  5413 PWs)   bands (ev):

   -45.4349 -24.1102 -23.6688 -23.5053 -20.8557 -12.7495  -3.4736  -3.2179
    -2.8897  -2.4907  -1.4741  -1.2055   3.6634   6.6012   6.6322   7.4580
     7.6698  10.7909  11.4560  12.0930  12.4636  12.9124  13.5138  14.4119
    15.0152  15.7427

          k = 0.4375 0.5495 0.0000 (  5428 PWs)   bands (ev):

   -45.4336 -24.0660 -23.6632 -23.5751 -20.8486 -12.7362  -3.4743  -3.1450
    -2.8726  -2.3853  -1.6275  -1.3688   3.9069   6.3051   6.6534   7.3804
     7.7007  10.9077  11.4713  12.1315  12.9540  13.3819  13.7493  14.3844
    14.7410  15.4957

          k = 0.4375-0.1832 0.0000 (  5416 PWs)   bands (ev):

   -45.4479 -24.1249 -23.7110 -23.3342 -20.8688 -12.8670  -3.5544  -3.0407
    -2.8661  -2.6497  -1.4045  -0.5175   3.1724   6.3446   6.7852   7.4441
     8.0027   9.4420  10.3029  11.3742  12.1898  12.9311  13.7767  14.9303
    15.2653  16.0353

          k = 0.4375-0.1099 0.0000 (  5406 PWs)   bands (ev):

   -45.4505 -24.0677 -23.7145 -23.3820 -20.8584 -12.8888  -3.4536  -3.0227
    -2.9111  -2.4798  -1.4207  -0.7409   3.3729   6.1973   6.5504   7.3346
     7.8601   9.4690  10.3747  11.4947  12.3337  12.9412  14.2711  14.6878
    15.2079  16.3925

          k = 0.4375-0.0366 0.0000 (  5418 PWs)   bands (ev):

   -45.4519 -24.0245 -23.7121 -23.4269 -20.8509 -12.9004  -3.3803  -3.0108
    -2.9368  -2.3388  -1.4431  -0.9343   3.5570   5.8444   6.6507   7.1654
     7.8619   9.4758  10.4627  11.5968  12.6697  12.9099  14.2141  14.4960
    15.3777  16.2402

          k =-0.5000-0.2931 0.0000 (  5428 PWs)   bands (ev):

   -45.4411 -24.1948 -23.6902 -23.3236 -20.8786 -12.8066  -3.6583  -3.1149
    -2.8211  -2.8091  -1.3944  -0.4485   3.0686   6.4475   7.0195   7.5446
     8.4210   9.8927  10.4721  11.6132  11.9496  12.5797  13.5343  14.4439
    15.0661  15.3453

          k =-0.5000-0.2198 0.0000 (  5413 PWs)   bands (ev):

   -45.4411 -24.1774 -23.6901 -23.3470 -20.8741 -12.8063  -3.6161  -3.1309
    -2.8776  -2.7099  -1.4013  -0.5591   3.1528   6.4717   6.9753   7.4948
     8.1947  10.0511  10.5476  11.5945  12.1060  12.6832  13.4756  14.4880
    15.0887  15.4583

          k =-0.5000-0.1465 0.0000 (  5401 PWs)   bands (ev):

   -45.4411 -24.1310 -23.6894 -23.4079 -20.8633 -12.8056  -3.5170  -3.1519
    -2.8999  -2.5804  -1.4218  -0.8319   3.3701   6.5326   6.6991   7.4332
     7.9035  10.2767  10.6770  11.7299  12.3473  12.9358  13.4737  14.5244
    15.0310  15.9304

          k =-0.5000-0.0733 0.0000 (  5418 PWs)   bands (ev):

   -45.4411 -24.0762 -23.6876 -23.4783 -20.8528 -12.8048  -3.4377  -3.1333
    -2.9014  -2.4486  -1.4613  -1.1181   3.6265   6.2326   6.6527   7.3339
     7.8433  10.3743  10.8068  11.9532  12.5795  13.0349  13.8780  14.5006
    14.8691  16.1116

          k =-0.5000-0.0000 0.0000 (  5416 PWs)   bands (ev):

   -45.4411 -24.0497 -23.6859 -23.5121 -20.8485 -12.8045  -3.4167  -3.1089
    -2.8982  -2.3785  -1.5031  -1.2325   3.7546   6.0188   6.7093   7.2581
     7.8616  10.3891  10.8753  12.0075  12.7310  13.1177  14.1490  14.4655
    14.7502  15.6894

     highest occupied, lowest unoccupied level (ev):     4.0959    5.3251

!    total energy              =    -446.24447585 Ry
     total all-electron energy =     -8320.714755 Ry
     estimated scf accuracy    <          1.6E-11 Ry

     The total energy is the sum of the following terms:
     one-electron contribution =    -304.74177996 Ry
     hartree contribution      =     160.63270015 Ry
     xc contribution           =     -38.52925846 Ry
     ewald contribution        =       3.01969488 Ry
     one-center paw contrib.   =    -266.62583246 Ry

     convergence has been achieved in   6 iterations

     negative rho (up, down):  8.135E-05 0.000E+00

     Forces acting on atoms (cartesian axes, Ry/au):

     atom    1 type  1   force =     0.00000000   -0.00016934   -0.00002458
     atom    2 type  2   force =     0.00000000   -0.00012043    0.00004431
     atom    3 type  3   force =     0.00000000    0.00028976   -0.00001973
     The non-local contrib.  to forces
     atom    1 type  1   force =     0.00000000   -0.00306875   -0.02111305
     atom    2 type  2   force =     0.00000000   -0.01962481   -1.11525649
     atom    3 type  3   force =     0.00000000   -0.00089470    0.22365541
     The ionic contribution  to forces
     atom    1 type  1   force =    -0.00000001   -0.15953277   -0.43640112
     atom    2 type  2   force =     0.00000001    0.10589183   27.12428670
     atom    3 type  3   force =     0.00000000    0.05364094  -26.68788558
     The local contribution  to forces
     atom    1 type  1   force =    -0.00000000    0.16224310    0.45382593
     atom    2 type  2   force =     0.00000027   -0.08649446  -26.01259948
     atom    3 type  3   force =     0.00000003   -0.05232622   26.47131423
     The core correction contribution to forces
     atom    1 type  1   force =     0.00000000    0.00013624    0.00363877
     atom    2 type  2   force =     0.00000000    0.00005388    0.00359606
     atom    3 type  3   force =    -0.00000000   -0.00018226   -0.00712226
     The Hubbard contrib.    to forces
     atom    1 type  1   force =     0.00000000    0.00000000    0.00000000
     atom    2 type  2   force =     0.00000000    0.00000000    0.00000000
     atom    3 type  3   force =     0.00000000    0.00000000    0.00000000
     The SCF correction term to forces
     atom    1 type  1   force =    -0.00000000   -0.00000077    0.00000404
     atom    2 type  2   force =     0.00000000   -0.00000047   -0.00000333
     atom    3 type  3   force =     0.00000000   -0.00000160   -0.00000238

     Total force =     0.000361     Total SCF correction =     0.000006
     Energy error            =      5.5E-07 Ry
     Gradient error          =      2.9E-04 Ry/Bohr

     number of scf cycles    =   7
     number of bfgs steps    =   6

     energy             old  =    -446.2444753033 Ry
     energy             new  =    -446.2444758500 Ry

     CASE: energy            _new < energy            _old

     new trust radius        =       0.0012826096 bohr
     new conv_thr            =            1.0E-10 Ry


ATOMIC_POSITIONS (angstrom)
Zr           -0.0000000000        0.0167108204        9.5700302271
F            -0.0000000020        1.8728331396       10.9148987140
Cl           -0.0000000020        1.8734767486        7.8012459674



     Writing config-only to output data dir ./tmp/ZrFCl.save/
     NEW-OLD atomic charge density approx. for the potential

     Check: negative core charge=   -0.000005

     negative rho (up, down):  8.128E-05 0.000E+00

     total cpu time spent up to now is       78.4 secs

     Self-consistent Calculation

     iteration #  1     ecut=    65.00 Ry     beta= 0.70
     Davidson diagonalization with overlap
     ethr =  1.00E-06,  avg # of iterations =  2.0

     Threshold (ethr) on eigenvalues was too large:
     Diagonalizing with lowered threshold

     Davidson diagonalization with overlap
     ethr =  4.16E-10,  avg # of iterations =  4.0

     negative rho (up, down):  8.123E-05 0.000E+00

     total cpu time spent up to now is       81.5 secs

     total energy              =    -446.24447612 Ry
     estimated scf accuracy    <       0.00000011 Ry

     iteration #  2     ecut=    65.00 Ry     beta= 0.70
     Davidson diagonalization with overlap
     ethr =  4.31E-10,  avg # of iterations =  2.0

     negative rho (up, down):  8.127E-05 0.000E+00

     total cpu time spent up to now is       82.8 secs

     total energy              =    -446.24447612 Ry
     estimated scf accuracy    <       0.00000013 Ry

     iteration #  3     ecut=    65.00 Ry     beta= 0.70
     Davidson diagonalization with overlap
     ethr =  4.31E-10,  avg # of iterations =  1.4

     negative rho (up, down):  8.128E-05 0.000E+00

     total cpu time spent up to now is       84.0 secs

     total energy              =    -446.24447615 Ry
     estimated scf accuracy    <       0.00000002 Ry

     iteration #  4     ecut=    65.00 Ry     beta= 0.70
     Davidson diagonalization with overlap
     ethr =  7.83E-11,  avg # of iterations =  1.1

     negative rho (up, down):  8.129E-05 0.000E+00

     total cpu time spent up to now is       85.1 secs

     total energy              =    -446.24447615 Ry
     estimated scf accuracy    <          1.4E-09 Ry

     iteration #  5     ecut=    65.00 Ry     beta= 0.70
     Davidson diagonalization with overlap
     ethr =  5.49E-12,  avg # of iterations =  2.0

     negative rho (up, down):  8.129E-05 0.000E+00

     total cpu time spent up to now is       86.4 secs

     total energy              =    -446.24447615 Ry
     estimated scf accuracy    <          3.5E-10 Ry

     iteration #  6     ecut=    65.00 Ry     beta= 0.70
     Davidson diagonalization with overlap
     ethr =  1.36E-12,  avg # of iterations =  2.0

     negative rho (up, down):  8.129E-05 0.000E+00

     total cpu time spent up to now is       87.7 secs

     End of self-consistent calculation

          k = 0.0000 0.0000 0.0000 (  5391 PWs)   bands (ev):

   -45.5318 -24.1232 -23.1787 -23.1538 -20.9582 -13.5226  -3.6086  -2.7416
    -2.7050  -1.6663   0.1195   0.2111   3.4572   5.4377   5.6423   5.9494
     6.7815   6.8582   7.8665   8.7980  11.1293  13.8221  14.5732  14.8131
    15.5403  17.2568

          k = 0.0000 0.0733 0.0000 (  5395 PWs)   bands (ev):

   -45.5282 -24.1111 -23.1976 -23.1857 -20.9470 -13.4974  -3.5687  -2.7526
    -2.7426  -1.6516   0.0428   0.0871   3.4748   5.5006   5.5813   6.0397
     6.8120   6.8302   7.9994   8.9981  11.2640  13.9061  14.4938  14.6799
    15.3692  17.2265

          k = 0.0000 0.1465 0.0000 (  5413 PWs)   bands (ev):

   -45.5180 -24.0770 -23.3167 -23.2058 -20.9200 -13.4244  -3.4630  -2.8715
    -2.7472  -1.6281  -0.3883  -0.0019   3.4996   5.4777   5.6938   6.1510
     6.8974   6.9600   8.3598   9.4466  11.6543  13.7891  14.1048  14.9982
    15.0824  17.1357

          k = 0.0000 0.2198 0.0000 (  5385 PWs)   bands (ev):

   -45.5026 -24.0288 -23.4796 -23.2357 -20.8917 -13.3118  -3.3381  -3.0066
    -2.7588  -1.6472  -0.9176  -0.1269   3.4712   5.4835   6.0227   6.1703
     7.1335   7.2697   8.8648   9.9508  12.1319  13.3323  13.8528  15.3154
    15.5165  16.9832

          k = 0.0000 0.2931 0.0000 (  5383 PWs)   bands (ev):

   -45.4844 -23.9870 -23.6409 -23.2706 -20.8731 -13.1729  -3.3117  -3.0536
    -2.7794  -1.8537  -1.2873  -0.2630   3.3720   5.6659   6.2522   6.4745
     7.3175   7.7748   9.4002  10.4279  12.1355  13.2407  13.9390  15.8702
    16.1597  16.8070

          k = 0.0000 0.3663 0.0000 (  5420 PWs)   bands (ev):

   -45.4662 -24.0047 -23.7285 -23.3053 -20.8680 -13.0267  -3.4144  -3.0050
    -2.8069  -2.2752  -1.3747  -0.3883   3.2558   5.9355   6.4704   6.9834
     7.5181   8.3447   9.8380  10.8263  12.0151  13.0313  14.7239  15.6726
    16.2283  16.5724

          k = 0.0000 0.4396 0.0000 (  5404 PWs)   bands (ev):

   -45.4506 -24.0925 -23.7200 -23.3345 -20.8728 -12.8963  -3.5268  -3.0033
    -2.8351  -2.6258  -1.3807  -0.4872   3.1735   6.1759   6.7641   7.3392
     7.8582   8.9634  10.1330  11.1528  12.1217  12.9775  14.3941  15.2392
    15.7970  16.1425

          k = 0.0000 0.5129 0.0000 (  5408 PWs)   bands (ev):

   -45.4402 -24.1696 -23.6914 -23.3539 -20.8802 -12.8055  -3.6133  -3.0833
    -2.8561  -2.7786  -1.3741  -0.5498   3.1342   6.3556   6.9553   7.4645
     8.2772   9.5925  10.3877  11.4217  12.2259  12.9393  13.5566  14.9090
    15.3632  15.4090

          k = 0.0000-0.5861 0.0000 (  5402 PWs)   bands (ev):

   -45.4365 -24.1980 -23.6791 -23.3606 -20.8836 -12.7729  -3.6477  -3.1328
    -2.8640  -2.8083  -1.3707  -0.5712   3.1240   6.4302   7.0017   7.4956
     8.4595   9.9510  10.4873  11.6477  12.0739  12.6732  13.5994  14.5235
    15.1760  15.2037

          k = 0.0625 0.0366 0.0000 (  5403 PWs)   bands (ev):

   -45.5284 -24.1116 -23.2169 -23.1645 -20.9471 -13.4985  -3.5695  -2.7815
    -2.7116  -1.6532  -0.0282   0.1652   3.4702   5.4151   5.6794   6.0337
     6.7596   6.8947   7.9922   8.9894  11.2586  13.9034  14.3426  14.8692
    15.3450  17.2791

          k = 0.0625 0.1099 0.0000 (  5403 PWs)   bands (ev):

   -45.5215 -24.0885 -23.2855 -23.1909 -20.9281 -13.4494  -3.4962  -2.8450
    -2.7342  -1.6341  -0.2794   0.0568   3.4911   5.4318   5.7087   6.1361
     6.8000   6.9636   8.2397   9.3102  11.5246  13.9142  14.1012  14.8776
    15.1919  17.1741

          k = 0.0625 0.1832 0.0000 (  5388 PWs)   bands (ev):

   -45.5087 -24.0470 -23.4191 -23.2232 -20.9008 -13.3565  -3.3761  -2.9643
    -2.7538  -1.6290  -0.7295  -0.0824   3.4938   5.3992   5.9525   6.1898
     6.9850   7.1788   8.6743   9.7746  12.0105  13.4250  13.9462  14.9817
    15.5146  16.9842

          k = 0.0625 0.2564 0.0000 (  5389 PWs)   bands (ev):

   -45.4919 -23.9999 -23.5771 -23.2613 -20.8780 -13.2304  -3.2834  -3.0620
    -2.7793  -1.7213  -1.1754  -0.2382   3.4392   5.4843   6.1875   6.4110
     7.1911   7.5902   9.2000  10.2616  12.3284  13.2292  13.6521  15.4556
    16.0755  16.7844

          k = 0.0625 0.3297 0.0000 (  5397 PWs)   bands (ev):

   -45.4737 -23.9821 -23.7015 -23.3014 -20.8668 -13.0872  -3.3426  -3.0297
    -2.8140  -2.0604  -1.3596  -0.3912   3.3445   5.7385   6.3057   6.8934
     7.3908   8.1312   9.6981  10.7135  12.1451  13.1187  14.1668  15.8153
    16.2694  16.6326

          k = 0.0625 0.4030 0.0000 (  5408 PWs)   bands (ev):

   -45.4568 -24.0425 -23.7284 -23.3380 -20.8671 -12.9479  -3.4546  -2.9919
    -2.8564  -2.4459  -1.3869  -0.5226   3.2615   6.0685   6.5061   7.2573
     7.6796   8.7733  10.0701  11.0871  12.1159  12.9822  14.8580  15.0475
    15.8072  16.5592

          k = 0.0625 0.4762 0.0000 (  5406 PWs)   bands (ev):

   -45.4438 -24.1291 -23.7018 -23.3659 -20.8736 -12.8363  -3.5501  -3.0573
    -2.8854  -2.6651  -1.3840  -0.6180   3.2158   6.3247   6.7706   7.4076
     8.0134   9.5021  10.3495  11.3795  12.2409  13.0114  13.8814  14.9616
    15.3261  16.0478

          k = 0.0625 0.5495 0.0000 (  5410 PWs)   bands (ev):

   -45.4367 -24.1816 -23.6795 -23.3809 -20.8792 -12.7738  -3.6082  -3.1522
    -2.8937  -2.7308  -1.3791  -0.6680   3.2002   6.4553   6.9543   7.4550
     8.2264  10.1252  10.5678  11.6190  12.1997  12.7815  13.5341  14.5424
    15.1374  15.4262

          k = 0.1250 0.0733 0.0000 (  5398 PWs)   bands (ev):

   -45.5188 -24.0789 -23.3311 -23.1842 -20.9204 -13.4287  -3.4655  -2.8935
    -2.7176  -1.6334  -0.4431   0.0781   3.4806   5.3704   5.8416   6.1355
     6.8691   7.0178   8.3379   9.4277  11.6339  13.7405  14.0522  15.0429
    15.1682  17.2381

          k = 0.1250 0.1465 0.0000 (  5400 PWs)   bands (ev):

   -45.5093 -24.0484 -23.4259 -23.2111 -20.9010 -13.3596  -3.3776  -2.9744
    -2.7386  -1.6333  -0.7568  -0.0351   3.4768   5.3768   6.0039   6.1804
     6.9874   7.1914   8.6608   9.7653  11.9962  13.4020  13.9258  14.9830
    15.5649  17.0289

          k = 0.1250 0.2198 0.0000 (  5391 PWs)   bands (ev):

   -45.4951 -24.0070 -23.5527 -23.2541 -20.8799 -13.2531  -3.2721  -3.0674
    -2.7769  -1.6868  -1.1223  -0.2209   3.4619   5.3730   6.2115   6.4316
     7.1127   7.5422   9.1208  10.2020  12.5409  13.0007  13.5999  15.2504
    16.1214  16.7563

          k = 0.1250 0.2931 0.0000 (  5394 PWs)   bands (ev):

   -45.4783 -23.9765 -23.6716 -23.3061 -20.8653 -13.1219  -3.2712  -3.0639
    -2.8303  -1.9141  -1.3452  -0.4329   3.4330   5.4889   6.3210   6.8819
     7.2940   8.0416   9.6245  10.6715  12.5411  13.1467  13.4787  15.5604
    16.1775  17.1569

          k = 0.1250 0.3663 0.0000 (  5406 PWs)   bands (ev):

   -45.4614 -24.0017 -23.7240 -23.3585 -20.8606 -12.9842  -3.3670  -2.9939
    -2.8976  -2.2562  -1.3999  -0.6336   3.4040   5.7731   6.4412   7.1439
     7.6307   8.7034  10.0772  11.1242  12.3411  13.0050  14.2179  15.1677
    15.9917  16.5312

          k = 0.1250 0.4396 0.0000 (  5423 PWs)   bands (ev):

   -45.4470 -24.0759 -23.7080 -23.4030 -20.8635 -12.8617  -3.4562  -3.0462
    -2.9165  -2.5036  -1.4069  -0.7971   3.3926   6.1836   6.5404   7.2899
     7.8868   9.5286  10.4345  11.4937  12.3371  12.9854  14.3510  14.7384
    15.2483  16.4386

          k = 0.1250 0.5129 0.0000 (  5412 PWs)   bands (ev):

   -45.4374 -24.1385 -23.6805 -23.4330 -20.8687 -12.7766  -3.5163  -3.1768
    -2.9056  -2.6050  -1.4053  -0.9035   3.3968   6.5197   6.6869   7.3906
     7.9376  10.3613  10.7335  11.7147  12.3792  13.0211  13.5355  14.5411
    15.0903  15.9628

          k = 0.1250 0.5861 0.0000 (  5398 PWs)   bands (ev):

   -45.4340 -24.1615 -23.6690 -23.4436 -20.8712 -12.7460  -3.5378  -3.2342
    -2.9038  -2.6280  -1.4043  -0.9403   3.4012   6.5591   6.8831   7.4065
     7.9179  10.6413  11.0613  11.8919  12.1700  12.7623  13.5418  14.3617
    15.2244  15.3923

          k = 0.1250 0.0000 0.0000 (  5396 PWs)   bands (ev):

   -45.5221 -24.0898 -23.2953 -23.1759 -20.9283 -13.4525  -3.4982  -2.8618
    -2.7118  -1.6379  -0.3133   0.1073   3.4807   5.3427   5.8271   6.1218
     6.8099   6.9805   8.2217   9.2943  11.5103  13.8770  14.0516  14.9608
    15.2296  17.2444

          k = 0.1875 0.1099 0.0000 (  5410 PWs)   bands (ev):

   -45.5044 -24.0328 -23.4893 -23.2115 -20.8918 -13.3208  -3.3417  -3.0237
    -2.7278  -1.6594  -0.9557  -0.0375   3.4327   5.4293   6.1249   6.1748
     7.1769   7.2558   8.8294   9.9300  12.1018  13.2882  13.8089  15.2718
    15.6624  17.0873

          k = 0.1875 0.1832 0.0000 (  5412 PWs)   bands (ev):

   -45.4935 -24.0037 -23.5843 -23.2412 -20.8780 -13.2385  -3.2857  -3.0739
    -2.7557  -1.7375  -1.1997  -0.1613   3.4011   5.4787   6.1936   6.4522
     7.2202   7.5818   9.1740  10.2501  12.3174  13.1811  13.6180  15.4284
    16.1589  16.8379

          k = 0.1875 0.2564 0.0000 (  5406 PWs)   bands (ev):

   -45.4792 -23.9789 -23.6748 -23.2953 -20.8652 -13.1269  -3.2734  -3.0675
    -2.8189  -1.9271  -1.3521  -0.3917   3.4107   5.4944   6.3224   6.8929
     7.3119   8.0353   9.6123  10.6688  12.5509  13.1282  13.4358  15.5468
    16.1904  17.0688

          k = 0.1875 0.3297 0.0000 (  5407 PWs)   bands (ev):

   -45.4637 -23.9885 -23.7197 -23.3641 -20.8575 -13.0007  -3.3238  -3.0018
    -2.9116  -2.1772  -1.4117  -0.6706   3.4661   5.5965   6.5074   7.0500
     7.6453   8.6806  10.0814  11.1441  12.6575  12.9720  13.7030  15.0808
    16.3400  16.4478

          k = 0.1875 0.4030 0.0000 (  5422 PWs)   bands (ev):

   -45.4493 -24.0373 -23.7097 -23.4337 -20.8559 -12.8786  -3.3879  -3.0352
    -2.9358  -2.3774  -1.4376  -0.9350   3.5475   5.8463   6.6454   7.1167
     7.9013   9.5303  10.5286  11.6113  12.6255  12.9122  14.2427  14.5310
    15.4158  16.2586

          k = 0.1875 0.4762 0.0000 (  5410 PWs)   bands (ev):

   -45.4383 -24.0885 -23.6816 -23.4902 -20.8581 -12.7812  -3.4437  -3.1586
    -2.9028  -2.4801  -1.4576  -1.1344   3.6256   6.2311   6.6547   7.2786
     7.8885  10.4453  10.9067  11.9324  12.5578  13.0554  13.9450  14.5151
    14.9116  16.0716

          k = 0.1875 0.5495 0.0000 (  5413 PWs)   bands (ev):

   -45.4323 -24.1182 -23.6618 -23.5220 -20.8604 -12.7269  -3.4788  -3.2358
    -2.8924  -2.5123  -1.4764  -1.2353   3.6733   6.5972   6.6439   7.4139
     7.6970  10.8660  11.5493  12.0409  12.4648  12.9498  13.5739  14.4612
    15.0455  15.7697

          k = 0.1875-0.0366 0.0000 (  5411 PWs)   bands (ev):

   -45.5102 -24.0503 -23.4258 -23.2043 -20.9008 -13.3644  -3.3798  -2.9792
    -2.7262  -1.6376  -0.7551  -0.0196   3.4696   5.3234   6.0816   6.1794
     7.0400   7.1552   8.6389   9.7524  11.9799  13.3945  13.9093  15.0022
    15.6078  17.0417

          k = 0.2500 0.1465 0.0000 (  5412 PWs)   bands (ev):

   -45.4873 -23.9933 -23.6463 -23.2432 -20.8724 -13.1881  -3.3158  -3.0650
    -2.7454  -1.8768  -1.3061  -0.1629   3.3208   5.6517   6.2346   6.5683
     7.3655   7.7502   9.3573  10.4111  12.1226  13.1918  13.8648  15.8091
    16.2799  16.8550

          k = 0.2500 0.2198 0.0000 (  5409 PWs)   bands (ev):

   -45.4763 -23.9881 -23.7071 -23.2753 -20.8660 -13.1015  -3.3476  -3.0363
    -2.7847  -2.0860  -1.3738  -0.2943   3.2933   5.7438   6.3042   6.9354
     7.4317   8.1109   9.6663  10.7072  12.1362  13.0783  14.0723  15.7552
    16.2827  16.5789

          k = 0.2500 0.2931 0.0000 (  5404 PWs)   bands (ev):

   -45.4634 -24.0061 -23.7283 -23.3391 -20.8596 -12.9954  -3.3712  -2.9927
    -2.8824  -2.2733  -1.4084  -0.5637   3.3665   5.7786   6.4451   7.1605
     7.6537   8.6921  10.0601  11.1285  12.3418  12.9839  14.1231  15.1331
    15.8942  16.5244

          k = 0.2500 0.3663 0.0000 (  5407 PWs)   bands (ev):

   -45.4504 -24.0391 -23.7121 -23.4240 -20.8551 -12.8848  -3.3895  -3.0248
    -2.9399  -2.3830  -1.4404  -0.9025   3.5302   5.8445   6.6523   7.1208
     7.9087   9.5246  10.5230  11.6202  12.6388  12.9043  14.1866  14.4889
    15.3380  16.2960

          k = 0.2500 0.4396 0.0000 (  5412 PWs)   bands (ev):

   -45.4394 -24.0656 -23.6833 -23.5115 -20.8530 -12.7872  -3.4238  -3.1316
    -2.9003  -2.4199  -1.5010  -1.2077   3.7313   6.0182   6.7275   7.1987
     7.9130  10.4472  10.9840  12.0038  12.7715  13.0390  14.1440  14.4756
    14.7272  15.6819

          k = 0.2500 0.5129 0.0000 (  5416 PWs)   bands (ev):

   -45.4321 -24.0779 -23.6594 -23.5792 -20.8526 -12.7200  -3.4816  -3.1621
    -2.8750  -2.4143  -1.6351  -1.3542   3.8936   6.3101   6.6637   7.3565
     7.7179  10.9688  11.6047  12.0862  12.9585  13.3338  13.7854  14.3733
    14.7852  15.4580

          k = 0.2500 0.5861 0.0000 (  5424 PWs)   bands (ev):

   -45.4295 -24.0806 -23.6499 -23.6055 -20.8526 -12.6959  -3.5105  -3.1608
    -2.8669  -2.4038  -1.7162  -1.3828   3.9550   6.5281   6.6160   7.3310
     7.6359  10.9877  12.0960  12.5231  12.5726  13.1560  13.8316  14.3476
    14.9465  15.7395

          k = 0.2500-0.0733 0.0000 (  5425 PWs)   bands (ev):

   -45.4946 -24.0053 -23.5790 -23.2400 -20.8770 -13.2443  -3.2864  -3.0727
    -2.7490  -1.7351  -1.1873  -0.1673   3.4038   5.4483   6.2032   6.4922
     7.2398   7.5635   9.1541  10.2404  12.3141  13.1906  13.6210  15.4477
    16.1367  16.8214

          k = 0.2500 0.0000 0.0000 (  5418 PWs)   bands (ev):

   -45.4971 -24.0106 -23.5484 -23.2447 -20.8787 -13.2637  -3.2747  -3.0706
    -2.7584  -1.6919  -1.1123  -0.2004   3.4506   5.3297   6.2379   6.4916
     7.1509   7.5161   9.0830  10.1842  12.5172  13.0128  13.5897  15.2534
    16.1404  16.7570

          k = 0.3125 0.1832 0.0000 (  5396 PWs)   bands (ev):

   -45.4701 -24.0097 -23.7337 -23.2746 -20.8658 -13.0485  -3.4189  -3.0091
    -2.7689  -2.2934  -1.3912  -0.2786   3.2006   5.9461   6.4527   7.0397
     7.5666   8.3119   9.7964  10.8183  11.9925  12.9826  14.6010  15.5388
    16.3393  16.4870

          k = 0.3125 0.2564 0.0000 (  5404 PWs)   bands (ev):

   -45.4605 -24.0470 -23.7351 -23.3076 -20.8649 -12.9689  -3.4608  -2.9898
    -2.8265  -2.4624  -1.4029  -0.4134   3.2059   6.0803   6.4961   7.2946
     7.7142   8.7480  10.0422  11.0904  12.0868  12.9329  14.6994  14.9447
    15.8459  16.4890

          k = 0.3125 0.3297 0.0000 (  5411 PWs)   bands (ev):

   -45.4501 -24.0789 -23.7144 -23.3782 -20.8612 -12.8796  -3.4615  -3.0277
    -2.9153  -2.5084  -1.4191  -0.7114   3.3496   6.1821   6.5443   7.3116
     7.9026   9.5116  10.4211  11.5138  12.3157  12.9490  14.2425  14.6336
    15.2038  16.3701

          k = 0.3125 0.4030 0.0000 (  5412 PWs)   bands (ev):

   -45.4405 -24.0896 -23.6864 -23.4741 -20.8559 -12.7940  -3.4438  -3.1489
    -2.9039  -2.4792  -1.4596  -1.0870   3.6021   6.2125   6.6693   7.2879
     7.8987  10.4209  10.9032  11.9694  12.5692  13.0299  13.8251  14.4763
    14.8234  16.1054

          k = 0.3125 0.4762 0.0000 (  5424 PWs)   bands (ev):

   -45.4332 -24.0772 -23.6621 -23.5725 -20.8512 -12.7266  -3.4781  -3.1600
    -2.8749  -2.4128  -1.6193  -1.3517   3.8880   6.2905   6.6718   7.3611
     7.7262  10.9449  11.6008  12.1098  13.0012  13.2976  13.6884  14.4094
    14.7385  15.4791

          k = 0.3125 0.5495 0.0000 (  5435 PWs)   bands (ev):

   -45.4292 -24.0576 -23.6486 -23.6393 -20.8485 -12.6893  -3.5296  -3.1068
    -2.8482  -2.3274  -1.8773  -1.4110   4.0873   6.4396   6.6202   7.2190
     7.7108  10.9763  12.1004  12.5159  13.3063  13.4564  13.6054  14.0988
    14.9655  15.6849

          k = 0.3125-0.1099 0.0000 (  5415 PWs)   bands (ev):

   -45.4774 -23.9867 -23.7026 -23.2771 -20.8644 -13.1075  -3.3441  -3.0357
    -2.7803  -2.0685  -1.3710  -0.3106   3.3044   5.7350   6.3129   6.9418
     7.4339   8.1005   9.6494  10.6979  12.1437  13.0838  14.1031  15.7658
    16.2451  16.5803

          k = 0.3125-0.0366 0.0000 (  5418 PWs)   bands (ev):

   -45.4814 -23.9795 -23.6661 -23.2940 -20.8626 -13.1388  -3.2694  -3.0674
    -2.8070  -1.9065  -1.3434  -0.4044   3.4193   5.4694   6.3473   6.9172
     7.3206   8.0161   9.5782  10.6531  12.5679  13.1371  13.4541  15.5361
    16.1282  17.0789

          k = 0.3750 0.2198 0.0000 (  5415 PWs)   bands (ev):

   -45.4555 -24.0933 -23.7289 -23.3010 -20.8691 -12.9241  -3.5329  -2.9980
    -2.7931  -2.6355  -1.4009  -0.3700   3.1174   6.1949   6.7551   7.3792
     7.8820   8.9228  10.0964  11.1465  12.0737  12.9108  14.2514  15.1254
    15.9092  16.0189

          k = 0.3750 0.2931 0.0000 (  5419 PWs)   bands (ev):

   -45.4485 -24.1301 -23.7112 -23.3329 -20.8699 -12.8632  -3.5583  -3.0417
    -2.8664  -2.6617  -1.4037  -0.5032   3.1605   6.3459   6.7515   7.4504
     8.0177   9.4741  10.3269  11.3810  12.1815  12.9372  13.7605  14.8845
    15.3043  16.0064

          k = 0.3750 0.3663 0.0000 (  5409 PWs)   bands (ev):

   -45.4414 -24.1383 -23.6892 -23.4057 -20.8649 -12.8004  -3.5222  -3.1575
    -2.9012  -2.5939  -1.4208  -0.8137   3.3554   6.5462   6.6541   7.4230
     7.9374  10.3199  10.7368  11.7412  12.3143  12.9420  13.4596  14.4956
    15.0079  15.9141

          k = 0.3750 0.4396 0.0000 (  5413 PWs)   bands (ev):

   -45.4355 -24.1157 -23.6689 -23.5040 -20.8568 -12.7456  -3.4750  -3.2248
    -2.8903  -2.5009  -1.4736  -1.1928   3.6532   6.5649   6.6555   7.4384
     7.7014  10.8101  11.5522  12.1050  12.3918  12.9029  13.5177  14.3928
    15.0068  15.7132

          k = 0.3750 0.5129 0.0000 (  5429 PWs)   bands (ev):

   -45.4315 -24.0755 -23.6547 -23.5978 -20.8497 -12.7083  -3.5030  -3.1536
    -2.8650  -2.3921  -1.6942  -1.3897   3.9557   6.4950   6.6233   7.3305
     7.6560  10.9369  12.1378  12.4313  12.5270  13.2422  13.7894  14.3213
    14.9471  15.6733

          k = 0.3750 0.5861 0.0000 (  5448 PWs)   bands (ev):

   -45.4301 -24.0526 -23.6491 -23.6406 -20.8470 -12.6950  -3.5260  -3.1007
    -2.8463  -2.3120  -1.8805  -1.4173   4.0952   6.4398   6.6104   7.2083
     7.7221  10.9488  12.1191  12.3926  13.3896  13.4102  13.7557  14.0055
    14.9394  15.6496

          k = 0.3750-0.1465 0.0000 (  5416 PWs)   bands (ev):

   -45.4615 -24.0416 -23.7347 -23.3104 -20.8632 -12.9743  -3.4558  -2.9894
    -2.8237  -2.4429  -1.4037  -0.4315   3.2195   6.0863   6.5091   7.2874
     7.7014   8.7315  10.0231  11.0801  12.0934  12.9341  14.7287  14.9809
    15.7897  16.5199

          k = 0.3750-0.0733 0.0000 (  5403 PWs)   bands (ev):

   -45.4654 -23.9983 -23.7251 -23.3427 -20.8564 -13.0069  -3.3629  -2.9930
    -2.8724  -2.2374  -1.4086  -0.5923   3.3879   5.7730   6.4606   7.1759
     7.6284   8.6670  10.0257  11.1106  12.3621  12.9899  14.1787  15.1108
    15.9094  16.4809

          k = 0.3750 0.0000 0.0000 (  5404 PWs)   bands (ev):

   -45.4668 -23.9823 -23.7158 -23.3616 -20.8534 -13.0183  -3.3156  -3.0019
    -2.8943  -2.1405  -1.4127  -0.6810   3.4777   5.5835   6.5317   7.0741
     7.6271   8.6496  10.0347  11.1248  12.7030  12.9857  13.6951  15.0433
    16.2774  16.4156

          k = 0.4375 0.2564 0.0000 (  5415 PWs)   bands (ev):

   -45.4457 -24.1677 -23.7026 -23.3185 -20.8753 -12.8376  -3.6220  -3.0684
    -2.8117  -2.7827  -1.3972  -0.4280   3.0777   6.3741   6.9630   7.5097
     8.2572   9.5437  10.3540  11.4024  12.1426  12.8295  13.4787  14.8119
    15.2710  15.5217

          k = 0.4375 0.3297 0.0000 (  5431 PWs)   bands (ev):

   -45.4421 -24.1797 -23.6907 -23.3471 -20.8743 -12.8049  -3.6175  -3.1314
    -2.8771  -2.7131  -1.4013  -0.5535   3.1475   6.4753   6.9518   7.5006
     8.1975  10.0785  10.5582  11.5994  12.0875  12.6833  13.4828  14.4742
    15.0659  15.4702

          k = 0.4375 0.4030 0.0000 (  5415 PWs)   bands (ev):

   -45.4387 -24.1576 -23.6790 -23.4168 -20.8660 -12.7738  -3.5420  -3.2112
    -2.8969  -2.6072  -1.4215  -0.8561   3.3655   6.5748   6.8746   7.4446
     7.8941  10.5662  11.0693  11.9026  12.0555  12.6987  13.5017  14.2950
    15.1540  15.3946

          k = 0.4375 0.4762 0.0000 (  5413 PWs)   bands (ev):

   -45.4361 -24.1107 -23.6698 -23.5063 -20.8555 -12.7494  -3.4728  -3.2173
    -2.8890  -2.4903  -1.4741  -1.2054   3.6624   6.6004   6.6311   7.4566
     7.6681  10.7900  11.4554  12.0930  12.4632  12.9123  13.5135  14.4117
    15.0150  15.7419

          k = 0.4375 0.5495 0.0000 (  5428 PWs)   bands (ev):

   -45.4347 -24.0664 -23.6641 -23.5760 -20.8484 -12.7361  -3.4733  -3.1444
    -2.8720  -2.3850  -1.6272  -1.3692   3.9061   6.3041   6.6519   7.3793
     7.6991  10.9065  11.4711  12.1315  12.9537  13.3819  13.7491  14.3847
    14.7401  15.4959

          k = 0.4375-0.1832 0.0000 (  5416 PWs)   bands (ev):

   -45.4491 -24.1254 -23.7119 -23.3352 -20.8686 -12.8669  -3.5537  -3.0401
    -2.8652  -2.6492  -1.4049  -0.5168   3.1710   6.3439   6.7845   7.4423
     8.0015   9.4413  10.3021  11.3745  12.1890  12.9306  13.7770  14.9298
    15.2651  16.0340

          k = 0.4375-0.1099 0.0000 (  5406 PWs)   bands (ev):

   -45.4517 -24.0682 -23.7154 -23.3830 -20.8582 -12.8887  -3.4528  -3.0218
    -2.9102  -2.4795  -1.4211  -0.7403   3.3717   6.1962   6.5497   7.3330
     7.8587   9.4688  10.3733  11.4954  12.3330  12.9406  14.2710  14.6875
    15.2075  16.3914

          k = 0.4375-0.0366 0.0000 (  5418 PWs)   bands (ev):

   -45.4531 -24.0250 -23.7131 -23.4278 -20.8507 -12.9003  -3.3794  -3.0098
    -2.9360  -2.3387  -1.4433  -0.9339   3.5559   5.8429   6.6503   7.1639
     7.8604   9.4758  10.4612  11.5976  12.6692  12.9095  14.2131  14.4955
    15.3775  16.2397

          k =-0.5000-0.2931 0.0000 (  5428 PWs)   bands (ev):

   -45.4423 -24.1953 -23.6912 -23.3246 -20.8783 -12.8065  -3.6577  -3.1146
    -2.8201  -2.8084  -1.3948  -0.4478   3.0672   6.4467   7.0186   7.5433
     8.4199   9.8914  10.4717  11.6123  11.9502  12.5792  13.5346  14.4430
    15.0659  15.3444

          k =-0.5000-0.2198 0.0000 (  5413 PWs)   bands (ev):

   -45.4423 -24.1778 -23.6910 -23.3480 -20.8738 -12.8062  -3.6155  -3.1304
    -2.8767  -2.7092  -1.4017  -0.5585   3.1514   6.4709   6.9747   7.4932
     8.1934  10.0500  10.5471  11.5941  12.1058  12.6829  13.4758  14.4873
    15.0889  15.4568

          k =-0.5000-0.1465 0.0000 (  5401 PWs)   bands (ev):

   -45.4423 -24.1315 -23.6903 -23.4089 -20.8631 -12.8055  -3.5163  -3.1511
    -2.8992  -2.5800  -1.4221  -0.8314   3.3688   6.5316   6.6985   7.4316
     7.9021  10.2762  10.6759  11.7301  12.3464  12.9357  13.4737  14.5238
    15.0311  15.9289

          k =-0.5000-0.0733 0.0000 (  5418 PWs)   bands (ev):

   -45.4423 -24.0767 -23.6885 -23.4793 -20.8526 -12.8047  -3.4368  -3.1325
    -2.9007  -2.4483  -1.4614  -1.1179   3.6255   6.2315   6.6517   7.3327
     7.8418  10.3743  10.8051  11.9537  12.5789  13.0348  13.8776  14.5005
    14.8686  16.1113

          k =-0.5000-0.0000 0.0000 (  5416 PWs)   bands (ev):

   -45.4423 -24.0502 -23.6869 -23.5130 -20.8483 -12.8044  -3.4158  -3.1081
    -2.8975  -2.3783  -1.5030  -1.2326   3.7537   6.0174   6.7082   7.2571
     7.8600  10.3891  10.8734  12.0081  12.7306  13.1179  14.1480  14.4649
    14.7502  15.6894

     highest occupied, lowest unoccupied level (ev):     4.0952    5.3234

!    total energy              =    -446.24447615 Ry
     total all-electron energy =     -8320.714756 Ry
     estimated scf accuracy    <          2.2E-11 Ry

     The total energy is the sum of the following terms:
     one-electron contribution =    -304.68004875 Ry
     hartree contribution      =     160.60153016 Ry
     xc contribution           =     -38.52895469 Ry
     ewald contribution        =       2.98881876 Ry
     one-center paw contrib.   =    -266.62582164 Ry

     convergence has been achieved in   6 iterations

     negative rho (up, down):  8.129E-05 0.000E+00

     Forces acting on atoms (cartesian axes, Ry/au):

     atom    1 type  1   force =     0.00000000    0.00002024   -0.00002707
     atom    2 type  2   force =     0.00000000   -0.00012030   -0.00007288
     atom    3 type  3   force =     0.00000000    0.00010006    0.00009994
     The non-local contrib.  to forces
     atom    1 type  1   force =     0.00000000   -0.00296004   -0.02111185
     atom    2 type  2   force =     0.00000000   -0.01957459   -1.11560727
     atom    3 type  3   force =     0.00000000   -0.00098723    0.22372464
     The ionic contribution  to forces
     atom    1 type  1   force =    -0.00000001   -0.15764265   -0.43780057
     atom    2 type  2   force =     0.00000001    0.10556642   27.12226885
     atom    3 type  3   force =     0.00000000    0.05207623  -26.68446828
     The local contribution  to forces
     atom    1 type  1   force =    -0.00000000    0.16043465    0.45522478
     atom    2 type  2   force =     0.00000027   -0.08621967  -26.01034873
     atom    3 type  3   force =     0.00000003   -0.05086658   26.46795104
     The core correction contribution to forces
     atom    1 type  1   force =     0.00000000    0.00013504    0.00363745
     atom    2 type  2   force =     0.00000000    0.00005388    0.00359775
     atom    3 type  3   force =    -0.00000000   -0.00017469   -0.00712216
     The Hubbard contrib.    to forces
     atom    1 type  1   force =     0.00000000    0.00000000    0.00000000
     atom    2 type  2   force =     0.00000000    0.00000000    0.00000000
     atom    3 type  3   force =     0.00000000    0.00000000    0.00000000
     The SCF correction term to forces
     atom    1 type  1   force =    -0.00000000   -0.00000102    0.00000427
     atom    2 type  2   force =    -0.00000000   -0.00000063   -0.00000234
     atom    3 type  3   force =     0.00000000   -0.00000195   -0.00000415

     Total force =     0.000202     Total SCF correction =     0.000007
     Energy error            =      3.0E-07 Ry
     Gradient error          =      1.2E-04 Ry/Bohr

     number of scf cycles    =   8
     number of bfgs steps    =   7

     energy             old  =    -446.2444758500 Ry
     energy             new  =    -446.2444761545 Ry

     CASE: energy            _new < energy            _old

     new trust radius        =       0.0003049977 bohr
     new conv_thr            =            1.0E-10 Ry


ATOMIC_POSITIONS (angstrom)
Zr           -0.0000000000        0.0166448220        9.5700162688
F            -0.0000000020        1.8727412324       10.9148792795
Cl           -0.0000000020        1.8736346541        7.8012793602



     Writing config-only to output data dir ./tmp/ZrFCl.save/
     NEW-OLD atomic charge density approx. for the potential

     Check: negative core charge=   -0.000005

     negative rho (up, down):  8.131E-05 0.000E+00

     total cpu time spent up to now is       88.1 secs

     Self-consistent Calculation

     iteration #  1     ecut=    65.00 Ry     beta= 0.70
     Davidson diagonalization with overlap
     ethr =  1.00E-06,  avg # of iterations =  2.0

     Threshold (ethr) on eigenvalues was too large:
     Diagonalizing with lowered threshold

     Davidson diagonalization with overlap
     ethr =  3.65E-11,  avg # of iterations =  4.2

     negative rho (up, down):  8.130E-05 0.000E+00

     total cpu time spent up to now is       91.1 secs

     total energy              =    -446.24447620 Ry
     estimated scf accuracy    <          4.0E-09 Ry

     iteration #  2     ecut=    65.00 Ry     beta= 0.70
     Davidson diagonalization with overlap
     ethr =  1.52E-11,  avg # of iterations =  2.0

     negative rho (up, down):  8.130E-05 0.000E+00

     total cpu time spent up to now is       92.4 secs

     total energy              =    -446.24447620 Ry
     estimated scf accuracy    <          1.9E-09 Ry

     iteration #  3     ecut=    65.00 Ry     beta= 0.70
     Davidson diagonalization with overlap
     ethr =  7.29E-12,  avg # of iterations =  2.0

     negative rho (up, down):  8.130E-05 0.000E+00

     total cpu time spent up to now is       93.7 secs

     total energy              =    -446.24447620 Ry
     estimated scf accuracy    <          1.2E-09 Ry

     iteration #  4     ecut=    65.00 Ry     beta= 0.70
     Davidson diagonalization with overlap
     ethr =  4.67E-12,  avg # of iterations =  1.0

     negative rho (up, down):  8.130E-05 0.000E+00

     total cpu time spent up to now is       94.8 secs

     End of self-consistent calculation

          k = 0.0000 0.0000 0.0000 (  5391 PWs)   bands (ev):

   -45.5317 -24.1232 -23.1786 -23.1537 -20.9581 -13.5227  -3.6086  -2.7416
    -2.7050  -1.6663   0.1192   0.2111   3.4573   5.4377   5.6425   5.9494
     6.7817   6.8581   7.8665   8.7980  11.1293  13.8220  14.5731  14.8131
    15.5407  17.2569

          k = 0.0000 0.0733 0.0000 (  5395 PWs)   bands (ev):

   -45.5281 -24.1111 -23.1975 -23.1857 -20.9469 -13.4975  -3.5687  -2.7526
    -2.7425  -1.6516   0.0428   0.0868   3.4749   5.5006   5.5815   6.0397
     6.8119   6.8304   7.9994   8.9980  11.2639  13.9061  14.4938  14.6798
    15.3696  17.2266

          k = 0.0000 0.1465 0.0000 (  5413 PWs)   bands (ev):

   -45.5179 -24.0769 -23.3167 -23.2058 -20.9200 -13.4245  -3.4630  -2.8715
    -2.7471  -1.6281  -0.3884  -0.0022   3.4998   5.4778   5.6938   6.1510
     6.8974   6.9602   8.3598   9.4465  11.6543  13.7892  14.1047  14.9981
    15.0828  17.1358

          k = 0.0000 0.2198 0.0000 (  5385 PWs)   bands (ev):

   -45.5025 -24.0287 -23.4795 -23.2356 -20.8916 -13.3119  -3.3381  -3.0066
    -2.7587  -1.6472  -0.9177  -0.1272   3.4714   5.4836   6.0227   6.1703
     7.1337   7.2697   8.8647   9.9507  12.1320  13.3323  13.8530  15.3156
    15.5164  16.9834

          k = 0.0000 0.2931 0.0000 (  5383 PWs)   bands (ev):

   -45.4843 -23.9869 -23.6408 -23.2706 -20.8731 -13.1730  -3.3117  -3.0535
    -2.7794  -1.8537  -1.2874  -0.2633   3.3721   5.6659   6.2523   6.4746
     7.3176   7.7748   9.4001  10.4277  12.1355  13.2410  13.9390  15.8703
    16.1596  16.8072

          k = 0.0000 0.3663 0.0000 (  5420 PWs)   bands (ev):

   -45.4661 -24.0046 -23.7284 -23.3053 -20.8679 -13.0268  -3.4144  -3.0050
    -2.8069  -2.2753  -1.3747  -0.3886   3.2560   5.9354   6.4705   6.9835
     7.5182   8.3447   9.8380  10.8261  12.0152  13.0317  14.7237  15.6728
    16.2283  16.5724

          k = 0.0000 0.4396 0.0000 (  5404 PWs)   bands (ev):

   -45.4505 -24.0924 -23.7200 -23.3344 -20.8727 -12.8964  -3.5268  -3.0033
    -2.8350  -2.6259  -1.3807  -0.4875   3.1737   6.1757   6.7642   7.3394
     7.8583   8.9634  10.1330  11.1527  12.1218  12.9778  14.3941  15.2392
    15.7972  16.1426

          k = 0.0000 0.5129 0.0000 (  5408 PWs)   bands (ev):

   -45.4401 -24.1696 -23.6913 -23.3538 -20.8801 -12.8056  -3.6132  -3.0833
    -2.8561  -2.7787  -1.3741  -0.5501   3.1344   6.3554   6.9554   7.4646
     8.2772   9.5924  10.3877  11.4216  12.2261  12.9394  13.5567  14.9092
    15.3634  15.4091

          k = 0.0000-0.5861 0.0000 (  5402 PWs)   bands (ev):

   -45.4364 -24.1980 -23.6790 -23.3606 -20.8835 -12.7730  -3.6476  -3.1328
    -2.8639  -2.8084  -1.3707  -0.5715   3.1242   6.4300   7.0017   7.4958
     8.4596   9.9509  10.4873  11.6478  12.0739  12.6734  13.5993  14.5238
    15.1762  15.2037

          k = 0.0625 0.0366 0.0000 (  5403 PWs)   bands (ev):

   -45.5283 -24.1115 -23.2168 -23.1644 -20.9471 -13.4986  -3.5695  -2.7814
    -2.7115  -1.6532  -0.0285   0.1651   3.4703   5.4151   5.6796   6.0338
     6.7598   6.8946   7.9922   8.9894  11.2585  13.9033  14.3426  14.8693
    15.3453  17.2792

          k = 0.0625 0.1099 0.0000 (  5403 PWs)   bands (ev):

   -45.5214 -24.0884 -23.2854 -23.1909 -20.9280 -13.4495  -3.4962  -2.8450
    -2.7342  -1.6341  -0.2796   0.0566   3.4912   5.4319   5.7088   6.1361
     6.8001   6.9637   8.2397   9.3101  11.5246  13.9142  14.1011  14.8776
    15.1921  17.1742

          k = 0.0625 0.1832 0.0000 (  5388 PWs)   bands (ev):

   -45.5086 -24.0469 -23.4191 -23.2231 -20.9007 -13.3566  -3.3761  -2.9642
    -2.7537  -1.6290  -0.7297  -0.0827   3.4939   5.3993   5.9526   6.1898
     6.9851   7.1788   8.6742   9.7745  12.0106  13.4250  13.9463  14.9818
    15.5146  16.9843

          k = 0.0625 0.2564 0.0000 (  5389 PWs)   bands (ev):

   -45.4918 -23.9999 -23.5770 -23.2612 -20.8779 -13.2305  -3.2834  -3.0619
    -2.7792  -1.7213  -1.1755  -0.2385   3.4393   5.4844   6.1875   6.4111
     7.1913   7.5903   9.2000  10.2615  12.3284  13.2294  13.6522  15.4556
    16.0754  16.7845

          k = 0.0625 0.3297 0.0000 (  5397 PWs)   bands (ev):

   -45.4736 -23.9820 -23.7014 -23.3013 -20.8667 -13.0873  -3.3426  -3.0297
    -2.8139  -2.0604  -1.3596  -0.3915   3.3446   5.7385   6.3057   6.8935
     7.3909   8.1312   9.6981  10.7134  12.1452  13.1191  14.1667  15.8153
    16.2694  16.6327

          k = 0.0625 0.4030 0.0000 (  5408 PWs)   bands (ev):

   -45.4567 -24.0424 -23.7283 -23.3379 -20.8671 -12.9480  -3.4546  -2.9918
    -2.8564  -2.4460  -1.3869  -0.5229   3.2616   6.0684   6.5062   7.2575
     7.6796   8.7734  10.0701  11.0869  12.1160  12.9825  14.8577  15.0478
    15.8074  16.5593

          k = 0.0625 0.4762 0.0000 (  5406 PWs)   bands (ev):

   -45.4437 -24.1291 -23.7017 -23.3658 -20.8735 -12.8364  -3.5500  -3.0573
    -2.8853  -2.6652  -1.3840  -0.6183   3.2160   6.3246   6.7707   7.4078
     8.0135   9.5021  10.3495  11.3794  12.2411  13.0116  13.8815  14.9617
    15.3262  16.0480

          k = 0.0625 0.5495 0.0000 (  5410 PWs)   bands (ev):

   -45.4367 -24.1816 -23.6795 -23.3809 -20.8792 -12.7739  -3.6082  -3.1522
    -2.8936  -2.7308  -1.3791  -0.6682   3.2004   6.4551   6.9543   7.4552
     8.2265  10.1251  10.5679  11.6191  12.1998  12.7817  13.5341  14.5425
    15.1375  15.4263

          k = 0.1250 0.0733 0.0000 (  5398 PWs)   bands (ev):

   -45.5187 -24.0788 -23.3311 -23.1841 -20.9203 -13.4288  -3.4655  -2.8934
    -2.7176  -1.6334  -0.4433   0.0780   3.4807   5.3705   5.8417   6.1356
     6.8692   7.0177   8.3379   9.4277  11.6339  13.7405  14.0522  15.0429
    15.1683  17.2382

          k = 0.1250 0.1465 0.0000 (  5400 PWs)   bands (ev):

   -45.5092 -24.0484 -23.4259 -23.2110 -20.9010 -13.3597  -3.3776  -2.9743
    -2.7385  -1.6334  -0.7570  -0.0353   3.4769   5.3769   6.0040   6.1805
     6.9875   7.1914   8.6608   9.7653  11.9962  13.4021  13.9258  14.9831
    15.5648  17.0291

          k = 0.1250 0.2198 0.0000 (  5391 PWs)   bands (ev):

   -45.4950 -24.0069 -23.5526 -23.2541 -20.8798 -13.2532  -3.2721  -3.0673
    -2.7768  -1.6868  -1.1224  -0.2212   3.4620   5.3731   6.2114   6.4318
     7.1129   7.5422   9.1208  10.2019  12.5410  13.0007  13.6000  15.2504
    16.1213  16.7564

          k = 0.1250 0.2931 0.0000 (  5394 PWs)   bands (ev):

   -45.4782 -23.9764 -23.6715 -23.3061 -20.8652 -13.1220  -3.2712  -3.0639
    -2.8303  -1.9142  -1.3453  -0.4331   3.4331   5.4890   6.3209   6.8821
     7.2942   8.0416   9.6245  10.6714  12.5411  13.1470  13.4786  15.5604
    16.1774  17.1568

          k = 0.1250 0.3663 0.0000 (  5406 PWs)   bands (ev):

   -45.4613 -24.0016 -23.7239 -23.3584 -20.8605 -12.9843  -3.3669  -2.9939
    -2.8975  -2.2563  -1.4000  -0.6338   3.4041   5.7731   6.4412   7.1441
     7.6307   8.7035  10.0772  11.1241  12.3411  13.0053  14.2179  15.1677
    15.9917  16.5312

          k = 0.1250 0.4396 0.0000 (  5423 PWs)   bands (ev):

   -45.4469 -24.0758 -23.7080 -23.4029 -20.8634 -12.8618  -3.4561  -3.0462
    -2.9164  -2.5037  -1.4069  -0.7973   3.3927   6.1836   6.5404   7.2901
     7.8869   9.5287  10.4346  11.4936  12.3372  12.9856  14.3510  14.7384
    15.2485  16.4387

          k = 0.1250 0.5129 0.0000 (  5412 PWs)   bands (ev):

   -45.4373 -24.1384 -23.6804 -23.4329 -20.8686 -12.7767  -3.5163  -3.1769
    -2.9055  -2.6051  -1.4053  -0.9037   3.3970   6.5196   6.6870   7.3908
     7.9376  10.3612  10.7336  11.7146  12.3793  13.0212  13.5356  14.5412
    15.0903  15.9630

          k = 0.1250 0.5861 0.0000 (  5398 PWs)   bands (ev):

   -45.4339 -24.1615 -23.6689 -23.4435 -20.8711 -12.7461  -3.5378  -3.2342
    -2.9038  -2.6281  -1.4044  -0.9405   3.4013   6.5590   6.8831   7.4066
     7.9179  10.6411  11.0614  11.8920  12.1700  12.7624  13.5419  14.3617
    15.2244  15.3925

          k = 0.1250 0.0000 0.0000 (  5396 PWs)   bands (ev):

   -45.5220 -24.0897 -23.2952 -23.1758 -20.9283 -13.4526  -3.4982  -2.8617
    -2.7118  -1.6379  -0.3136   0.1072   3.4808   5.3427   5.8273   6.1219
     6.8100   6.9803   8.2217   9.2943  11.5102  13.8770  14.0516  14.9608
    15.2297  17.2443

          k = 0.1875 0.1099 0.0000 (  5410 PWs)   bands (ev):

   -45.5043 -24.0328 -23.4892 -23.2115 -20.8917 -13.3210  -3.3416  -3.0236
    -2.7278  -1.6595  -0.9559  -0.0376   3.4328   5.4294   6.1248   6.1750
     7.1770   7.2558   8.8294   9.9301  12.1018  13.2882  13.8089  15.2718
    15.6623  17.0873

          k = 0.1875 0.1832 0.0000 (  5412 PWs)   bands (ev):

   -45.4934 -24.0037 -23.5843 -23.2411 -20.8779 -13.2386  -3.2857  -3.0738
    -2.7557  -1.7377  -1.1998  -0.1614   3.4011   5.4788   6.1935   6.4523
     7.2204   7.5818   9.1741  10.2501  12.3174  13.1811  13.6180  15.4285
    16.1587  16.8380

          k = 0.1875 0.2564 0.0000 (  5406 PWs)   bands (ev):

   -45.4791 -23.9789 -23.6747 -23.2952 -20.8651 -13.1270  -3.2733  -3.0675
    -2.8189  -1.9272  -1.3521  -0.3919   3.4107   5.4945   6.3223   6.8931
     7.3120   8.0353   9.6124  10.6688  12.5510  13.1282  13.4358  15.5469
    16.1904  17.0689

          k = 0.1875 0.3297 0.0000 (  5407 PWs)   bands (ev):

   -45.4636 -23.9884 -23.7197 -23.3640 -20.8574 -13.0008  -3.3238  -3.0018
    -2.9115  -2.1773  -1.4117  -0.6708   3.4662   5.5966   6.5073   7.0501
     7.6454   8.6806  10.0815  11.1440  12.6575  12.9721  13.7031  15.0808
    16.3400  16.4478

          k = 0.1875 0.4030 0.0000 (  5422 PWs)   bands (ev):

   -45.4493 -24.0372 -23.7097 -23.4337 -20.8558 -12.8787  -3.3878  -3.0352
    -2.9358  -2.3775  -1.4377  -0.9352   3.5475   5.8464   6.6454   7.1168
     7.9014   9.5303  10.5287  11.6112  12.6254  12.9123  14.2429  14.5309
    15.4159  16.2586

          k = 0.1875 0.4762 0.0000 (  5410 PWs)   bands (ev):

   -45.4382 -24.0884 -23.6815 -23.4901 -20.8580 -12.7813  -3.4437  -3.1586
    -2.9028  -2.4802  -1.4576  -1.1345   3.6257   6.2312   6.6546   7.2787
     7.8886  10.4453  10.9068  11.9324  12.5578  13.0555  13.9451  14.5151
    14.9118  16.0716

          k = 0.1875 0.5495 0.0000 (  5413 PWs)   bands (ev):

   -45.4323 -24.1181 -23.6617 -23.5220 -20.8604 -12.7270  -3.4787  -3.2358
    -2.8923  -2.5124  -1.4765  -1.2353   3.6734   6.5972   6.6439   7.4140
     7.6971  10.8661  11.5494  12.0409  12.4648  12.9499  13.5741  14.4611
    15.0456  15.7698

          k = 0.1875-0.0366 0.0000 (  5411 PWs)   bands (ev):

   -45.5102 -24.0503 -23.4257 -23.2042 -20.9007 -13.3645  -3.3798  -2.9791
    -2.7262  -1.6377  -0.7552  -0.0196   3.4696   5.3236   6.0816   6.1796
     7.0399   7.1553   8.6389   9.7525  11.9798  13.3946  13.9093  15.0020
    15.6079  17.0416

          k = 0.2500 0.1465 0.0000 (  5412 PWs)   bands (ev):

   -45.4872 -23.9932 -23.6463 -23.2432 -20.8723 -13.1882  -3.3157  -3.0650
    -2.7453  -1.8769  -1.3061  -0.1630   3.3208   5.6519   6.2346   6.5684
     7.3656   7.7503   9.3574  10.4111  12.1225  13.1918  13.8648  15.8091
    16.2798  16.8549

          k = 0.2500 0.2198 0.0000 (  5409 PWs)   bands (ev):

   -45.4763 -23.9880 -23.7071 -23.2753 -20.8659 -13.1016  -3.3475  -3.0363
    -2.7847  -2.0861  -1.3738  -0.2944   3.2933   5.7440   6.3041   6.9356
     7.4318   8.1110   9.6664  10.7073  12.1362  13.0783  14.0723  15.7553
    16.2827  16.5789

          k = 0.2500 0.2931 0.0000 (  5404 PWs)   bands (ev):

   -45.4633 -24.0060 -23.7282 -23.3391 -20.8595 -12.9956  -3.3712  -2.9927
    -2.8824  -2.2734  -1.4084  -0.5639   3.3665   5.7787   6.4450   7.1606
     7.6538   8.6921  10.0603  11.1284  12.3419  12.9838  14.1230  15.1332
    15.8942  16.5244

          k = 0.2500 0.3663 0.0000 (  5407 PWs)   bands (ev):

   -45.4504 -24.0390 -23.7121 -23.4240 -20.8550 -12.8849  -3.3894  -3.0248
    -2.9398  -2.3830  -1.4404  -0.9027   3.5302   5.8446   6.6523   7.1209
     7.9088   9.5246  10.5232  11.6201  12.6388  12.9041  14.1866  14.4890
    15.3381  16.2961

          k = 0.2500 0.4396 0.0000 (  5412 PWs)   bands (ev):

   -45.4393 -24.0655 -23.6832 -23.5114 -20.8529 -12.7874  -3.4237  -3.1316
    -2.9002  -2.4199  -1.5011  -1.2078   3.7313   6.0183   6.7276   7.1988
     7.9132  10.4472  10.9842  12.0037  12.7715  13.0390  14.1441  14.4756
    14.7273  15.6819

          k = 0.2500 0.5129 0.0000 (  5416 PWs)   bands (ev):

   -45.4320 -24.0778 -23.6593 -23.5791 -20.8525 -12.7201  -3.4815  -3.1621
    -2.8749  -2.4144  -1.6352  -1.3542   3.8937   6.3101   6.6638   7.3566
     7.7181  10.9689  11.6047  12.0862  12.9585  13.3338  13.7855  14.3733
    14.7853  15.4581

          k = 0.2500 0.5861 0.0000 (  5424 PWs)   bands (ev):

   -45.4294 -24.0805 -23.6498 -23.6054 -20.8525 -12.6961  -3.5104  -3.1608
    -2.8669  -2.4039  -1.7163  -1.3827   3.9551   6.5281   6.6161   7.3310
     7.6361  10.9878  12.0959  12.5232  12.5726  13.1559  13.8318  14.3475
    14.9466  15.7393

          k = 0.2500-0.0733 0.0000 (  5425 PWs)   bands (ev):

   -45.4945 -24.0052 -23.5790 -23.2399 -20.8769 -13.2444  -3.2864  -3.0727
    -2.7489  -1.7353  -1.1874  -0.1673   3.4037   5.4485   6.2034   6.4922
     7.2397   7.5637   9.1542  10.2405  12.3140  13.1906  13.6209  15.4475
    16.1367  16.8214

          k = 0.2500 0.0000 0.0000 (  5418 PWs)   bands (ev):

   -45.4970 -24.0106 -23.5484 -23.2446 -20.8786 -13.2638  -3.2747  -3.0706
    -2.7584  -1.6921  -1.1124  -0.2004   3.4506   5.3298   6.2381   6.4915
     7.1508   7.5162   9.0832  10.1843  12.5171  13.0128  13.5896  15.2531
    16.1405  16.7571

          k = 0.3125 0.1832 0.0000 (  5396 PWs)   bands (ev):

   -45.4700 -24.0096 -23.7337 -23.2745 -20.8658 -13.0486  -3.4189  -3.0091
    -2.7688  -2.2935  -1.3912  -0.2787   3.2006   5.9463   6.4527   7.0398
     7.5667   8.3121   9.7965  10.8184  11.9925  12.9825  14.6010  15.5387
    16.3393  16.4870

          k = 0.3125 0.2564 0.0000 (  5404 PWs)   bands (ev):

   -45.4604 -24.0469 -23.7351 -23.3075 -20.8649 -12.9690  -3.4608  -2.9897
    -2.8265  -2.4625  -1.4029  -0.4135   3.2059   6.0806   6.4960   7.2948
     7.7143   8.7481  10.0423  11.0904  12.0867  12.9328  14.6995  14.9446
    15.8459  16.4890

          k = 0.3125 0.3297 0.0000 (  5411 PWs)   bands (ev):

   -45.4501 -24.0789 -23.7143 -23.3781 -20.8611 -12.8797  -3.4614  -3.0277
    -2.9153  -2.5084  -1.4191  -0.7116   3.3496   6.1822   6.5443   7.3117
     7.9028   9.5117  10.4213  11.5138  12.3157  12.9489  14.2426  14.6336
    15.2037  16.3702

          k = 0.3125 0.4030 0.0000 (  5412 PWs)   bands (ev):

   -45.4404 -24.0895 -23.6864 -23.4741 -20.8558 -12.7942  -3.4437  -3.1490
    -2.9038  -2.4792  -1.4596  -1.0871   3.6021   6.2126   6.6695   7.2879
     7.8989  10.4209  10.9034  11.9693  12.5693  13.0298  13.8251  14.4763
    14.8233  16.1056

          k = 0.3125 0.4762 0.0000 (  5424 PWs)   bands (ev):

   -45.4331 -24.0771 -23.6620 -23.5724 -20.8511 -12.7267  -3.4780  -3.1600
    -2.8749  -2.4129  -1.6194  -1.3517   3.8880   6.2906   6.6720   7.3611
     7.7264  10.9449  11.6009  12.1097  13.0012  13.2976  13.6885  14.4094
    14.7385  15.4792

          k = 0.3125 0.5495 0.0000 (  5435 PWs)   bands (ev):

   -45.4291 -24.0576 -23.6486 -23.6392 -20.8484 -12.6894  -3.5296  -3.1068
    -2.8482  -2.3275  -1.8774  -1.4110   4.0873   6.4396   6.6204   7.2191
     7.7110  10.9763  12.1003  12.5160  13.3064  13.4564  13.6054  14.0989
    14.9656  15.6849

          k = 0.3125-0.1099 0.0000 (  5415 PWs)   bands (ev):

   -45.4773 -23.9866 -23.7025 -23.2770 -20.8643 -13.1077  -3.3441  -3.0357
    -2.7803  -2.0687  -1.3710  -0.3107   3.3044   5.7352   6.3130   6.9418
     7.4339   8.1006   9.6495  10.6980  12.1437  13.0837  14.1031  15.7657
    16.2450  16.5803

          k = 0.3125-0.0366 0.0000 (  5418 PWs)   bands (ev):

   -45.4813 -23.9794 -23.6661 -23.2940 -20.8626 -13.1390  -3.2693  -3.0674
    -2.8070  -1.9067  -1.3434  -0.4044   3.4193   5.4696   6.3476   6.9170
     7.3205   8.0163   9.5784  10.6532  12.5679  13.1370  13.4540  15.5360
    16.1282  17.0787

          k = 0.3750 0.2198 0.0000 (  5415 PWs)   bands (ev):

   -45.4554 -24.0932 -23.7288 -23.3009 -20.8690 -12.9243  -3.5328  -2.9980
    -2.7931  -2.6356  -1.4009  -0.3701   3.1174   6.1952   6.7551   7.3793
     7.8821   8.9230  10.0965  11.1465  12.0737  12.9107  14.2515  15.1253
    15.9092  16.0188

          k = 0.3750 0.2931 0.0000 (  5419 PWs)   bands (ev):

   -45.4484 -24.1301 -23.7112 -23.3328 -20.8698 -12.8633  -3.5583  -3.0417
    -2.8663  -2.6617  -1.4038  -0.5033   3.1605   6.3461   6.7514   7.4506
     8.0177   9.4742  10.3270  11.3810  12.1815  12.9371  13.7605  14.8845
    15.3042  16.0064

          k = 0.3750 0.3663 0.0000 (  5409 PWs)   bands (ev):

   -45.4414 -24.1382 -23.6891 -23.4057 -20.8648 -12.8005  -3.5221  -3.1575
    -2.9011  -2.5939  -1.4209  -0.8139   3.3554   6.5465   6.6540   7.4231
     7.9376  10.3199  10.7369  11.7412  12.3143  12.9419  13.4595  14.4957
    15.0077  15.9142

          k = 0.3750 0.4396 0.0000 (  5413 PWs)   bands (ev):

   -45.4354 -24.1157 -23.6688 -23.5039 -20.8567 -12.7457  -3.4750  -3.2249
    -2.8902  -2.5009  -1.4736  -1.1929   3.6533   6.5648   6.6558   7.4385
     7.7016  10.8101  11.5522  12.1049  12.3919  12.9028  13.5176  14.3929
    15.0067  15.7132

          k = 0.3750 0.5129 0.0000 (  5429 PWs)   bands (ev):

   -45.4314 -24.0754 -23.6547 -23.5977 -20.8496 -12.7084  -3.5030  -3.1536
    -2.8649  -2.3921  -1.6943  -1.3898   3.9558   6.4950   6.6235   7.3306
     7.6562  10.9368  12.1378  12.4313  12.5271  13.2423  13.7894  14.3214
    14.9470  15.6734

          k = 0.3750 0.5861 0.0000 (  5448 PWs)   bands (ev):

   -45.4300 -24.0525 -23.6490 -23.6405 -20.8469 -12.6951  -3.5260  -3.1006
    -2.8463  -2.3120  -1.8806  -1.4173   4.0952   6.4399   6.6105   7.2084
     7.7223  10.9487  12.1190  12.3926  13.3895  13.4102  13.7559  14.0056
    14.9393  15.6496

          k = 0.3750-0.1465 0.0000 (  5416 PWs)   bands (ev):

   -45.4614 -24.0416 -23.7346 -23.3103 -20.8631 -12.9744  -3.4558  -2.9894
    -2.8237  -2.4430  -1.4038  -0.4316   3.2195   6.0865   6.5093   7.2874
     7.7015   8.7317  10.0232  11.0802  12.0933  12.9341  14.7289  14.9807
    15.7897  16.5198

          k = 0.3750-0.0733 0.0000 (  5403 PWs)   bands (ev):

   -45.4653 -23.9982 -23.7251 -23.3426 -20.8563 -13.0071  -3.3628  -2.9929
    -2.8723  -2.2376  -1.4086  -0.5924   3.3879   5.7732   6.4608   7.1759
     7.6285   8.6671  10.0258  11.1107  12.3620  12.9898  14.1786  15.1109
    15.9093  16.4808

          k = 0.3750 0.0000 0.0000 (  5404 PWs)   bands (ev):

   -45.4667 -23.9822 -23.7157 -23.3615 -20.8533 -13.0184  -3.3155  -3.0018
    -2.8942  -2.1407  -1.4127  -0.6811   3.4777   5.5837   6.5321   7.0740
     7.6271   8.6498  10.0348  11.1249  12.7030  12.9855  13.6951  15.0433
    16.2773  16.4156

          k = 0.4375 0.2564 0.0000 (  5415 PWs)   bands (ev):

   -45.4456 -24.1677 -23.7026 -23.3184 -20.8753 -12.8377  -3.6220  -3.0684
    -2.8116  -2.7827  -1.3973  -0.4281   3.0777   6.3743   6.9631   7.5098
     8.2573   9.5439  10.3539  11.4025  12.1425  12.8295  13.4787  14.8119
    15.2710  15.5216

          k = 0.4375 0.3297 0.0000 (  5431 PWs)   bands (ev):

   -45.4420 -24.1796 -23.6907 -23.3471 -20.8742 -12.8050  -3.6175  -3.1314
    -2.8771  -2.7131  -1.4014  -0.5536   3.1475   6.4756   6.9518   7.5008
     8.1976  10.0787  10.5582  11.5995  12.0875  12.6833  13.4827  14.4743
    15.0658  15.4703

          k = 0.4375 0.4030 0.0000 (  5415 PWs)   bands (ev):

   -45.4386 -24.1576 -23.6790 -23.4167 -20.8660 -12.7739  -3.5420  -3.2113
    -2.8969  -2.6072  -1.4216  -0.8562   3.3655   6.5750   6.8747   7.4447
     7.8943  10.5662  11.0693  11.9026  12.0555  12.6987  13.5016  14.2951
    15.1540  15.3945

          k = 0.4375 0.4762 0.0000 (  5413 PWs)   bands (ev):

   -45.4360 -24.1106 -23.6697 -23.5062 -20.8554 -12.7495  -3.4727  -3.2173
    -2.8889  -2.4903  -1.4741  -1.2056   3.6624   6.6005   6.6312   7.4567
     7.6683  10.7899  11.4554  12.0929  12.4632  12.9123  13.5134  14.4118
    15.0151  15.7417

          k = 0.4375 0.5495 0.0000 (  5428 PWs)   bands (ev):

   -45.4346 -24.0664 -23.6641 -23.5760 -20.8483 -12.7362  -3.4732  -3.1444
    -2.8719  -2.3850  -1.6272  -1.3693   3.9061   6.3042   6.6521   7.3794
     7.6992  10.9063  11.4711  12.1315  12.9538  13.3820  13.7491  14.3848
    14.7400  15.4959

          k = 0.4375-0.1832 0.0000 (  5416 PWs)   bands (ev):

   -45.4490 -24.1253 -23.7119 -23.3351 -20.8685 -12.8671  -3.5536  -3.0401
    -2.8652  -2.6492  -1.4050  -0.5169   3.1710   6.3442   6.7847   7.4423
     8.0016   9.4415  10.3021  11.3746  12.1889  12.9306  13.7770  14.9298
    15.2652  16.0338

          k = 0.4375-0.1099 0.0000 (  5406 PWs)   bands (ev):

   -45.4516 -24.0682 -23.7153 -23.3829 -20.8581 -12.8889  -3.4528  -3.0217
    -2.9102  -2.4796  -1.4211  -0.7404   3.3717   6.1964   6.5499   7.3331
     7.8588   9.4689  10.3733  11.4955  12.3329  12.9406  14.2710  14.6875
    15.2075  16.3912

          k = 0.4375-0.0366 0.0000 (  5418 PWs)   bands (ev):

   -45.4530 -24.0250 -23.7130 -23.4278 -20.8506 -12.9004  -3.3794  -3.0098
    -2.9360  -2.3388  -1.4434  -0.9340   3.5559   5.8431   6.6506   7.1640
     7.8605   9.4759  10.4612  11.5977  12.6691  12.9095  14.2129  14.4957
    15.3775  16.2396

          k =-0.5000-0.2931 0.0000 (  5428 PWs)   bands (ev):

   -45.4422 -24.1952 -23.6911 -23.3246 -20.8782 -12.8066  -3.6577  -3.1146
    -2.8200  -2.8084  -1.3949  -0.4479   3.0672   6.4470   7.0187   7.5434
     8.4199   9.8916  10.4716  11.6123  11.9502  12.5791  13.5346  14.4430
    15.0659  15.3443

          k =-0.5000-0.2198 0.0000 (  5413 PWs)   bands (ev):

   -45.4422 -24.1778 -23.6910 -23.3480 -20.8737 -12.8063  -3.6155  -3.1304
    -2.8767  -2.7092  -1.4018  -0.5585   3.1514   6.4712   6.9748   7.4933
     8.1935  10.0502  10.5470  11.5941  12.1058  12.6829  13.4758  14.4872
    15.0891  15.4566

          k =-0.5000-0.1465 0.0000 (  5401 PWs)   bands (ev):

   -45.4422 -24.1315 -23.6903 -23.4089 -20.8630 -12.8056  -3.5163  -3.1512
    -2.8991  -2.5800  -1.4222  -0.8315   3.3688   6.5319   6.6987   7.4316
     7.9023  10.2762  10.6758  11.7301  12.3464  12.9358  13.4737  14.5238
    15.0312  15.9288

          k =-0.5000-0.0733 0.0000 (  5418 PWs)   bands (ev):

   -45.4422 -24.0767 -23.6885 -23.4792 -20.8525 -12.8048  -3.4368  -3.1325
    -2.9007  -2.4483  -1.4615  -1.1180   3.6255   6.2316   6.6519   7.3328
     7.8419  10.3743  10.8050  11.9537  12.5789  13.0349  13.8776  14.5005
    14.8685  16.1112

          k =-0.5000-0.0000 0.0000 (  5416 PWs)   bands (ev):

   -45.4422 -24.0502 -23.6868 -23.5129 -20.8482 -12.8045  -3.4157  -3.1081
    -2.8975  -2.3784  -1.5031  -1.2327   3.7537   6.0176   6.7084   7.2572
     7.8601  10.3891  10.8733  12.0081  12.7306  13.1181  14.1480  14.4649
    14.7502  15.6894

     highest occupied, lowest unoccupied level (ev):     4.0952    5.3236

!    total energy              =    -446.24447620 Ry
     total all-electron energy =     -8320.714756 Ry
     estimated scf accuracy    <          4.2E-11 Ry

     The total energy is the sum of the following terms:
     one-electron contribution =    -304.68528412 Ry
     hartree contribution      =     160.60413476 Ry
     xc contribution           =     -38.52897429 Ry
     ewald contribution        =       2.99147041 Ry
     one-center paw contrib.   =    -266.62582296 Ry

     convergence has been achieved in   4 iterations

     negative rho (up, down):  8.130E-05 0.000E+00

     Forces acting on atoms (cartesian axes, Ry/au):

     atom    1 type  1   force =     0.00000000    0.00005966   -0.00001267
     atom    2 type  2   force =     0.00000000   -0.00011462   -0.00007153
     atom    3 type  3   force =     0.00000000    0.00005496    0.00008421
     The non-local contrib.  to forces
     atom    1 type  1   force =     0.00000000   -0.00293921   -0.02111849
     atom    2 type  2   force =     0.00000000   -0.01957903   -1.11561027
     atom    3 type  3   force =     0.00000000   -0.00100849    0.22371559
     The ionic contribution  to forces
     atom    1 type  1   force =    -0.00000001   -0.15735694   -0.43767557
     atom    2 type  2   force =     0.00000001    0.10564026   27.12247898
     atom    3 type  3   force =     0.00000000    0.05171667  -26.68480342
     The local contribution  to forces
     atom    1 type  1   force =    -0.00000000    0.16016684    0.45509420
     atom    2 type  2   force =     0.00000027   -0.08628417  -26.01056390
     atom    3 type  3   force =     0.00000003   -0.05053320   26.46826855
     The core correction contribution to forces
     atom    1 type  1   force =     0.00000000    0.00013475    0.00363774
     atom    2 type  2   force =     0.00000000    0.00005392    0.00359774
     atom    3 type  3   force =    -0.00000000   -0.00017306   -0.00712204
     The Hubbard contrib.    to forces
     atom    1 type  1   force =     0.00000000    0.00000000    0.00000000
     atom    2 type  2   force =     0.00000000    0.00000000    0.00000000
     atom    3 type  3   force =     0.00000000    0.00000000    0.00000000
     The SCF correction term to forces
     atom    1 type  1   force =    -0.00000000   -0.00000089    0.00002824
     atom    2 type  2   force =     0.00000000   -0.00000071    0.00000471
     atom    3 type  3   force =    -0.00000000   -0.00000207    0.00000431

     Total force =     0.000179     Total SCF correction =     0.000029
     SCF correction compared to forces is large: reduce conv_thr to get better values
     Energy error            =      4.7E-08 Ry
     Gradient error          =      1.1E-04 Ry/Bohr

     number of scf cycles    =   9
     number of bfgs steps    =   8

     energy             old  =    -446.2444761545 Ry
     energy             new  =    -446.2444762017 Ry

     CASE: energy            _new < energy            _old

     new trust radius        =       0.0003354974 bohr
     new conv_thr            =            1.0E-10 Ry


ATOMIC_POSITIONS (angstrom)
Zr           -0.0000000000        0.0166267427        9.5699998869
F            -0.0000000020        1.8725979116       10.9148217046
Cl           -0.0000000020        1.8737960543        7.8013533170



     Writing config-only to output data dir ./tmp/ZrFCl.save/
     NEW-OLD atomic charge density approx. for the potential

     Check: negative core charge=   -0.000005

     negative rho (up, down):  8.133E-05 0.000E+00

     total cpu time spent up to now is       95.2 secs

     Self-consistent Calculation

     iteration #  1     ecut=    65.00 Ry     beta= 0.70
     Davidson diagonalization with overlap
     ethr =  1.00E-06,  avg # of iterations =  2.0

     Threshold (ethr) on eigenvalues was too large:
     Diagonalizing with lowered threshold

     Davidson diagonalization with overlap
     ethr =  4.79E-11,  avg # of iterations =  4.0

     negative rho (up, down):  8.133E-05 0.000E+00

     total cpu time spent up to now is       98.1 secs

     total energy              =    -446.24447625 Ry
     estimated scf accuracy    <          8.7E-09 Ry

     iteration #  2     ecut=    65.00 Ry     beta= 0.70
     Davidson diagonalization with overlap
     ethr =  3.36E-11,  avg # of iterations =  2.0

     negative rho (up, down):  8.132E-05 0.000E+00

     total cpu time spent up to now is       99.4 secs

     total energy              =    -446.24447625 Ry
     estimated scf accuracy    <       0.00000001 Ry

     iteration #  3     ecut=    65.00 Ry     beta= 0.70
     Davidson diagonalization with overlap
     ethr =  3.36E-11,  avg # of iterations =  1.4

     negative rho (up, down):  8.131E-05 0.000E+00

     total cpu time spent up to now is      100.6 secs

     total energy              =    -446.24447625 Ry
     estimated scf accuracy    <          1.3E-09 Ry

     iteration #  4     ecut=    65.00 Ry     beta= 0.70
     Davidson diagonalization with overlap
     ethr =  5.16E-12,  avg # of iterations =  1.0

     negative rho (up, down):  8.131E-05 0.000E+00

     total cpu time spent up to now is      101.7 secs

     End of self-consistent calculation

          k = 0.0000 0.0000 0.0000 (  5391 PWs)   bands (ev):

   -45.5315 -24.1231 -23.1784 -23.1535 -20.9581 -13.5228  -3.6088  -2.7416
    -2.7052  -1.6663   0.1188   0.2109   3.4577   5.4379   5.6428   5.9494
     6.7818   6.8582   7.8665   8.7979  11.1292  13.8218  14.5731  14.8133
    15.5414  17.2572

          k = 0.0000 0.0733 0.0000 (  5395 PWs)   bands (ev):

   -45.5279 -24.1109 -23.1974 -23.1855 -20.9469 -13.4976  -3.5689  -2.7528
    -2.7426  -1.6516   0.0426   0.0864   3.4753   5.5008   5.5817   6.0398
     6.8120   6.8305   7.9993   8.9980  11.2639  13.9059  14.4939  14.6798
    15.3703  17.2269

          k = 0.0000 0.1465 0.0000 (  5413 PWs)   bands (ev):

   -45.5177 -24.0768 -23.3165 -23.2056 -20.9200 -13.4246  -3.4631  -2.8717
    -2.7472  -1.6281  -0.3886  -0.0026   3.5000   5.4781   5.6941   6.1512
     6.8975   6.9603   8.3598   9.4464  11.6544  13.7893  14.1046  14.9981
    15.0832  17.1360

          k = 0.0000 0.2198 0.0000 (  5385 PWs)   bands (ev):

   -45.5023 -24.0286 -23.4794 -23.2354 -20.8916 -13.3120  -3.3382  -3.0068
    -2.7588  -1.6472  -0.9178  -0.1276   3.4715   5.4838   6.0230   6.1705
     7.1338   7.2698   8.8648   9.9505  12.1321  13.3324  13.8531  15.3157
    15.5163  16.9836

          k = 0.0000 0.2931 0.0000 (  5383 PWs)   bands (ev):

   -45.4841 -23.9868 -23.6407 -23.2704 -20.8730 -13.1731  -3.3118  -3.0536
    -2.7794  -1.8538  -1.2875  -0.2637   3.3723   5.6660   6.2526   6.4749
     7.3178   7.7749   9.4002  10.4276  12.1357  13.2414  13.9389  15.8703
    16.1595  16.8074

          k = 0.0000 0.3663 0.0000 (  5420 PWs)   bands (ev):

   -45.4659 -24.0045 -23.7282 -23.3051 -20.8679 -13.0269  -3.4145  -3.0050
    -2.8069  -2.2755  -1.3746  -0.3890   3.2561   5.9355   6.4709   6.9838
     7.5183   8.3448   9.8381  10.8260  12.0153  13.0321  14.7236  15.6729
    16.2284  16.5725

          k = 0.0000 0.4396 0.0000 (  5404 PWs)   bands (ev):

   -45.4503 -24.0924 -23.7198 -23.3342 -20.8727 -12.8966  -3.5269  -3.0033
    -2.8350  -2.6261  -1.3806  -0.4878   3.1739   6.1758   6.7645   7.3397
     7.8584   8.9636  10.1332  11.1526  12.1221  12.9781  14.3941  15.2393
    15.7974  16.1428

          k = 0.0000 0.5129 0.0000 (  5408 PWs)   bands (ev):

   -45.4399 -24.1695 -23.6911 -23.3536 -20.8801 -12.8058  -3.6133  -3.0834
    -2.8561  -2.7788  -1.3740  -0.5504   3.1346   6.3555   6.9555   7.4649
     8.2773   9.5927  10.3878  11.4218  12.2264  12.9395  13.5568  14.9092
    15.3636  15.4092

          k = 0.0000-0.5861 0.0000 (  5402 PWs)   bands (ev):

   -45.4362 -24.1979 -23.6788 -23.3604 -20.8835 -12.7731  -3.6477  -3.1329
    -2.8639  -2.8085  -1.3707  -0.5718   3.1244   6.4301   7.0019   7.4960
     8.4597   9.9512  10.4874  11.6481  12.0738  12.6738  13.5993  14.5240
    15.1764  15.2037

          k = 0.0625 0.0366 0.0000 (  5403 PWs)   bands (ev):

   -45.5281 -24.1114 -23.2167 -23.1643 -20.9471 -13.4987  -3.5697  -2.7815
    -2.7117  -1.6531  -0.0288   0.1649   3.4706   5.4154   5.6798   6.0338
     6.7599   6.8947   7.9922   8.9893  11.2585  13.9032  14.3427  14.8694
    15.3458  17.2794

          k = 0.0625 0.1099 0.0000 (  5403 PWs)   bands (ev):

   -45.5212 -24.0883 -23.2852 -23.1907 -20.9281 -13.4496  -3.4963  -2.8451
    -2.7343  -1.6341  -0.2798   0.0563   3.4915   5.4322   5.7091   6.1362
     6.8002   6.9638   8.2397   9.3101  11.5246  13.9143  14.1010  14.8777
    15.1924  17.1745

          k = 0.0625 0.1832 0.0000 (  5388 PWs)   bands (ev):

   -45.5084 -24.0468 -23.4189 -23.2229 -20.9007 -13.3567  -3.3762  -2.9644
    -2.7537  -1.6289  -0.7298  -0.0831   3.4941   5.3995   5.9528   6.1900
     6.9852   7.1789   8.6742   9.7744  12.0106  13.4251  13.9464  14.9819
    15.5146  16.9845

          k = 0.0625 0.2564 0.0000 (  5389 PWs)   bands (ev):

   -45.4916 -23.9997 -23.5769 -23.2610 -20.8779 -13.2306  -3.2835  -3.0621
    -2.7792  -1.7213  -1.1756  -0.2389   3.4394   5.4847   6.1876   6.4114
     7.1914   7.5904   9.2000  10.2613  12.3286  13.2295  13.6523  15.4556
    16.0754  16.7847

          k = 0.0625 0.3297 0.0000 (  5397 PWs)   bands (ev):

   -45.4734 -23.9819 -23.7013 -23.3011 -20.8667 -13.0874  -3.3427  -3.0298
    -2.8139  -2.0606  -1.3596  -0.3918   3.3448   5.7387   6.3060   6.8938
     7.3911   8.1313   9.6983  10.7132  12.1454  13.1195  14.1666  15.8153
    16.2693  16.6328

          k = 0.0625 0.4030 0.0000 (  5408 PWs)   bands (ev):

   -45.4565 -24.0424 -23.7281 -23.3378 -20.8670 -12.9482  -3.4547  -2.9919
    -2.8564  -2.4462  -1.3869  -0.5232   3.2617   6.0685   6.5065   7.2577
     7.6798   8.7735  10.0703  11.0868  12.1162  12.9829  14.8576  15.0480
    15.8075  16.5594

          k = 0.0625 0.4762 0.0000 (  5406 PWs)   bands (ev):

   -45.4435 -24.1290 -23.7016 -23.3656 -20.8735 -12.8365  -3.5501  -3.0573
    -2.8853  -2.6654  -1.3840  -0.6186   3.2161   6.3247   6.7709   7.4080
     8.0136   9.5023  10.3497  11.3794  12.2413  13.0118  13.8815  14.9618
    15.3263  16.0482

          k = 0.0625 0.5495 0.0000 (  5410 PWs)   bands (ev):

   -45.4364 -24.1815 -23.6793 -23.3807 -20.8792 -12.7740  -3.6083  -3.1523
    -2.8936  -2.7310  -1.3791  -0.6686   3.2005   6.4553   6.9545   7.4554
     8.2266  10.1253  10.5679  11.6193  12.1999  12.7819  13.5342  14.5426
    15.1376  15.4265

          k = 0.1250 0.0733 0.0000 (  5398 PWs)   bands (ev):

   -45.5185 -24.0787 -23.3309 -23.1840 -20.9203 -13.4289  -3.4656  -2.8935
    -2.7177  -1.6334  -0.4435   0.0778   3.4810   5.3707   5.8419   6.1357
     6.8693   7.0178   8.3380   9.4277  11.6338  13.7406  14.0521  15.0431
    15.1684  17.2383

          k = 0.1250 0.1465 0.0000 (  5400 PWs)   bands (ev):

   -45.5090 -24.0483 -23.4257 -23.2108 -20.9010 -13.3599  -3.3777  -2.9744
    -2.7386  -1.6334  -0.7572  -0.0356   3.4772   5.3772   6.0042   6.1806
     6.9877   7.1915   8.6608   9.7653  11.9962  13.4022  13.9259  14.9832
    15.5648  17.0293

          k = 0.1250 0.2198 0.0000 (  5391 PWs)   bands (ev):

   -45.4948 -24.0068 -23.5525 -23.2539 -20.8798 -13.2533  -3.2722  -3.0674
    -2.7769  -1.6869  -1.1225  -0.2215   3.4622   5.3734   6.2114   6.4321
     7.1131   7.5423   9.1209  10.2018  12.5411  13.0009  13.6002  15.2504
    16.1212  16.7565

          k = 0.1250 0.2931 0.0000 (  5394 PWs)   bands (ev):

   -45.4780 -23.9763 -23.6714 -23.3059 -20.8652 -13.1222  -3.2713  -3.0640
    -2.8303  -1.9143  -1.3453  -0.4334   3.4332   5.4893   6.3211   6.8823
     7.2943   8.0417   9.6247  10.6712  12.5412  13.1474  13.4786  15.5604
    16.1774  17.1568

          k = 0.1250 0.3663 0.0000 (  5406 PWs)   bands (ev):

   -45.4611 -24.0016 -23.7237 -23.3582 -20.8605 -12.9844  -3.3670  -2.9939
    -2.8976  -2.2564  -1.4000  -0.6341   3.4042   5.7734   6.4414   7.1443
     7.6309   8.7036  10.0774  11.1240  12.3412  13.0056  14.2179  15.1677
    15.9918  16.5312

          k = 0.1250 0.4396 0.0000 (  5423 PWs)   bands (ev):

   -45.4467 -24.0758 -23.7078 -23.4028 -20.8634 -12.8619  -3.4562  -3.0463
    -2.9165  -2.5038  -1.4070  -0.7975   3.3928   6.1837   6.5407   7.2903
     7.8870   9.5288  10.4348  11.4935  12.3374  12.9859  14.3511  14.7384
    15.2486  16.4388

          k = 0.1250 0.5129 0.0000 (  5412 PWs)   bands (ev):

   -45.4371 -24.1383 -23.6802 -23.4327 -20.8686 -12.7768  -3.5164  -3.1769
    -2.9056  -2.6052  -1.4054  -0.9039   3.3971   6.5197   6.6873   7.3910
     7.9378  10.3613  10.7337  11.7147  12.3795  13.0213  13.5358  14.5412
    15.0904  15.9632

          k = 0.1250 0.5861 0.0000 (  5398 PWs)   bands (ev):

   -45.4337 -24.1614 -23.6687 -23.4434 -20.8711 -12.7463  -3.5379  -3.2343
    -2.9038  -2.6282  -1.4044  -0.9407   3.4014   6.5592   6.8832   7.4069
     7.9182  10.6412  11.0617  11.8922  12.1700  12.7627  13.5421  14.3617
    15.2246  15.3927

          k = 0.1250 0.0000 0.0000 (  5396 PWs)   bands (ev):

   -45.5218 -24.0896 -23.2951 -23.1756 -20.9283 -13.4527  -3.4983  -2.8617
    -2.7120  -1.6379  -0.3139   0.1071   3.4811   5.3430   5.8274   6.1220
     6.8101   6.9805   8.2217   9.2943  11.5102  13.8771  14.0515  14.9609
    15.2300  17.2442

          k = 0.1875 0.1099 0.0000 (  5410 PWs)   bands (ev):

   -45.5041 -24.0327 -23.4891 -23.2113 -20.8917 -13.3211  -3.3418  -3.0237
    -2.7279  -1.6596  -0.9560  -0.0378   3.4330   5.4298   6.1247   6.1753
     7.1772   7.2558   8.8295   9.9300  12.1018  13.2883  13.8089  15.2718
    15.6624  17.0875

          k = 0.1875 0.1832 0.0000 (  5412 PWs)   bands (ev):

   -45.4932 -24.0036 -23.5841 -23.2410 -20.8779 -13.2387  -3.2858  -3.0739
    -2.7558  -1.7378  -1.1998  -0.1617   3.4013   5.4792   6.1935   6.4526
     7.2207   7.5818   9.1742  10.2500  12.3175  13.1812  13.6181  15.4285
    16.1587  16.8380

          k = 0.1875 0.2564 0.0000 (  5406 PWs)   bands (ev):

   -45.4789 -23.9788 -23.6746 -23.2950 -20.8651 -13.1271  -3.2734  -3.0676
    -2.8190  -1.9274  -1.3521  -0.3921   3.4109   5.4948   6.3224   6.8934
     7.3123   8.0354   9.6126  10.6687  12.5511  13.1283  13.4359  15.5469
    16.1904  17.0690

          k = 0.1875 0.3297 0.0000 (  5407 PWs)   bands (ev):

   -45.4634 -23.9883 -23.7195 -23.3638 -20.8574 -13.0009  -3.3239  -3.0019
    -2.9116  -2.1775  -1.4117  -0.6710   3.4663   5.5969   6.5074   7.0504
     7.6457   8.6807  10.0818  11.1439  12.6575  12.9723  13.7032  15.0810
    16.3401  16.4478

          k = 0.1875 0.4030 0.0000 (  5422 PWs)   bands (ev):

   -45.4491 -24.0371 -23.7095 -23.4335 -20.8558 -12.8788  -3.3879  -3.0353
    -2.9359  -2.3777  -1.4377  -0.9354   3.5476   5.8467   6.6456   7.1170
     7.9017   9.5304  10.5290  11.6111  12.6255  12.9125  14.2430  14.5310
    15.4160  16.2586

          k = 0.1875 0.4762 0.0000 (  5410 PWs)   bands (ev):

   -45.4380 -24.0884 -23.6813 -23.4899 -20.8580 -12.7814  -3.4438  -3.1587
    -2.9028  -2.4803  -1.4577  -1.1346   3.6257   6.2314   6.6549   7.2789
     7.8888  10.4454  10.9071  11.9324  12.5579  13.0557  13.9452  14.5151
    14.9119  16.0716

          k = 0.1875 0.5495 0.0000 (  5413 PWs)   bands (ev):

   -45.4320 -24.1181 -23.6615 -23.5218 -20.8604 -12.7272  -3.4788  -3.2359
    -2.8924  -2.5125  -1.4767  -1.2354   3.6734   6.5974   6.6441   7.4142
     7.6974  10.8662  11.5495  12.0410  12.4648  12.9499  13.5744  14.4610
    15.0458  15.7699

          k = 0.1875-0.0366 0.0000 (  5411 PWs)   bands (ev):

   -45.5099 -24.0502 -23.4256 -23.2041 -20.9007 -13.3646  -3.3799  -2.9791
    -2.7264  -1.6378  -0.7555  -0.0198   3.4699   5.3239   6.0818   6.1796
     7.0399   7.1556   8.6390   9.7525  11.9798  13.3947  13.9093  15.0020
    15.6082  17.0417

          k = 0.2500 0.1465 0.0000 (  5412 PWs)   bands (ev):

   -45.4870 -23.9931 -23.6461 -23.2430 -20.8723 -13.1883  -3.3158  -3.0650
    -2.7455  -1.8772  -1.3061  -0.1632   3.3210   5.6522   6.2346   6.5686
     7.3659   7.7504   9.3576  10.4111  12.1226  13.1918  13.8647  15.8091
    16.2798  16.8547

          k = 0.2500 0.2198 0.0000 (  5409 PWs)   bands (ev):

   -45.4760 -23.9879 -23.7069 -23.2751 -20.8659 -13.1017  -3.3476  -3.0364
    -2.7848  -2.0863  -1.3737  -0.2947   3.2935   5.7443   6.3041   6.9359
     7.4321   8.1111   9.6667  10.7072  12.1363  13.0783  14.0722  15.7554
    16.2828  16.5789

          k = 0.2500 0.2931 0.0000 (  5404 PWs)   bands (ev):

   -45.4631 -24.0059 -23.7280 -23.3389 -20.8595 -12.9957  -3.3713  -2.9928
    -2.8825  -2.2736  -1.4084  -0.5641   3.3666   5.7790   6.4451   7.1609
     7.6540   8.6923  10.0606  11.1283  12.3419  12.9839  14.1230  15.1334
    15.8943  16.5244

          k = 0.2500 0.3663 0.0000 (  5407 PWs)   bands (ev):

   -45.4501 -24.0390 -23.7119 -23.4238 -20.8550 -12.8851  -3.3895  -3.0249
    -2.9399  -2.3832  -1.4404  -0.9029   3.5303   5.8449   6.6525   7.1211
     7.9091   9.5247  10.5236  11.6200  12.6390  12.9041  14.1867  14.4892
    15.3381  16.2961

          k = 0.2500 0.4396 0.0000 (  5412 PWs)   bands (ev):

   -45.4391 -24.0654 -23.6830 -23.5113 -20.8529 -12.7875  -3.4238  -3.1317
    -2.9003  -2.4201  -1.5012  -1.2078   3.7314   6.0186   6.7279   7.1989
     7.9135  10.4472  10.9846  12.0036  12.7716  13.0391  14.1442  14.4757
    14.7273  15.6819

          k = 0.2500 0.5129 0.0000 (  5416 PWs)   bands (ev):

   -45.4318 -24.0777 -23.6591 -23.5789 -20.8525 -12.7202  -3.4817  -3.1622
    -2.8750  -2.4145  -1.6354  -1.3542   3.8938   6.3103   6.6641   7.3567
     7.7185  10.9691  11.6048  12.0862  12.9585  13.3339  13.7857  14.3733
    14.7855  15.4580

          k = 0.2500 0.5861 0.0000 (  5424 PWs)   bands (ev):

   -45.4292 -24.0804 -23.6496 -23.6053 -20.8525 -12.6962  -3.5106  -3.1609
    -2.8670  -2.4041  -1.7165  -1.3827   3.9552   6.5281   6.6164   7.3313
     7.6365  10.9880  12.0959  12.5233  12.5724  13.1560  13.8320  14.3475
    14.9467  15.7391

          k = 0.2500-0.0733 0.0000 (  5425 PWs)   bands (ev):

   -45.4943 -24.0051 -23.5788 -23.2397 -20.8769 -13.2445  -3.2865  -3.0727
    -2.7491  -1.7355  -1.1874  -0.1675   3.4039   5.4489   6.2036   6.4922
     7.2398   7.5638   9.1544  10.2405  12.3140  13.1906  13.6209  15.4473
    16.1369  16.8217

          k = 0.2500 0.0000 0.0000 (  5418 PWs)   bands (ev):

   -45.4968 -24.0104 -23.5482 -23.2444 -20.8786 -13.2639  -3.2748  -3.0706
    -2.7586  -1.6923  -1.1125  -0.2005   3.4508   5.3302   6.2385   6.4914
     7.1509   7.5165   9.0833  10.1843  12.5170  13.0129  13.5896  15.2530
    16.1406  16.7573

          k = 0.3125 0.1832 0.0000 (  5396 PWs)   bands (ev):

   -45.4698 -24.0095 -23.7335 -23.2743 -20.8658 -13.0487  -3.4190  -3.0092
    -2.7690  -2.2937  -1.3912  -0.2789   3.2008   5.9467   6.4527   7.0400
     7.5670   8.3122   9.7968  10.8184  11.9924  12.9826  14.6010  15.5387
    16.3393  16.4871

          k = 0.3125 0.2564 0.0000 (  5404 PWs)   bands (ev):

   -45.4602 -24.0468 -23.7349 -23.3073 -20.8649 -12.9692  -3.4609  -2.9898
    -2.8267  -2.4626  -1.4029  -0.4137   3.2061   6.0810   6.4960   7.2952
     7.7145   8.7483  10.0427  11.0904  12.0867  12.9328  14.6996  14.9445
    15.8459  16.4890

          k = 0.3125 0.3297 0.0000 (  5411 PWs)   bands (ev):

   -45.4498 -24.0788 -23.7142 -23.3779 -20.8611 -12.8798  -3.4615  -3.0279
    -2.9154  -2.5085  -1.4191  -0.7117   3.3497   6.1826   6.5444   7.3120
     7.9030   9.5118  10.4217  11.5137  12.3158  12.9488  14.2426  14.6336
    15.2037  16.3703

          k = 0.3125 0.4030 0.0000 (  5412 PWs)   bands (ev):

   -45.4402 -24.0894 -23.6862 -23.4739 -20.8558 -12.7943  -3.4438  -3.1491
    -2.9040  -2.4793  -1.4597  -1.0873   3.6022   6.2128   6.6698   7.2881
     7.8992  10.4210  10.9038  11.9692  12.5695  13.0297  13.8252  14.4764
    14.8232  16.1057

          k = 0.3125 0.4762 0.0000 (  5424 PWs)   bands (ev):

   -45.4329 -24.0771 -23.6618 -23.5722 -20.8511 -12.7268  -3.4781  -3.1601
    -2.8750  -2.4130  -1.6195  -1.3518   3.8881   6.2908   6.6724   7.3612
     7.7269  10.9451  11.6010  12.1096  13.0013  13.2976  13.6885  14.4094
    14.7386  15.4792

          k = 0.3125 0.5495 0.0000 (  5435 PWs)   bands (ev):

   -45.4289 -24.0575 -23.6484 -23.6391 -20.8484 -12.6896  -3.5297  -3.1068
    -2.8483  -2.3276  -1.8775  -1.4110   4.0874   6.4396   6.6208   7.2194
     7.7114  10.9765  12.1003  12.5160  13.3065  13.4563  13.6055  14.0990
    14.9656  15.6849

          k = 0.3125-0.1099 0.0000 (  5415 PWs)   bands (ev):

   -45.4771 -23.9865 -23.7024 -23.2768 -20.8643 -13.1078  -3.3442  -3.0358
    -2.7805  -2.0689  -1.3710  -0.3108   3.3046   5.7356   6.3132   6.9418
     7.4342   8.1008   9.6497  10.6981  12.1436  13.0837  14.1030  15.7657
    16.2450  16.5802

          k = 0.3125-0.0366 0.0000 (  5418 PWs)   bands (ev):

   -45.4811 -23.9793 -23.6659 -23.2938 -20.8626 -13.1391  -3.2695  -3.0675
    -2.8072  -1.9070  -1.3434  -0.4045   3.4194   5.4700   6.3479   6.9169
     7.3208   8.0164   9.5786  10.6532  12.5678  13.1370  13.4539  15.5359
    16.1282  17.0786

          k = 0.3750 0.2198 0.0000 (  5415 PWs)   bands (ev):

   -45.4552 -24.0931 -23.7287 -23.3007 -20.8690 -12.9244  -3.5330  -2.9981
    -2.7932  -2.6357  -1.4010  -0.3703   3.1176   6.1955   6.7553   7.3795
     7.8823   8.9233  10.0967  11.1466  12.0737  12.9107  14.2515  15.1252
    15.9092  16.0189

          k = 0.3750 0.2931 0.0000 (  5419 PWs)   bands (ev):

   -45.4482 -24.1300 -23.7110 -23.3326 -20.8698 -12.8635  -3.5584  -3.0418
    -2.8665  -2.6618  -1.4038  -0.5035   3.1607   6.3465   6.7515   7.4510
     8.0179   9.4746  10.3272  11.3810  12.1815  12.9371  13.7605  14.8845
    15.3041  16.0066

          k = 0.3750 0.3663 0.0000 (  5409 PWs)   bands (ev):

   -45.4411 -24.1381 -23.6889 -23.4055 -20.8648 -12.8006  -3.5222  -3.1577
    -2.9012  -2.5940  -1.4209  -0.8140   3.3556   6.5470   6.6540   7.4234
     7.9378  10.3201  10.7371  11.7411  12.3145  12.9420  13.4594  14.4958
    15.0076  15.9145

          k = 0.3750 0.4396 0.0000 (  5413 PWs)   bands (ev):

   -45.4352 -24.1156 -23.6686 -23.5038 -20.8567 -12.7459  -3.4751  -3.2251
    -2.8903  -2.5010  -1.4737  -1.1931   3.6534   6.5649   6.6563   7.4387
     7.7020  10.8102  11.5523  12.1049  12.3920  12.9029  13.5175  14.3931
    15.0066  15.7134

          k = 0.3750 0.5129 0.0000 (  5429 PWs)   bands (ev):

   -45.4312 -24.0754 -23.6545 -23.5975 -20.8496 -12.7085  -3.5031  -3.1537
    -2.8650  -2.3922  -1.6944  -1.3899   3.9559   6.4951   6.6239   7.3309
     7.6567  10.9368  12.1378  12.4313  12.5271  13.2425  13.7893  14.3215
    14.9470  15.6736

          k = 0.3750 0.5861 0.0000 (  5448 PWs)   bands (ev):

   -45.4298 -24.0524 -23.6488 -23.6403 -20.8469 -12.6953  -3.5261  -3.1008
    -2.8464  -2.3121  -1.8807  -1.4174   4.0953   6.4401   6.6108   7.2088
     7.7227  10.9487  12.1191  12.3926  13.3895  13.4101  13.7562  14.0058
    14.9392  15.6498

          k = 0.3750-0.1465 0.0000 (  5416 PWs)   bands (ev):

   -45.4612 -24.0414 -23.7345 -23.3102 -20.8631 -12.9745  -3.4559  -2.9895
    -2.8238  -2.4432  -1.4038  -0.4317   3.2196   6.0869   6.5095   7.2874
     7.7018   8.7319  10.0234  11.0802  12.0933  12.9341  14.7290  14.9806
    15.7898  16.5198

          k = 0.3750-0.0733 0.0000 (  5403 PWs)   bands (ev):

   -45.4651 -23.9981 -23.7249 -23.3425 -20.8563 -13.0072  -3.3629  -2.9930
    -2.8725  -2.2377  -1.4086  -0.5925   3.3880   5.7736   6.4611   7.1760
     7.6288   8.6672  10.0260  11.1107  12.3619  12.9899  14.1785  15.1110
    15.9092  16.4807

          k = 0.3750 0.0000 0.0000 (  5404 PWs)   bands (ev):

   -45.4665 -23.9821 -23.7156 -23.3614 -20.8533 -13.0185  -3.3156  -3.0019
    -2.8944  -2.1409  -1.4128  -0.6812   3.4779   5.5841   6.5324   7.0741
     7.6273   8.6499  10.0350  11.1250  12.7030  12.9855  13.6950  15.0434
    16.2772  16.4155

          k = 0.4375 0.2564 0.0000 (  5415 PWs)   bands (ev):

   -45.4454 -24.1675 -23.7024 -23.3183 -20.8753 -12.8379  -3.6221  -3.0685
    -2.8118  -2.7828  -1.3973  -0.4283   3.0778   6.3747   6.9633   7.5101
     8.2574   9.5443  10.3540  11.4026  12.1425  12.8295  13.4787  14.8119
    15.2711  15.5216

          k = 0.4375 0.3297 0.0000 (  5431 PWs)   bands (ev):

   -45.4418 -24.1795 -23.6905 -23.3469 -20.8742 -12.8052  -3.6176  -3.1315
    -2.8772  -2.7132  -1.4014  -0.5537   3.1476   6.4760   6.9520   7.5012
     8.1978  10.0790  10.5582  11.5996  12.0875  12.6833  13.4826  14.4744
    15.0656  15.4705

          k = 0.4375 0.4030 0.0000 (  5415 PWs)   bands (ev):

   -45.4384 -24.1575 -23.6788 -23.4166 -20.8660 -12.7740  -3.5421  -3.2114
    -2.8970  -2.6072  -1.4217  -0.8563   3.3657   6.5754   6.8749   7.4450
     7.8946  10.5663  11.0694  11.9027  12.0554  12.6988  13.5014  14.2952
    15.1541  15.3946

          k = 0.4375 0.4762 0.0000 (  5413 PWs)   bands (ev):

   -45.4358 -24.1105 -23.6695 -23.5060 -20.8554 -12.7497  -3.4728  -3.2175
    -2.8890  -2.4903  -1.4742  -1.2057   3.6626   6.6008   6.6315   7.4570
     7.6688  10.7899  11.4555  12.0929  12.4634  12.9124  13.5133  14.4119
    15.0153  15.7417

          k = 0.4375 0.5495 0.0000 (  5428 PWs)   bands (ev):

   -45.4344 -24.0663 -23.6639 -23.5758 -20.8483 -12.7363  -3.4733  -3.1446
    -2.8720  -2.3851  -1.6274  -1.3694   3.9063   6.3044   6.6523   7.3798
     7.6996  10.9062  11.4711  12.1315  12.9539  13.3822  13.7490  14.3850
    14.7400  15.4959

          k = 0.4375-0.1832 0.0000 (  5416 PWs)   bands (ev):

   -45.4488 -24.1252 -23.7117 -23.3350 -20.8685 -12.8672  -3.5538  -3.0402
    -2.8653  -2.6493  -1.4050  -0.5171   3.1712   6.3445   6.7850   7.4424
     8.0020   9.4417  10.3021  11.3746  12.1889  12.9306  13.7770  14.9298
    15.2654  16.0338

          k = 0.4375-0.1099 0.0000 (  5406 PWs)   bands (ev):

   -45.4514 -24.0681 -23.7152 -23.3828 -20.8581 -12.8890  -3.4529  -3.0219
    -2.9103  -2.4797  -1.4212  -0.7406   3.3718   6.1967   6.5503   7.3333
     7.8592   9.4690  10.3734  11.4955  12.3329  12.9406  14.2710  14.6875
    15.2076  16.3911

          k = 0.4375-0.0366 0.0000 (  5418 PWs)   bands (ev):

   -45.4528 -24.0249 -23.7128 -23.4276 -20.8506 -12.9006  -3.3795  -3.0100
    -2.9361  -2.3389  -1.4434  -0.9341   3.5561   5.8434   6.6509   7.1642
     7.8607   9.4759  10.4613  11.5977  12.6691  12.9095  14.2129  14.4959
    15.3775  16.2396

          k =-0.5000-0.2931 0.0000 (  5428 PWs)   bands (ev):

   -45.4420 -24.1951 -23.6910 -23.3244 -20.8782 -12.8068  -3.6578  -3.1147
    -2.8201  -2.8086  -1.3950  -0.4481   3.0674   6.4474   7.0189   7.5438
     8.4201   9.8920  10.4716  11.6124  11.9502  12.5791  13.5346  14.4432
    15.0659  15.3442

          k =-0.5000-0.2198 0.0000 (  5413 PWs)   bands (ev):

   -45.4420 -24.1777 -23.6908 -23.3478 -20.8737 -12.8065  -3.6156  -3.1305
    -2.8768  -2.7093  -1.4019  -0.5587   3.1515   6.4715   6.9751   7.4936
     8.1938  10.0505  10.5470  11.5942  12.1058  12.6829  13.4757  14.4873
    15.0893  15.4565

          k =-0.5000-0.1465 0.0000 (  5401 PWs)   bands (ev):

   -45.4420 -24.1314 -23.6901 -23.4087 -20.8630 -12.8057  -3.5164  -3.1513
    -2.8993  -2.5800  -1.4222  -0.8316   3.3690   6.5322   6.6989   7.4318
     7.9027  10.2764  10.6758  11.7302  12.3464  12.9358  13.4737  14.5239
    15.0314  15.9287

          k =-0.5000-0.0733 0.0000 (  5418 PWs)   bands (ev):

   -45.4420 -24.0765 -23.6883 -23.4791 -20.8525 -12.8050  -3.4369  -3.1327
    -2.9008  -2.4484  -1.4616  -1.1181   3.6257   6.2319   6.6522   7.3332
     7.8422  10.3743  10.8050  11.9537  12.5790  13.0350  13.8776  14.5007
    14.8685  16.1112

          k =-0.5000-0.0000 0.0000 (  5416 PWs)   bands (ev):

   -45.4420 -24.0500 -23.6867 -23.5128 -20.8482 -12.8047  -3.4158  -3.1084
    -2.8976  -2.3784  -1.5032  -1.2328   3.7538   6.0179   6.7087   7.2576
     7.8604  10.3891  10.8733  12.0080  12.7306  13.1183  14.1482  14.4649
    14.7501  15.6893

     highest occupied, lowest unoccupied level (ev):     4.0953    5.3239

!    total energy              =    -446.24447625 Ry
     total all-electron energy =     -8320.714756 Ry
     estimated scf accuracy    <          4.3E-11 Ry

     The total energy is the sum of the following terms:
     one-electron contribution =    -304.69864751 Ry
     hartree contribution      =     160.61089583 Ry
     xc contribution           =     -38.52904372 Ry
     ewald contribution        =       2.99814487 Ry
     one-center paw contrib.   =    -266.62582572 Ry

     convergence has been achieved in   4 iterations

     negative rho (up, down):  8.131E-05 0.000E+00

     Forces acting on atoms (cartesian axes, Ry/au):

     atom    1 type  1   force =     0.00000000    0.00007649    0.00000240
     atom    2 type  2   force =     0.00000000   -0.00009494   -0.00005335
     atom    3 type  3   force =     0.00000000    0.00001845    0.00005095
     The non-local contrib.  to forces
     atom    1 type  1   force =     0.00000000   -0.00293690   -0.02112431
     atom    2 type  2   force =     0.00000000   -0.01962628   -1.11556712
     atom    3 type  3   force =     0.00000000   -0.00102525    0.22369946
     The ionic contribution  to forces
     atom    1 type  1   force =    -0.00000001   -0.15755207   -0.43738382
     atom    2 type  2   force =     0.00000001    0.10610658   27.12297294
     atom    3 type  3   force =     0.00000000    0.05144549  -26.68558912
     The local contribution  to forces
     atom    1 type  1   force =    -0.00000000    0.16037578    0.45481748
     atom    2 type  2   force =     0.00000027   -0.08668415  -26.01108774
     atom    3 type  3   force =     0.00000003   -0.05028386   26.46905135
     The core correction contribution to forces
     atom    1 type  1   force =     0.00000000    0.00013462    0.00363828
     atom    2 type  2   force =     0.00000000    0.00005403    0.00359750
     atom    3 type  3   force =    -0.00000000   -0.00017184   -0.00712176
     The Hubbard contrib.    to forces
     atom    1 type  1   force =     0.00000000    0.00000000    0.00000000
     atom    2 type  2   force =     0.00000000    0.00000000    0.00000000
     atom    3 type  3   force =     0.00000000    0.00000000    0.00000000
     The SCF correction term to forces
     atom    1 type  1   force =    -0.00000000   -0.00000062    0.00003424
     atom    2 type  2   force =    -0.00000000   -0.00000080    0.00001055
     atom    3 type  3   force =    -0.00000000   -0.00000176   -0.00000950

     Total force =     0.000144     Total SCF correction =     0.000037
     SCF correction compared to forces is large: reduce conv_thr to get better values
     Energy error            =      5.3E-08 Ry
     Gradient error          =      9.5E-05 Ry/Bohr

     bfgs converged in  10 scf cycles and   9 bfgs steps
     (criteria: energy <  1.0E-05 Ry, force <  1.0E-04 Ry/Bohr)

     End of BFGS Geometry Optimization

     Final energy             =    -446.2444762547 Ry

     File ./tmp/ZrFCl.bfgs deleted, as requested
Begin final coordinates

ATOMIC_POSITIONS (angstrom)
Zr           -0.0000000000        0.0166267427        9.5699998869
F            -0.0000000020        1.8725979116       10.9148217046
Cl           -0.0000000020        1.8737960543        7.8013533170
End final coordinates



     Writing all to output data dir ./tmp/ZrFCl.save/

     init_run     :      0.56s CPU      0.58s WALL (       1 calls)
     electrons    :     94.28s CPU     96.78s WALL (      10 calls)
     update_pot   :      1.03s CPU      1.12s WALL (       9 calls)
     forces       :      2.12s CPU      2.13s WALL (      10 calls)

     Called by init_run:
     wfcinit      :      0.39s CPU      0.40s WALL (       1 calls)
     potinit      :      0.07s CPU      0.08s WALL (       1 calls)
     hinit0       :      0.07s CPU      0.07s WALL (       1 calls)

     Called by electrons:
     c_bands      :     80.11s CPU     81.76s WALL (      71 calls)
     sum_band     :     10.86s CPU     11.16s WALL (      71 calls)
     v_of_rho     :      0.19s CPU      0.20s WALL (      71 calls)
     newd         :      0.57s CPU      0.62s WALL (      71 calls)
     PAW_pot      :      3.35s CPU      4.04s WALL (      80 calls)
     mix_rho      :      0.02s CPU      0.02s WALL (      71 calls)

     Called by c_bands:
     init_us_2    :      0.65s CPU      0.66s WALL (   11826 calls)
     init_us_2:cp :      0.64s CPU      0.65s WALL (   11826 calls)
     cegterg      :     78.37s CPU     79.98s WALL (    5183 calls)

     Called by *egterg:
     cdiaghg      :     12.96s CPU     13.06s WALL (   15658 calls)
     h_psi        :     43.97s CPU     45.31s WALL (   17118 calls)
     s_psi        :      3.11s CPU      3.15s WALL (   17118 calls)
     g_psi        :      0.11s CPU      0.11s WALL (   11862 calls)

     Called by h_psi:
     h_psi:calbec :      5.32s CPU      5.48s WALL (   17118 calls)
     vloc_psi     :     35.45s CPU     36.56s WALL (   17118 calls)
     add_vuspsi   :      3.09s CPU      3.16s WALL (   17118 calls)

     General routines
     calbec       :      9.15s CPU      9.39s WALL (   25878 calls)
     fft          :      0.11s CPU      0.11s WALL (     910 calls)
     ffts         :      0.01s CPU      0.01s WALL (      71 calls)
     fftw         :     39.98s CPU     41.19s WALL (  761768 calls)

     Parallel routines

     PWSCF        :   1m39.47s CPU   1m42.45s WALL


   This run was terminated on:   9:23:45  18Sep2026            

=------------------------------------------------------------------------------=
   JOB DONE.
=------------------------------------------------------------------------------=
Note: The following floating-point exceptions are signalling: IEEE_INVALID_FLAG
