
     Program PWSCF v.7.2 starts on 18Sep2026 at  9: 4:31 

     This program is part of the open-source Quantum ESPRESSO suite
     for quantum simulation of materials; please cite
         "P. Giannozzi et al., J. Phys.:Condens. Matter 21 395502 (2009);
         "P. Giannozzi et al., J. Phys.:Condens. Matter 29 465901 (2017);
         "P. Giannozzi et al., J. Chem. Phys. 152 154105 (2020);
          URL http://www.quantum-espresso.org", 
     in publications or presentations arising from this work. More details at
     http://www.quantum-espresso.org/quote

     Parallel version (MPI), running on    32 processors

     MPI processes distributed on     1 nodes
     228822 MiB available memory on the printing compute node when the environment starts

     Waiting for input...
     Reading input from standard input

     Current dimensions of program PWSCF are:
     Max number of different atomic species (ntypx) = 10
     Max number of k-points (npk) =  40000
     Max angular momentum in pseudopotentials (lmaxx) =  4
     file Zr.pbe-spn-kjpaw_psl.1.0.0.UPF: wavefunction(s)  4S 4P renormalized
     file F.pbe-n-kjpaw_psl.1.0.0.UPF: wavefunction(s)  2S 2P renormalized
     file Br.pbe-n-kjpaw_psl.1.0.0.UPF: wavefunction(s)  4S 4P renormalized
     Message from routine setup:
     using ibrav=0 with symmetry is DISCOURAGED, use correct ibrav instead

     R & G space division:  proc/nbgrp/npool/nimage =      32
     Subspace diagonalization in iterative solution of the eigenvalue problem:
     a serial algorithm will be used


     Parallelization info
     --------------------
     sticks:   dense  smooth     PW     G-vecs:    dense   smooth      PW
     Min          21      21      6                 1413     1413     222
     Max          22      22      7                 1428     1428     239
     Sum         703     703    207                45479    45479    7299

     Using Slab Decomposition



     bravais-lattice index     =            0
     lattice parameter (alat)  =       6.3200  a.u.
     unit-cell volume          =     643.8816 (a.u.)^3
     number of atoms/cell      =            3
     number of atomic types    =            3
     number of electrons       =        26.00
     number of Kohn-Sham states=           26
     kinetic-energy cutoff     =      65.0000  Ry
     charge density cutoff     =     260.0000  Ry
     scf convergence threshold =      1.0E-08
     mixing beta               =       0.7000
     number of iterations used =            8  plain     mixing
     energy convergence thresh.=      1.0E-05
     force convergence thresh. =      1.0E-04
     Exchange-correlation= SLA  PW   PBX  PBC
                           (   1   4   3   4   0   0   0)
     nstep                     =           50


     celldm(1)=   6.320045  celldm(2)=   0.000000  celldm(3)=   0.000000
     celldm(4)=   0.000000  celldm(5)=   0.000000  celldm(6)=   0.000000

     crystal axes: (cart. coord. in units of alat)
               a(1) = (   1.000000   0.000000   0.000000 )  
               a(2) = (  -0.500000   0.853035   0.000000 )  
               a(3) = (   0.000000   0.000000   2.990052 )  

     reciprocal axes: (cart. coord. in units 2 pi/alat)
               b(1) = (  1.000000  0.586142 -0.000000 )  
               b(2) = (  0.000000  1.172285  0.000000 )  
               b(3) = (  0.000000 -0.000000  0.334442 )  


     PseudoPot. # 1 for Zr read from file:
     /mgpfs/home/rabdillah/repo/qe/pseudo/Zr.pbe-spn-kjpaw_psl.1.0.0.UPF
     MD5 check sum: 02112c41713a0468aff2bb39ef194e36
     Pseudo is Projector augmented-wave + core cor, Zval = 12.0
     Generated using &quot;atomic&quot; code by A. Dal Corso  v.6.2.2
     Shape of augmentation charge: PSQ
     Using radial grid of 1225 points,  6 beta functions with: 
                l(1) =   0
                l(2) =   0
                l(3) =   1
                l(4) =   1
                l(5) =   2
                l(6) =   2
     Q(r) pseudized with 0 coefficients 


     PseudoPot. # 2 for F  read from file:
     /mgpfs/home/rabdillah/repo/qe/pseudo/F.pbe-n-kjpaw_psl.1.0.0.UPF
     MD5 check sum: 66d718ea72839a4268ab2a9540e8cdd4
     Pseudo is Projector augmented-wave + core cor, Zval =  7.0
     Generated using &quot;atomic&quot; code by A. Dal Corso  v.6.3
     Shape of augmentation charge: PSQ
     Using radial grid of 1105 points,  4 beta functions with: 
                l(1) =   0
                l(2) =   0
                l(3) =   1
                l(4) =   1
     Q(r) pseudized with 0 coefficients 


     PseudoPot. # 3 for Br read from file:
     /mgpfs/home/rabdillah/repo/qe/pseudo/Br.pbe-n-kjpaw_psl.1.0.0.UPF
     MD5 check sum: b00de77caabc69c0a6b76eb37264f235
     Pseudo is Projector augmented-wave + core cor, Zval =  7.0
     Generated using &quot;atomic&quot; code by A. Dal Corso  v.6.3
     Shape of augmentation charge: PSQ
     Using radial grid of 1213 points,  4 beta functions with: 
                l(1) =   0
                l(2) =   0
                l(3) =   1
                l(4) =   1
     Q(r) pseudized with 0 coefficients 


     atomic species   valence    mass     pseudopotential
        Zr            12.00    91.22400     Zr( 1.00)
        F              7.00    18.99800     F ( 1.00)
        Br             7.00    79.90400     Br( 1.00)

      2 Sym. Ops. (no inversion) found



   Cartesian axes

     site n.     atom                  positions (alat units)
         1           Zr  tau(   1) = (   0.0000000   0.0000000   3.0210788  )
         2           F   tau(   2) = (  -0.0000000   0.5773503   3.4105834  )
         3           Br  tau(   3) = (  -0.0000000   0.5773503   2.4542273  )

     number of k points=    73
                       cart. coord. in units 2pi/alat
        k(    1) = (   0.0000000   0.0000000   0.0000000), wk =   0.0078125
        k(    2) = (   0.0000000   0.0732678   0.0000000), wk =   0.0156250
        k(    3) = (   0.0000000   0.1465356   0.0000000), wk =   0.0156250
        k(    4) = (   0.0000000   0.2198034   0.0000000), wk =   0.0156250
        k(    5) = (   0.0000000   0.2930712   0.0000000), wk =   0.0156250
        k(    6) = (   0.0000000   0.3663390   0.0000000), wk =   0.0156250
        k(    7) = (   0.0000000   0.4396068   0.0000000), wk =   0.0156250
        k(    8) = (   0.0000000   0.5128746   0.0000000), wk =   0.0156250
        k(    9) = (   0.0000000  -0.5861424   0.0000000), wk =   0.0078125
        k(   10) = (   0.0625000   0.0366339   0.0000000), wk =   0.0312500
        k(   11) = (   0.0625000   0.1099017   0.0000000), wk =   0.0312500
        k(   12) = (   0.0625000   0.1831695   0.0000000), wk =   0.0312500
        k(   13) = (   0.0625000   0.2564373   0.0000000), wk =   0.0312500
        k(   14) = (   0.0625000   0.3297051   0.0000000), wk =   0.0312500
        k(   15) = (   0.0625000   0.4029729   0.0000000), wk =   0.0312500
        k(   16) = (   0.0625000   0.4762407   0.0000000), wk =   0.0312500
        k(   17) = (   0.0625000   0.5495085   0.0000000), wk =   0.0312500
        k(   18) = (   0.1250000   0.0732678   0.0000000), wk =   0.0312500
        k(   19) = (   0.1250000   0.1465356   0.0000000), wk =   0.0312500
        k(   20) = (   0.1250000   0.2198034   0.0000000), wk =   0.0312500
        k(   21) = (   0.1250000   0.2930712   0.0000000), wk =   0.0312500
        k(   22) = (   0.1250000   0.3663390   0.0000000), wk =   0.0312500
        k(   23) = (   0.1250000   0.4396068   0.0000000), wk =   0.0312500
        k(   24) = (   0.1250000   0.5128746   0.0000000), wk =   0.0312500
        k(   25) = (   0.1250000   0.5861424   0.0000000), wk =   0.0156250
        k(   26) = (   0.1250000   0.0000000   0.0000000), wk =   0.0156250
        k(   27) = (   0.1875000   0.1099017   0.0000000), wk =   0.0312500
        k(   28) = (   0.1875000   0.1831695   0.0000000), wk =   0.0312500
        k(   29) = (   0.1875000   0.2564373   0.0000000), wk =   0.0312500
        k(   30) = (   0.1875000   0.3297051   0.0000000), wk =   0.0312500
        k(   31) = (   0.1875000   0.4029729   0.0000000), wk =   0.0312500
        k(   32) = (   0.1875000   0.4762407   0.0000000), wk =   0.0312500
        k(   33) = (   0.1875000   0.5495085   0.0000000), wk =   0.0312500
        k(   34) = (   0.1875000  -0.0366339   0.0000000), wk =   0.0312500
        k(   35) = (   0.2500000   0.1465356   0.0000000), wk =   0.0312500
        k(   36) = (   0.2500000   0.2198034   0.0000000), wk =   0.0312500
        k(   37) = (   0.2500000   0.2930712   0.0000000), wk =   0.0312500
        k(   38) = (   0.2500000   0.3663390   0.0000000), wk =   0.0312500
        k(   39) = (   0.2500000   0.4396068   0.0000000), wk =   0.0312500
        k(   40) = (   0.2500000   0.5128746   0.0000000), wk =   0.0312500
        k(   41) = (   0.2500000   0.5861424   0.0000000), wk =   0.0156250
        k(   42) = (   0.2500000  -0.0732678   0.0000000), wk =   0.0312500
        k(   43) = (   0.2500000   0.0000000   0.0000000), wk =   0.0156250
        k(   44) = (   0.3125000   0.1831695   0.0000000), wk =   0.0312500
        k(   45) = (   0.3125000   0.2564373   0.0000000), wk =   0.0312500
        k(   46) = (   0.3125000   0.3297051   0.0000000), wk =   0.0312500
        k(   47) = (   0.3125000   0.4029729   0.0000000), wk =   0.0312500
        k(   48) = (   0.3125000   0.4762407   0.0000000), wk =   0.0312500
        k(   49) = (   0.3125000   0.5495085   0.0000000), wk =   0.0312500
        k(   50) = (   0.3125000  -0.1099017   0.0000000), wk =   0.0312500
        k(   51) = (   0.3125000  -0.0366339   0.0000000), wk =   0.0312500
        k(   52) = (   0.3750000   0.2198034   0.0000000), wk =   0.0312500
        k(   53) = (   0.3750000   0.2930712   0.0000000), wk =   0.0312500
        k(   54) = (   0.3750000   0.3663390   0.0000000), wk =   0.0312500
        k(   55) = (   0.3750000   0.4396068   0.0000000), wk =   0.0312500
        k(   56) = (   0.3750000   0.5128746   0.0000000), wk =   0.0312500
        k(   57) = (   0.3750000   0.5861424   0.0000000), wk =   0.0156250
        k(   58) = (   0.3750000  -0.1465356   0.0000000), wk =   0.0312500
        k(   59) = (   0.3750000  -0.0732678   0.0000000), wk =   0.0312500
        k(   60) = (   0.3750000   0.0000000   0.0000000), wk =   0.0156250
        k(   61) = (   0.4375000   0.2564373   0.0000000), wk =   0.0312500
        k(   62) = (   0.4375000   0.3297051   0.0000000), wk =   0.0312500
        k(   63) = (   0.4375000   0.4029729   0.0000000), wk =   0.0312500
        k(   64) = (   0.4375000   0.4762407   0.0000000), wk =   0.0312500
        k(   65) = (   0.4375000   0.5495085   0.0000000), wk =   0.0312500
        k(   66) = (   0.4375000  -0.1831695   0.0000000), wk =   0.0312500
        k(   67) = (   0.4375000  -0.1099017   0.0000000), wk =   0.0312500
        k(   68) = (   0.4375000  -0.0366339   0.0000000), wk =   0.0312500
        k(   69) = (  -0.5000000  -0.2930712   0.0000000), wk =   0.0156250
        k(   70) = (  -0.5000000  -0.2198034   0.0000000), wk =   0.0312500
        k(   71) = (  -0.5000000  -0.1465356   0.0000000), wk =   0.0312500
        k(   72) = (  -0.5000000  -0.0732678   0.0000000), wk =   0.0312500
        k(   73) = (  -0.5000000  -0.0000000   0.0000000), wk =   0.0156250

     Dense  grid:    45479 G-vectors     FFT dimensions: (  36,  36, 100)

     Estimated max dynamical RAM per process >      14.29 MB

     Estimated total dynamical RAM >     457.43 MB

     Check: negative core charge=   -0.000002

     Initial potential from superposition of free atoms

     starting charge      25.9978, renormalised to      26.0000

     negative rho (up, down):  3.752E-07 0.000E+00
     Starting wfcs are   21 randomized atomic wfcs +    5 random wfcs
     Checking if some PAW data can be deallocated... 

     total cpu time spent up to now is        0.9 secs

     Self-consistent Calculation

     iteration #  1     ecut=    65.00 Ry     beta= 0.70
     Davidson diagonalization with overlap
     ethr =  1.00E-02,  avg # of iterations =  5.5

     Threshold (ethr) on eigenvalues was too large:
     Diagonalizing with lowered threshold

     Davidson diagonalization with overlap
     ethr =  9.78E-04,  avg # of iterations =  1.1

     negative rho (up, down):  2.377E-05 0.000E+00

     total cpu time spent up to now is        4.3 secs

     total energy              =    -571.11133550 Ry
     estimated scf accuracy    <       0.25587782 Ry

     iteration #  2     ecut=    65.00 Ry     beta= 0.70
     Davidson diagonalization with overlap
     ethr =  9.84E-04,  avg # of iterations =  3.8

     negative rho (up, down):  4.870E-07 0.000E+00

     total cpu time spent up to now is        6.1 secs

     total energy              =    -571.09929817 Ry
     estimated scf accuracy    <       0.63513024 Ry

     iteration #  3     ecut=    65.00 Ry     beta= 0.70
     Davidson diagonalization with overlap
     ethr =  9.84E-04,  avg # of iterations =  2.5

     negative rho (up, down):  2.254E-06 0.000E+00

     total cpu time spent up to now is        7.7 secs

     total energy              =    -571.22780045 Ry
     estimated scf accuracy    <       0.02510300 Ry

     iteration #  4     ecut=    65.00 Ry     beta= 0.70
     Davidson diagonalization with overlap
     ethr =  9.65E-05,  avg # of iterations =  3.5

     negative rho (up, down):  1.030E-05 0.000E+00

     total cpu time spent up to now is        9.1 secs

     total energy              =    -571.23276043 Ry
     estimated scf accuracy    <       0.00381871 Ry

     iteration #  5     ecut=    65.00 Ry     beta= 0.70
     Davidson diagonalization with overlap
     ethr =  1.47E-05,  avg # of iterations =  4.5

     negative rho (up, down):  2.173E-05 0.000E+00

     total cpu time spent up to now is       10.8 secs

     total energy              =    -571.23351333 Ry
     estimated scf accuracy    <       0.00116984 Ry

     iteration #  6     ecut=    65.00 Ry     beta= 0.70
     Davidson diagonalization with overlap
     ethr =  4.50E-06,  avg # of iterations =  2.7

     negative rho (up, down):  2.651E-05 0.000E+00

     total cpu time spent up to now is       12.2 secs

     total energy              =    -571.23374776 Ry
     estimated scf accuracy    <       0.00001653 Ry

     iteration #  7     ecut=    65.00 Ry     beta= 0.70
     Davidson diagonalization with overlap
     ethr =  6.36E-08,  avg # of iterations =  2.0

     negative rho (up, down):  2.790E-05 0.000E+00

     total cpu time spent up to now is       13.6 secs

     total energy              =    -571.23375206 Ry
     estimated scf accuracy    <       0.00000057 Ry

     iteration #  8     ecut=    65.00 Ry     beta= 0.70
     Davidson diagonalization with overlap
     ethr =  2.20E-09,  avg # of iterations =  3.0

     negative rho (up, down):  2.822E-05 0.000E+00

     total cpu time spent up to now is       15.1 secs

     total energy              =    -571.23375222 Ry
     estimated scf accuracy    <       0.00000002 Ry

     iteration #  9     ecut=    65.00 Ry     beta= 0.70
     Davidson diagonalization with overlap
     ethr =  8.81E-11,  avg # of iterations =  2.0

     negative rho (up, down):  2.825E-05 0.000E+00

     total cpu time spent up to now is       16.5 secs

     End of self-consistent calculation

          k = 0.0000 0.0000 0.0000 (  5617 PWs)   bands (ev):

   -45.2044 -23.7271 -22.9157 -22.8874 -20.5882 -12.9132  -3.1045  -2.4340
    -2.3652  -1.0650   1.5080   1.6590   3.8736   5.8683   6.0526   6.1609
     6.9909   7.0380   8.0707   8.9875  11.2980  14.1558  14.8017  15.0606
    15.5219  17.4492

          k = 0.0000 0.0733 0.0000 (  5647 PWs)   bands (ev):

   -45.2018 -23.7177 -22.9219 -22.9213 -20.5789 -12.8827  -3.0694  -2.4344
    -2.4050  -1.0404   1.4192   1.4638   3.8988   5.9170   6.0116   6.2122
     6.9413   7.0898   8.2092   9.2093  11.4485  14.2290  14.6156  14.9423
    15.4178  17.7227

          k = 0.0000 0.1465 0.0000 (  5692 PWs)   bands (ev):

   -45.1943 -23.6911 -23.0162 -22.9371 -20.5558 -12.7938  -2.9764  -2.5054
    -2.4368  -0.9808   0.8184   1.3424   3.9445   5.8788   6.0718   6.2872
     7.0231   7.2243   8.5741   9.6777  11.8775  13.8741  14.2889  15.2466
    15.3603  17.8104

          k = 0.0000 0.2198 0.0000 (  5710 PWs)   bands (ev):

   -45.1831 -23.6534 -23.1471 -22.9607 -20.5291 -12.6552  -2.8678  -2.6170
    -2.4435  -0.9186   0.0701   1.1718   3.9422   5.8035   6.3315   6.3447
     7.3396   7.3978   9.0659  10.1488  12.2524  13.5247  13.9514  15.6189
    16.0388  17.5028

          k = 0.0000 0.2931 0.0000 (  5708 PWs)   bands (ev):

   -45.1699 -23.6177 -23.2821 -22.9883 -20.5080 -12.4820  -2.8620  -2.6299
    -2.4562  -0.9909  -0.5516   0.9856   3.8587   5.8649   6.4866   6.7256
     7.5774   7.7641   9.5629  10.5343  12.0759  13.1881  14.5015  16.1912
    16.8065  16.8465

          k = 0.0000 0.3663 0.0000 (  5708 PWs)   bands (ev):

   -45.1566 -23.6144 -23.3749 -23.0158 -20.4964 -12.2967  -2.9571  -2.5625
    -2.4737  -1.5275  -0.6233   0.8134   3.7437   6.0235   6.7538   7.1556
     7.7680   8.2671   9.9185  10.7994  11.9617  12.8710  15.1475  15.6239
    16.5738  16.7959

          k = 0.0000 0.4396 0.0000 (  5704 PWs)   bands (ev):

   -45.1453 -23.6652 -23.3931 -23.0389 -20.4930 -12.1282  -3.0510  -2.5292
    -2.4921  -2.0385  -0.5643   0.6770   3.6567   6.2271   6.9878   7.4847
     8.0414   8.8639  10.0662  11.0090  12.1014  12.8147  14.1086  15.4730
    16.0552  16.0651

          k = 0.0000 0.5129 0.0000 (  5718 PWs)   bands (ev):

   -45.1378 -23.7209 -23.3805 -23.0543 -20.4938 -12.0090  -3.1236  -2.5654
    -2.5060  -2.3168  -0.5145   0.5903   3.6137   6.4330   7.0503   7.6264
     8.3646   9.5092  10.1720  11.1885  12.1909  12.7830  13.4091  14.8978
    15.3029  15.6052

          k = 0.0000-0.5861 0.0000 (  5730 PWs)   bands (ev):

   -45.1351 -23.7425 -23.3734 -23.0597 -20.4946 -11.9657  -3.1539  -2.6140
    -2.5112  -2.3745  -0.4961   0.5606   3.6024   6.5412   7.0204   7.6623
     8.5089   9.8605  10.2343  11.3686  11.8958  12.6582  13.5620  14.4158
    15.1002  15.4213

          k = 0.0625 0.0366 0.0000 (  5641 PWs)   bands (ev):

   -45.2019 -23.7178 -22.9459 -22.8966 -20.5784 -12.8840  -3.0691  -2.4642
    -2.3722  -1.0418   1.3016   1.5916   3.8891   5.8284   6.1064   6.2227
     6.9620   7.0659   8.2047   9.2074  11.4435  14.2285  14.4813  15.1370
    15.3775  17.6648

          k = 0.0625 0.1099 0.0000 (  5653 PWs)   bands (ev):

   -45.1969 -23.6998 -22.9954 -22.9221 -20.5623 -12.8243  -3.0045  -2.5008
    -2.4073  -1.0000   0.9646   1.4275   3.9244   5.8371   6.1006   6.3031
     6.9420   7.1954   8.4563   9.5460  11.7427  14.0258  14.2993  15.1154
    15.4084  17.7917

          k = 0.0625 0.1832 0.0000 (  5690 PWs)   bands (ev):

   -45.1876 -23.6675 -23.0999 -22.9499 -20.5376 -12.7105  -2.8982  -2.5913
    -2.4320  -0.9384   0.3458   1.2263   3.9512   5.7632   6.2837   6.3581
     7.1294   7.3761   8.8856  10.0016  12.2560  13.4901  14.0218  15.2879
    15.9637  17.4129

          k = 0.0625 0.2564 0.0000 (  5702 PWs)   bands (ev):

   -45.1754 -23.6297 -23.2284 -22.9807 -20.5142 -12.5543  -2.8250  -2.6587
    -2.4516  -0.9091  -0.3360   1.0067   3.9191   5.7686   6.3949   6.6698
     7.4114   7.6423   9.3836  10.4335  12.3533  13.3489  13.8939  15.7979
    16.6739  17.0218

          k = 0.0625 0.3297 0.0000 (  5699 PWs)   bands (ev):

   -45.1621 -23.6067 -23.3409 -23.0127 -20.4983 -12.3741  -2.8945  -2.5983
    -2.4750  -1.2351  -0.6353   0.7942   3.8342   5.9157   6.5494   7.0895
     7.6423   8.0765   9.8246  10.7876  12.0953  12.9935  14.7651  15.8417
    16.4086  16.7663

          k = 0.0625 0.4030 0.0000 (  5708 PWs)   bands (ev):

   -45.1498 -23.6325 -23.3902 -23.0419 -20.4912 -12.1958  -2.9911  -2.5415
    -2.4999  -1.7843  -0.5971   0.6135   3.7512   6.1425   6.7743   7.4070
     7.8852   8.6728  10.0893  11.0403  12.0844  12.8162  14.6839  15.3321
    15.9917  16.7997

          k = 0.0625 0.4762 0.0000 (  5709 PWs)   bands (ev):

   -45.1404 -23.6905 -23.3851 -23.0640 -20.4902 -12.0504  -3.0704  -2.5762
    -2.4956  -2.1641  -0.5393   0.4831   3.7038   6.3753   6.9625   7.5529
     8.1399   9.3923  10.2248  11.2191  12.2359  12.8640  13.6316  14.9799
    15.4306  16.0949

          k = 0.0625 0.5495 0.0000 (  5712 PWs)   bands (ev):

   -45.1353 -23.7296 -23.3731 -23.0760 -20.4911 -11.9679  -3.1198  -2.6530
    -2.4939  -2.3074  -0.5047   0.4150   3.6877   6.5456   7.0216   7.5981
     8.3230   9.9908  10.3664  11.3826  12.0710  12.7044  13.4708  14.4823
    15.1114  15.4959

          k = 0.1250 0.0733 0.0000 (  5663 PWs)   bands (ev):

   -45.1949 -23.6917 -23.0375 -22.9131 -20.5540 -12.7992  -2.9746  -2.5527
    -2.3785  -0.9865   0.7290   1.4670   3.9060   5.7541   6.2233   6.3259
     7.0267   7.2034   8.5597   9.6767  11.8608  13.8289  14.2462  15.1741
    15.5427  17.9520

          k = 0.1250 0.1465 0.0000 (  5670 PWs)   bands (ev):

   -45.1880 -23.6680 -23.1104 -22.9373 -20.5364 -12.7146  -2.8962  -2.6122
    -2.4036  -0.9435   0.3024   1.2972   3.9201   5.7363   6.3263   6.3895
     7.1117   7.3818   8.8760  10.0028  12.2489  13.4649  13.9903  15.2676
    16.0337  17.4554

          k = 0.1250 0.2198 0.0000 (  5692 PWs)   bands (ev):

   -45.1776 -23.6351 -23.2115 -22.9734 -20.5154 -12.5828  -2.8034  -2.6836
    -2.4368  -0.9044  -0.2336   1.0191   3.9267   5.6956   6.4360   6.6883
     7.2868   7.6256   9.3142  10.4111  12.8259  13.0510  13.5914  15.5860
    16.6832  16.9928

          k = 0.1250 0.2931 0.0000 (  5690 PWs)   bands (ev):

   -45.1654 -23.6063 -23.3134 -23.0158 -20.4978 -12.4186  -2.8309  -2.6427
    -2.4754  -1.0447  -0.6223   0.7102   3.9135   5.7625   6.5337   7.0725
     7.5351   8.0030   9.7714  10.8345  12.5704  13.0919  13.8541  15.6615
    16.4580  16.9288

          k = 0.1250 0.3663 0.0000 (  5703 PWs)   bands (ev):

   -45.1531 -23.6085 -23.3773 -23.0580 -20.4872 -12.2437  -2.9184  -2.5684
    -2.5134  -1.5171  -0.6312   0.4294   3.8910   5.9782   6.6525   7.3048
     7.8294   8.6029  10.1461  11.2256  12.3399  12.8637  14.6726  15.1148
    15.7555  16.7504

          k = 0.1250 0.4396 0.0000 (  5696 PWs)   bands (ev):

   -45.1427 -23.6518 -23.3850 -23.0938 -20.4830 -12.0855  -2.9932  -2.6028
    -2.4950  -1.9256  -0.5764   0.2092   3.8817   6.2890   6.7670   7.4416
     8.0116   9.3962  10.3897  11.5069  12.3347  12.8485  14.1012  14.7080
    15.5623  16.6199

          k = 0.1250 0.5129 0.0000 (  5713 PWs)   bands (ev):

   -45.1357 -23.6963 -23.3720 -23.1179 -20.4826 -11.9740  -3.0432  -2.6927
    -2.4775  -2.1443  -0.5320   0.0691   3.8883   6.5527   6.8913   7.5143
     8.0647  10.1758  10.6003  11.6304  12.3630  12.8624  13.3818  14.4506
    15.1508  15.9087

          k = 0.1250 0.5861 0.0000 (  5714 PWs)   bands (ev):

   -45.1332 -23.7136 -23.3653 -23.1264 -20.4828 -11.9336  -3.0612  -2.7413
    -2.4745  -2.2017  -0.5155   0.0209   3.8939   6.6318   6.9925   7.5100
     8.0762  10.3991  10.9560  11.7513  11.9900  12.7032  13.4992  14.3072
    15.1237  15.3662

          k = 0.1250 0.0000 0.0000 (  5658 PWs)   bands (ev):

   -45.1973 -23.7002 -23.0110 -22.9046 -20.5609 -12.8283  -3.0035  -2.5315
    -2.3683  -1.0038   0.9045   1.5096   3.8991   5.7367   6.2364   6.3095
     7.0075   7.1230   8.4458   9.5452  11.7312  13.9821  14.2828  15.1225
    15.4959  17.7796

          k = 0.1875 0.1099 0.0000 (  5672 PWs)   bands (ev):

   -45.1843 -23.6549 -23.1668 -22.9351 -20.5255 -12.6669  -2.8635  -2.6540
    -2.3837  -0.9340   0.0062   1.3041   3.8649   5.7496   6.3403   6.5001
     7.3140   7.3993   9.0432  10.1556  12.2457  13.4707  13.8828  15.5496
    16.1992  17.5212

          k = 0.1875 0.1832 0.0000 (  5689 PWs)   bands (ev):

   -45.1764 -23.6315 -23.2425 -22.9608 -20.5112 -12.5647  -2.8263  -2.6762
    -2.4092  -0.9294  -0.3778   1.1171   3.8484   5.7645   6.4376   6.7209
     7.3919   7.6448   9.3649  10.4431  12.3711  13.2781  13.8225  15.7568
    16.7755  17.0476

          k = 0.1875 0.2564 0.0000 (  5701 PWs)   bands (ev):

   -45.1660 -23.6080 -23.3199 -23.0052 -20.4961 -12.4251  -2.8383  -2.6402
    -2.4567  -1.0657  -0.6323   0.7678   3.8728   5.7719   6.5606   7.0812
     7.5361   7.9965   9.7626  10.8424  12.6067  13.0552  13.7785  15.6698
    16.4051  16.8906

          k = 0.1875 0.3297 0.0000 (  5695 PWs)   bands (ev):

   -45.1548 -23.6024 -23.3718 -23.0610 -20.4842 -12.2654  -2.8864  -2.5789
    -2.5128  -1.4030  -0.6533   0.3597   3.9352   5.8620   6.7169   7.2008
     7.8407   8.5774  10.1645  11.3073  12.7032  12.9028  14.0835  14.9583
    16.0282  16.5525

          k = 0.1875 0.4030 0.0000 (  5700 PWs)   bands (ev):

   -45.1443 -23.6260 -23.3823 -23.1174 -20.4769 -12.1089  -2.9390  -2.6118
    -2.4969  -1.7266  -0.6194  -0.0075   4.0162   6.0779   6.8255   7.2622
     8.0247   9.3919  10.5085  11.7646  12.6070  12.8886  14.2220  14.8115
    15.1308  16.1274

          k = 0.1875 0.4762 0.0000 (  5711 PWs)   bands (ev):

   -45.1363 -23.6595 -23.3703 -23.1631 -20.4736 -11.9825  -2.9831  -2.6917
    -2.4646  -1.9444  -0.5936  -0.2681   4.0936   6.3926   6.8226   7.4124
     8.0014  10.2570  10.7643  12.0588  12.5342  13.0280  13.6904  14.3233
    15.2263  15.9130

          k = 0.1875 0.5495 0.0000 (  5709 PWs)   bands (ev):

   -45.1320 -23.6806 -23.3590 -23.1887 -20.4726 -11.9114  -3.0096  -2.7505
    -2.4526  -2.0414  -0.5955  -0.3872   4.1424   6.6345   6.8473   7.5271
     7.8665  10.6096  11.3678  12.1195  12.3753  12.7942  13.5209  14.3913
    14.9830  15.6129

          k = 0.1875-0.0366 0.0000 (  5677 PWs)   bands (ev):

   -45.1886 -23.6687 -23.1180 -22.9271 -20.5343 -12.7207  -2.8947  -2.6262
    -2.3770  -0.9493   0.2950   1.3252   3.8917   5.6831   6.3568   6.4650
     7.1670   7.3127   8.8662  10.0061  12.2400  13.4840  13.9706  15.2662
    16.0611  17.4044

          k = 0.2500 0.1465 0.0000 (  5688 PWs)   bands (ev):

   -45.1718 -23.6214 -23.2991 -22.9605 -20.5025 -12.5017  -2.8693  -2.6418
    -2.3926  -1.0306  -0.5800   1.1283   3.7541   5.8637   6.5075   6.8327
     7.5582   7.7590   9.5357  10.5573  12.0850  13.0987  14.4149  16.0951
    16.6736  17.0010

          k = 0.2500 0.2198 0.0000 (  5700 PWs)   bands (ev):

   -45.1639 -23.6121 -23.3539 -22.9875 -20.4935 -12.3927  -2.9065  -2.5971
    -2.4242  -1.2764  -0.6564   0.9286   3.7367   5.9299   6.5990   7.1360
     7.6391   8.0583   9.8024  10.8159  12.1074  12.9072  14.6473  15.7421
    16.3493  16.7999

          k = 0.2500 0.2931 0.0000 (  5710 PWs)   bands (ev):

   -45.1545 -23.6152 -23.3842 -23.0392 -20.4837 -12.2583  -2.9303  -2.5483
    -2.4928  -1.5439  -0.6472   0.5237   3.8198   5.9948   6.6998   7.3049
     7.8449   8.5838  10.1366  11.2510  12.3654  12.8071  14.5718  15.0372
    15.6787  16.7559

          k = 0.2500 0.3663 0.0000 (  5716 PWs)   bands (ev):

   -45.1451 -23.6308 -23.3847 -23.1075 -20.4750 -12.1171  -2.9454  -2.5927
    -2.4957  -1.7368  -0.6261   0.0353   3.9813   6.0844   6.8634   7.2439
     8.0345   9.3813  10.5083  11.7775  12.6062  12.9042  14.1999  14.7084
    15.0655  16.2020

          k = 0.2500 0.4396 0.0000 (  5707 PWs)   bands (ev):

   -45.1371 -23.6457 -23.3703 -23.1778 -20.4687 -11.9915  -2.9672  -2.6737
    -2.4568  -1.8382  -0.6576  -0.3752   4.1694   6.2497   6.8938   7.3180
     8.0253  10.2626  10.8363  12.1331  12.6659  13.2602  13.9432  14.4119
    14.9205  15.4711

          k = 0.2500 0.5129 0.0000 (  5710 PWs)   bands (ev):

   -45.1318 -23.6525 -23.3560 -23.2321 -20.4651 -11.9043  -3.0038  -2.7037
    -2.4322  -1.8698  -0.8686  -0.4913   4.3202   6.4901   6.8013   7.5014
     7.8556  10.7029  11.3913  12.1041  12.9983  13.4331  13.6165  14.1815
    14.9079  15.4532

          k = 0.2500 0.5861 0.0000 (  5698 PWs)   bands (ev):

   -45.1299 -23.6537 -23.3503 -23.2529 -20.4640 -11.8730  -3.0234  -2.7052
    -2.4242  -1.8712  -0.9863  -0.4986   4.3779   6.6391   6.7588   7.5534
     7.7543  10.6884  12.0598  12.3047  12.3773  13.3472  13.8039  14.2747
    14.9054  15.5673

          k = 0.2500-0.0733 0.0000 (  5684 PWs)   bands (ev):

   -45.1771 -23.6322 -23.2447 -22.9556 -20.5088 -12.5723  -2.8255  -2.6779
    -2.3908  -0.9340  -0.3624   1.1128   3.8311   5.7439   6.4348   6.7797
     7.3973   7.6256   9.3604  10.4485  12.3741  13.2880  13.8597  15.7554
    16.7281  16.9724

          k = 0.2500 0.0000 0.0000 (  5696 PWs)   bands (ev):

   -45.1790 -23.6367 -23.2210 -22.9580 -20.5111 -12.5967  -2.8014  -2.6957
    -2.3951  -0.9186  -0.2295   1.0560   3.8744   5.6599   6.4799   6.7700
     7.2857   7.5981   9.3003  10.4201  12.8179  13.1006  13.5708  15.5547
    16.6718  16.9342

          k = 0.3125 0.1832 0.0000 (  5705 PWs)   bands (ev):

   -45.1593 -23.6237 -23.3859 -22.9855 -20.4892 -12.3251  -2.9677  -2.5589
    -2.4053  -1.5571  -0.6528   0.9662   3.6291   6.0526   6.7803   7.2171
     7.7630   8.2468   9.8911  10.8473  11.9479  12.7695  15.0383  15.4663
    16.6654  16.7288

          k = 0.3125 0.2564 0.0000 (  5710 PWs)   bands (ev):

   -45.1524 -23.6446 -23.3975 -23.0128 -20.4847 -12.2233  -3.0045  -2.5277
    -2.4464  -1.8070  -0.6290   0.7617   3.6426   6.1743   6.8103   7.4438
     7.8934   8.6402  10.0735  11.0903  12.0646  12.7164  14.5506  15.2354
    15.9828  16.7246

          k = 0.3125 0.3297 0.0000 (  5712 PWs)   bands (ev):

   -45.1448 -23.6638 -23.3895 -23.0693 -20.4778 -12.1091  -3.0069  -2.5619
    -2.4841  -1.9351  -0.6032   0.3219   3.7955   6.3116   6.8131   7.4394
     8.0299   9.3672  10.3873  11.5618  12.3218  12.7752  13.9805  14.6916
    15.4616  16.5477

          k = 0.3125 0.4030 0.0000 (  5714 PWs)   bands (ev):

   -45.1379 -23.6688 -23.3730 -23.1454 -20.4700 -11.9996  -2.9906  -2.6684
    -2.4563  -1.9464  -0.6003  -0.2101   4.0387   6.3944   6.8681   7.3993
     8.0175  10.2284  10.7667  12.0898  12.5485  13.0153  13.5732  14.3576
    15.1219  15.9767

          k = 0.3125 0.4762 0.0000 (  5702 PWs)   bands (ev):

   -45.1325 -23.6573 -23.3574 -23.2231 -20.4633 -11.9132  -3.0023  -2.6966
    -2.4276  -1.8708  -0.8383  -0.5000   4.2981   6.4836   6.8148   7.5007
     7.8683  10.6811  11.3875  12.1087  12.9587  13.4557  13.6080  14.2704
    14.8619  15.4262

          k = 0.3125 0.5495 0.0000 (  5687 PWs)   bands (ev):

   -45.1296 -23.6415 -23.3485 -23.2756 -20.4595 -11.8654  -3.0336  -2.6674
    -2.4066  -1.7198  -1.2402  -0.5171   4.4738   6.6073   6.7266   7.4736
     7.8261  10.6589  12.0478  12.2761  13.0234  13.2810  14.0229  14.2748
    15.0128  15.6038

          k = 0.3125-0.1099 0.0000 (  5705 PWs)   bands (ev):

   -45.1647 -23.6125 -23.3534 -22.9855 -20.4911 -12.4008  -2.9027  -2.5970
    -2.4088  -1.2602  -0.6551   0.9097   3.7341   5.9328   6.5903   7.1387
     7.6260   8.0718   9.7990  10.8239  12.1122  12.9132  14.7242  15.7361
    16.3565  16.7430

          k = 0.3125-0.0366 0.0000 (  5695 PWs)   bands (ev):

   -45.1675 -23.6096 -23.3223 -22.9967 -20.4915 -12.4409  -2.8365  -2.6381
    -2.4239  -1.0539  -0.6224   0.7577   3.8470   5.7570   6.5984   7.0839
     7.5199   8.0052   9.7557  10.8524  12.6245  13.0613  13.8602  15.6199
    16.3746  16.8556

          k = 0.3750 0.2198 0.0000 (  5699 PWs)   bands (ev):

   -45.1487 -23.6797 -23.3985 -23.0067 -20.4845 -12.1650  -3.0634  -2.5167
    -2.4187  -2.0464  -0.6064   0.8379   3.5402   6.2771   7.0147   7.5182
     8.0297   8.8360  10.0394  11.0632  12.0522  12.6996  13.9945  15.3652
    15.9020  16.2095

          k = 0.3750 0.2931 0.0000 (  5704 PWs)   bands (ev):

   -45.1436 -23.7058 -23.3894 -23.0325 -20.4823 -12.0861  -3.0865  -2.5419
    -2.4560  -2.1583  -0.5823   0.6371   3.5928   6.4356   6.9677   7.5886
     8.1343   9.3600  10.2116  11.2701  12.1708  12.7439  13.5403  14.9144
    15.3718  16.0984

          k = 0.3750 0.3663 0.0000 (  5697 PWs)   bands (ev):

   -45.1385 -23.7105 -23.3754 -23.0900 -20.4758 -12.0058  -3.0584  -2.6545
    -2.4583  -2.1283  -0.5673   0.1860   3.7983   6.6118   6.8892   7.5311
     8.0649  10.1410  10.5924  11.7065  12.2829  12.7490  13.3441  14.4245
    15.0814  15.8492

          k = 0.3750 0.4396 0.0000 (  5694 PWs)   bands (ev):

   -45.1341 -23.6919 -23.3619 -23.1668 -20.4675 -11.9366  -3.0136  -2.7236
    -2.4397  -2.0281  -0.5874  -0.3467   4.0825   6.6588   6.8474   7.5449
     7.8716  10.5619  11.3512  12.1280  12.3506  12.7957  13.5000  14.3732
    14.9554  15.5237

          k = 0.3750 0.5129 0.0000 (  5693 PWs)   bands (ev):

   -45.1313 -23.6608 -23.3525 -23.2390 -20.4606 -11.8898  -3.0162  -2.6906
    -2.4167  -1.8605  -0.9475  -0.5197   4.3515   6.6442   6.7471   7.5454
     7.7865  10.6352  12.0608  12.2394  12.3241  13.4873  13.8596  14.3007
    14.8492  15.5112

          k = 0.3750 0.5861 0.0000 (  5692 PWs)   bands (ev):

   -45.1302 -23.6436 -23.3493 -23.2707 -20.4579 -11.8733  -3.0283  -2.6584
    -2.4041  -1.7000  -1.2433  -0.5268   4.4706   6.6046   6.7222   7.4574
     7.8467  10.6259  12.0682  12.1621  13.1133  13.2620  14.1558  14.2608
    14.9549  15.5787

          k = 0.3750-0.1465 0.0000 (  5717 PWs)   bands (ev):

   -45.1530 -23.6439 -23.3970 -23.0125 -20.4827 -12.2306  -2.9990  -2.5274
    -2.4322  -1.7906  -0.6314   0.7401   3.6490   6.1844   6.8177   7.4154
     7.8675   8.6594  10.0561  11.1041  12.0651  12.7206  14.5775  15.2810
    15.9280  16.7559

          k = 0.3750-0.0733 0.0000 (  5710 PWs)   bands (ev):

   -45.1559 -23.6155 -23.3836 -23.0356 -20.4795 -12.2739  -2.9221  -2.5507
    -2.4604  -1.5086  -0.6523   0.4922   3.8189   5.9954   6.7135   7.2908
     7.8030   8.5998  10.1210  11.2636  12.3735  12.8246  14.6631  15.0564
    15.6853  16.7040

          k = 0.3750 0.0000 0.0000 (  5700 PWs)   bands (ev):

   -45.1569 -23.6054 -23.3742 -23.0491 -20.4780 -12.2889  -2.8829  -2.5696
    -2.4712  -1.3698  -0.6628   0.3550   3.9044   5.8568   6.7837   7.1630
     7.8060   8.5834  10.1487  11.3205  12.6914  12.9788  14.1351  14.9235
    16.0122  16.4721

          k = 0.4375 0.2564 0.0000 (  5681 PWs)   bands (ev):

   -45.1415 -23.7368 -23.3842 -23.0207 -20.4845 -12.0518  -3.1408  -2.5450
    -2.4310  -2.3064  -0.5651   0.7563   3.4973   6.5030   7.0713   7.6584
     8.3211   9.4922  10.1372  11.2128  12.0943  12.6562  13.3605  14.7792
    15.1784  15.7799

          k = 0.4375 0.3297 0.0000 (  5704 PWs)   bands (ev):

   -45.1389 -23.7455 -23.3765 -23.0434 -20.4823 -12.0095  -3.1390  -2.6156
    -2.4533  -2.2798  -0.5540   0.5683   3.5786   6.6316   7.0156   7.6322
     8.2836   9.9810  10.3413  11.3898  11.9559  12.6070  13.4388  14.3841
    15.0180  15.5908

          k = 0.4375 0.4030 0.0000 (  5693 PWs)   bands (ev):

   -45.1364 -23.7277 -23.3685 -23.0975 -20.4750 -11.9710  -3.0757  -2.6959
    -2.4528  -2.1728  -0.5543   0.1313   3.8071   6.6994   6.9931   7.5359
     8.0430  10.3567  10.9292  11.7947  11.8993  12.6447  13.4829  14.2346
    15.0716  15.3419

          k = 0.4375 0.4762 0.0000 (  5702 PWs)   bands (ev):

   -45.1346 -23.6913 -23.3618 -23.1663 -20.4663 -11.9419  -3.0103  -2.7110
    -2.4394  -2.0173  -0.5876  -0.3614   4.0877   6.6611   6.8488   7.5655
     7.8340  10.5385  11.2622  12.1785  12.3903  12.8227  13.4995  14.3554
    14.9512  15.5745

          k = 0.4375 0.5495 0.0000 (  5701 PWs)   bands (ev):

   -45.1336 -23.6581 -23.3578 -23.2188 -20.4605 -11.9264  -2.9945  -2.6739
    -2.4247  -1.8380  -0.8496  -0.5190   4.3020   6.4829   6.8056   7.5146
     7.8441  10.6297  11.2716  12.1747  12.9492  13.4956  13.7464  14.2081
    14.8486  15.4547

          k = 0.4375-0.1832 0.0000 (  5711 PWs)   bands (ev):

   -45.1440 -23.7048 -23.3892 -23.0327 -20.4810 -12.0913  -3.0817  -2.5302
    -2.4537  -2.1520  -0.5839   0.6209   3.6007   6.4303   7.0127   7.5602
     8.0976   9.3656  10.1753  11.2857  12.1774  12.7442  13.5639  14.9361
    15.3595  16.0933

          k = 0.4375-0.1099 0.0000 (  5707 PWs)   bands (ev):

   -45.1459 -23.6624 -23.3890 -23.0684 -20.4746 -12.1217  -2.9978  -2.5414
    -2.4773  -1.9090  -0.6080   0.2895   3.8062   6.3211   6.8168   7.4499
     7.9626   9.3650  10.3362  11.5842  12.3323  12.7867  14.0326  14.6880
    15.4940  16.5715

          k = 0.4375-0.0366 0.0000 (  5722 PWs)   bands (ev):

   -45.1469 -23.6315 -23.3849 -23.1015 -20.4699 -12.1382  -2.9360  -2.5623
    -2.4830  -1.6916  -0.6358   0.0028   3.9797   6.0805   6.8785   7.2556
     7.9724   9.3633  10.4626  11.7897  12.5896  12.9860  14.2091  14.7956
    15.0966  16.1420

          k =-0.5000-0.2931 0.0000 (  5692 PWs)   bands (ev):

   -45.1390 -23.7586 -23.3768 -23.0256 -20.4851 -12.0107  -3.1740  -2.5889
    -2.4370  -2.3569  -0.5496   0.7285   3.4862   6.6265   7.0317   7.6959
     8.4479   9.8625  10.2059  11.3218  11.8025  12.5649  13.5209  14.2964
    14.9753  15.6081

          k =-0.5000-0.2198 0.0000 (  5697 PWs)   bands (ev):

   -45.1390 -23.7450 -23.3764 -23.0435 -20.4818 -12.0114  -3.1370  -2.6090
    -2.4539  -2.2789  -0.5545   0.5623   3.5819   6.6170   7.0547   7.6161
     8.2689   9.9727  10.3234  11.3891  11.9774  12.6106  13.4349  14.3947
    15.0341  15.5723

          k =-0.5000-0.1465 0.0000 (  5713 PWs)   bands (ev):

   -45.1391 -23.7092 -23.3753 -23.0900 -20.4742 -12.0129  -3.0526  -2.6358
    -2.4584  -2.1178  -0.5693   0.1661   3.8074   6.5970   6.9329   7.5346
     8.0098  10.1299  10.5171  11.7238  12.3285  12.7610  13.3629  14.4172
    15.1011  15.8572

          k =-0.5000-0.0733 0.0000 (  5710 PWs)   bands (ev):

   -45.1391 -23.6678 -23.3730 -23.1432 -20.4666 -12.0144  -2.9820  -2.6386
    -2.4530  -1.9143  -0.6046  -0.2442   4.0484   6.4000   6.8535   7.4433
     7.9471  10.2000  10.6670  12.1258  12.5568  13.0742  13.6318  14.3195
    15.1695  16.0091

          k =-0.5000-0.0000 0.0000 (  5716 PWs)   bands (ev):

   -45.1391 -23.6483 -23.3713 -23.1682 -20.4635 -12.0151  -2.9589  -2.6334
    -2.4491  -1.7937  -0.6609  -0.4047   4.1618   6.2428   6.8959   7.3551
     7.9691  10.2138  10.7357  12.1915  12.6228  13.3993  13.9649  14.4293
    14.9215  15.4674

     highest occupied, lowest unoccupied level (ev):     4.4738    5.6599

!    total energy              =    -571.23375223 Ry
     total all-electron energy =    -12610.611164 Ry
     estimated scf accuracy    <          5.4E-10 Ry

     The total energy is the sum of the following terms:
     one-electron contribution =    -281.71829265 Ry
     hartree contribution      =     149.51317718 Ry
     xc contribution           =     -36.38142053 Ry
     ewald contribution        =      -5.79006831 Ry
     one-center paw contrib.   =    -396.85714792 Ry

     convergence has been achieved in   9 iterations

     negative rho (up, down):  2.825E-05 0.000E+00

     Forces acting on atoms (cartesian axes, Ry/au):

     atom    1 type  1   force =     0.00000000    0.00752930   -0.00117093
     atom    2 type  2   force =     0.00000000   -0.00330339    0.00487032
     atom    3 type  3   force =     0.00000000   -0.00422591   -0.00369940
     The non-local contrib.  to forces
     atom    1 type  1   force =     0.00000000    0.00254281   -0.02397070
     atom    2 type  2   force =     0.00000000   -0.00721775   -1.00541045
     atom    3 type  3   force =     0.00000000   -0.00318349    0.20952847
     The ionic contribution  to forces
     atom    1 type  1   force =    -0.00000001   -0.01524703   -0.60917746
     atom    2 type  2   force =     0.00000001    0.00639059   25.09530471
     atom    3 type  3   force =     0.00000000    0.00885644  -24.48612724
     The local contribution  to forces
     atom    1 type  1   force =    -0.00000000    0.02013319    0.62785673
     atom    2 type  2   force =     0.00000027   -0.00251469  -24.08828312
     atom    3 type  3   force =    -0.00000000   -0.01005767   24.27510255
     The core correction contribution to forces
     atom    1 type  1   force =    -0.00000000    0.00010091    0.00406667
     atom    2 type  2   force =     0.00000000    0.00003729    0.00323411
     atom    3 type  3   force =    -0.00000000    0.00015858   -0.00219980
     The Hubbard contrib.    to forces
     atom    1 type  1   force =     0.00000000    0.00000000    0.00000000
     atom    2 type  2   force =     0.00000000    0.00000000    0.00000000
     atom    3 type  3   force =     0.00000000    0.00000000    0.00000000
     The SCF correction term to forces
     atom    1 type  1   force =    -0.00000000   -0.00000044    0.00005086
     atom    2 type  2   force =     0.00000000    0.00000132    0.00002209
     atom    3 type  3   force =     0.00000000    0.00000037   -0.00000637

     Total force =     0.011146     Total SCF correction =     0.000056

     BFGS Geometry Optimization
     Energy error            =      0.0E+00 Ry
     Gradient error          =      7.5E-03 Ry/Bohr

     number of scf cycles    =   1
     number of bfgs steps    =   0

     energy             new  =    -571.2337522296 Ry

     new trust radius        =       0.0076198041 bohr
     new conv_thr            =       0.0000000100 Ry


ATOMIC_POSITIONS (angstrom)
Zr            0.0000000000        0.0039843334       10.1031475899
F            -0.0000000020        1.9291558052       11.4090131098
Br           -0.0000000020        1.9286676246        8.2060180133



     Writing config-only to output data dir ./tmp/ZrFBr.save/
     NEW-OLD atomic charge density approx. for the potential

     Check: negative core charge=   -0.000002

     negative rho (up, down):  2.842E-05 0.000E+00

     total cpu time spent up to now is       16.9 secs

     Self-consistent Calculation

     iteration #  1     ecut=    65.00 Ry     beta= 0.70
     Davidson diagonalization with overlap
     ethr =  1.00E-06,  avg # of iterations =  3.0

     Threshold (ethr) on eigenvalues was too large:
     Diagonalizing with lowered threshold

     Davidson diagonalization with overlap
     ethr =  2.05E-08,  avg # of iterations =  3.0

     negative rho (up, down):  2.803E-05 0.000E+00

     total cpu time spent up to now is       20.4 secs

     total energy              =    -571.23386034 Ry
     estimated scf accuracy    <       0.00000539 Ry

     iteration #  2     ecut=    65.00 Ry     beta= 0.70
     Davidson diagonalization with overlap
     ethr =  2.07E-08,  avg # of iterations =  2.0

     negative rho (up, down):  2.821E-05 0.000E+00

     total cpu time spent up to now is       21.8 secs

     total energy              =    -571.23386021 Ry
     estimated scf accuracy    <       0.00000595 Ry

     iteration #  3     ecut=    65.00 Ry     beta= 0.70
     Davidson diagonalization with overlap
     ethr =  2.07E-08,  avg # of iterations =  1.9

     negative rho (up, down):  2.823E-05 0.000E+00

     total cpu time spent up to now is       23.1 secs

     total energy              =    -571.23386175 Ry
     estimated scf accuracy    <       0.00000175 Ry

     iteration #  4     ecut=    65.00 Ry     beta= 0.70
     Davidson diagonalization with overlap
     ethr =  6.72E-09,  avg # of iterations =  1.0

     negative rho (up, down):  2.823E-05 0.000E+00

     total cpu time spent up to now is       24.3 secs

     total energy              =    -571.23386205 Ry
     estimated scf accuracy    <       0.00000013 Ry

     iteration #  5     ecut=    65.00 Ry     beta= 0.70
     Davidson diagonalization with overlap
     ethr =  4.81E-10,  avg # of iterations =  2.0

     negative rho (up, down):  2.822E-05 0.000E+00

     total cpu time spent up to now is       25.6 secs

     total energy              =    -571.23386208 Ry
     estimated scf accuracy    <       0.00000002 Ry

     iteration #  6     ecut=    65.00 Ry     beta= 0.70
     Davidson diagonalization with overlap
     ethr =  7.94E-11,  avg # of iterations =  2.0

     negative rho (up, down):  2.823E-05 0.000E+00

     total cpu time spent up to now is       27.0 secs

     End of self-consistent calculation

          k = 0.0000 0.0000 0.0000 (  5617 PWs)   bands (ev):

   -45.2125 -23.7310 -22.9226 -22.8956 -20.5820 -12.9170  -3.0976  -2.4173
    -2.3565  -1.0689   1.5115   1.6526   3.8603   5.8640   6.0571   6.1389
     6.9978   7.0164   8.0708   8.9882  11.2966  14.1614  14.7936  15.0573
    15.5088  17.4374

          k = 0.0000 0.0733 0.0000 (  5647 PWs)   bands (ev):

   -45.2099 -23.7216 -22.9300 -22.9282 -20.5728 -12.8865  -3.0623  -2.4177
    -2.3965  -1.0444   1.4131   1.4672   3.8850   5.9125   6.0025   6.2058
     6.9455   7.0685   8.2093   9.2113  11.4467  14.2336  14.6128  14.9345
    15.4028  17.7137

          k = 0.0000 0.1465 0.0000 (  5692 PWs)   bands (ev):

   -45.2025 -23.6950 -23.0242 -22.9441 -20.5499 -12.7976  -2.9684  -2.4973
    -2.4200  -0.9851   0.8130   1.3453   3.9295   5.8654   6.0669   6.2890
     7.0232   7.2035   8.5739   9.6815  11.8750  13.8699  14.2886  15.2352
    15.3529  17.8045

          k = 0.0000 0.2198 0.0000 (  5710 PWs)   bands (ev):

   -45.1913 -23.6571 -23.1551 -22.9676 -20.5234 -12.6590  -2.8583  -2.6096
    -2.4267  -0.9238   0.0656   1.1741   3.9256   5.7916   6.3331   6.3393
     7.3395   7.3777   9.0652  10.1536  12.2494  13.5177  13.9452  15.6146
    16.0325  17.4941

          k = 0.0000 0.2931 0.0000 (  5708 PWs)   bands (ev):

   -45.1781 -23.6212 -23.2901 -22.9952 -20.5024 -12.4858  -2.8519  -2.6224
    -2.4394  -0.9968  -0.5558   0.9873   3.8407   5.8571   6.4852   6.7199
     7.5577   7.7645   9.5608  10.5397  12.0731  13.1748  14.5006  16.1877
    16.8070  16.8426

          k = 0.0000 0.3663 0.0000 (  5708 PWs)   bands (ev):

   -45.1648 -23.6179 -23.3827 -23.0227 -20.4909 -12.3003  -2.9478  -2.5538
    -2.4570  -1.5312  -0.6297   0.8146   3.7250   6.0201   6.7500   7.1492
     7.7489   8.2666   9.9136  10.8061  11.9593  12.8578  15.1559  15.6163
    16.5638  16.7915

          k = 0.0000 0.4396 0.0000 (  5704 PWs)   bands (ev):

   -45.1535 -23.6696 -23.4000 -23.0458 -20.4876 -12.1319  -3.0428  -2.5208
    -2.4755  -2.0400  -0.5720   0.6780   3.6375   6.2267   6.9840   7.4753
     8.0254   8.8605  10.0605  11.0145  12.0975  12.8048  14.1140  15.4717
    16.0436  16.0563

          k = 0.0000 0.5129 0.0000 (  5718 PWs)   bands (ev):

   -45.1460 -23.7258 -23.3868 -23.0611 -20.4884 -12.0126  -3.1168  -2.5602
    -2.4895  -2.3133  -0.5229   0.5911   3.5945   6.4351   7.0461   7.6141
     8.3514   9.5039  10.1672  11.1886  12.1867  12.7796  13.4131  14.8937
    15.2984  15.5930

          k = 0.0000-0.5861 0.0000 (  5730 PWs)   bands (ev):

   -45.1433 -23.7475 -23.3796 -23.0665 -20.4892 -11.9693  -3.1481  -2.6108
    -2.4947  -2.3679  -0.5047   0.5613   3.5832   6.5451   7.0148   7.6493
     8.4964   9.8577  10.2270  11.3592  11.9035  12.6540  13.5658  14.4079
    15.0986  15.4090

          k = 0.0625 0.0366 0.0000 (  5641 PWs)   bands (ev):

   -45.2101 -23.7218 -22.9526 -22.9047 -20.5725 -12.8878  -3.0623  -2.4481
    -2.3633  -1.0457   1.3037   1.5863   3.8767   5.8229   6.1016   6.2104
     6.9545   7.0599   8.2041   9.2078  11.4417  14.2332  14.4731  15.1334
    15.3672  17.6551

          k = 0.0625 0.1099 0.0000 (  5653 PWs)   bands (ev):

   -45.2050 -23.7037 -23.0027 -22.9295 -20.5565 -12.8281  -2.9971  -2.4882
    -2.3952  -1.0041   0.9618   1.4274   3.9111   5.8271   6.0942   6.2994
     6.9401   7.1804   8.4559   9.5482  11.7402  14.0205  14.3010  15.1085
    15.3987  17.7837

          k = 0.0625 0.1832 0.0000 (  5690 PWs)   bands (ev):

   -45.1957 -23.6713 -23.1075 -22.9569 -20.5320 -12.7143  -2.8896  -2.5819
    -2.4171  -0.9430   0.3415   1.2278   3.9365   5.7510   6.2793   6.3573
     7.1236   7.3628   8.8849  10.0054  12.2530  13.4851  14.0152  15.2841
    15.9568  17.4058

          k = 0.0625 0.2564 0.0000 (  5702 PWs)   bands (ev):

   -45.1835 -23.6333 -23.2362 -22.9876 -20.5087 -12.5580  -2.8148  -2.6509
    -2.4359  -0.9148  -0.3400   1.0082   3.9028   5.7580   6.3949   6.6639
     7.3963   7.6384   9.3822  10.4381  12.3504  13.3373  13.8902  15.7960
    16.6718  17.0114

          k = 0.0625 0.3297 0.0000 (  5699 PWs)   bands (ev):

   -45.1703 -23.6101 -23.3489 -23.0195 -20.4929 -12.3778  -2.8850  -2.5895
    -2.4591  -1.2397  -0.6408   0.7952   3.8167   5.9087   6.5478   7.0829
     7.6237   8.0767   9.8212  10.7931  12.0929  12.9803  14.7641  15.8398
    16.4031  16.7641

          k = 0.0625 0.4030 0.0000 (  5708 PWs)   bands (ev):

   -45.1580 -23.6364 -23.3976 -23.0486 -20.4859 -12.1995  -2.9825  -2.5314
    -2.4849  -1.7870  -0.6041   0.6141   3.7330   6.1397   6.7709   7.3980
     7.8694   8.6712  10.0836  11.0463  12.0815  12.8048  14.6890  15.3258
    15.9865  16.7886

          k = 0.0625 0.4762 0.0000 (  5709 PWs)   bands (ev):

   -45.1486 -23.6952 -23.3917 -23.0707 -20.4849 -12.0540  -3.0628  -2.5651
    -2.4838  -2.1632  -0.5472   0.4835   3.6852   6.3759   6.9584   7.5416
     8.1264   9.3884  10.2189  11.2222  12.2308  12.8567  13.6370  14.9720
    15.4309  16.0826

          k = 0.0625 0.5495 0.0000 (  5712 PWs)   bands (ev):

   -45.1435 -23.7346 -23.3793 -23.0827 -20.4858 -11.9715  -3.1135  -2.6454
    -2.4819  -2.3017  -0.5130   0.4153   3.6690   6.5486   7.0168   7.5858
     8.3098   9.9885  10.3581  11.3789  12.0724  12.7003  13.4736  14.4765
    15.1098  15.4845

          k = 0.1250 0.0733 0.0000 (  5663 PWs)   bands (ev):

   -45.2030 -23.6958 -23.0438 -22.9210 -20.5486 -12.8029  -2.9676  -2.5382
    -2.3690  -0.9906   0.7291   1.4629   3.8962   5.7451   6.2184   6.3135
     7.0222   7.1980   8.5579   9.6768  11.8577  13.8220  14.2449  15.1734
    15.5373  17.9469

          k = 0.1250 0.1465 0.0000 (  5670 PWs)   bands (ev):

   -45.1961 -23.6720 -23.1171 -22.9447 -20.5311 -12.7182  -2.8886  -2.6000
    -2.3920  -0.9477   0.3000   1.2958   3.9092   5.7248   6.3249   6.3783
     7.1088   7.3716   8.8746  10.0046  12.2448  13.4600  13.9853  15.2669
    16.0277  17.4447

          k = 0.1250 0.2198 0.0000 (  5692 PWs)   bands (ev):

   -45.1858 -23.6388 -23.2186 -22.9804 -20.5102 -12.5865  -2.7943  -2.6738
    -2.4237  -0.9091  -0.2373   1.0190   3.9143   5.6836   6.4338   6.6810
     7.2763   7.6206   9.3125  10.4142  12.8215  13.0455  13.5844  15.5848
    16.6800  16.9826

          k = 0.1250 0.2931 0.0000 (  5690 PWs)   bands (ev):

   -45.1736 -23.6098 -23.3210 -23.0225 -20.4927 -12.4223  -2.8211  -2.6334
    -2.4617  -1.0494  -0.6271   0.7104   3.8995   5.7517   6.5332   7.0634
     7.5195   8.0033   9.7686  10.8386  12.5684  13.0795  13.8506  15.6582
    16.4556  16.9266

          k = 0.1250 0.3663 0.0000 (  5703 PWs)   bands (ev):

   -45.1613 -23.6120 -23.3849 -23.0646 -20.4821 -12.2472  -2.9094  -2.5567
    -2.5012  -1.5208  -0.6371   0.4292   3.8757   5.9698   6.6523   7.2923
     7.8167   8.6029  10.1412  11.2302  12.3381  12.8524  14.6693  15.1118
    15.7518  16.7495

          k = 0.1250 0.4396 0.0000 (  5696 PWs)   bands (ev):

   -45.1509 -23.6560 -23.3920 -23.1002 -20.4780 -12.0890  -2.9850  -2.5893
    -2.4854  -1.9272  -0.5830   0.2086   3.8654   6.2843   6.7654   7.4286
     8.0004   9.3945  10.3832  11.5105  12.3306  12.8409  14.1015  14.7040
    15.5605  16.6092

          k = 0.1250 0.5129 0.0000 (  5713 PWs)   bands (ev):

   -45.1439 -23.7011 -23.3785 -23.1242 -20.4776 -11.9775  -3.0358  -2.6821
    -2.4678  -2.1420  -0.5391   0.0681   3.8713   6.5524   6.8873   7.5028
     8.0520  10.1741  10.5921  11.6310  12.3568  12.8575  13.3862  14.4454
    15.1517  15.8987

          k = 0.1250 0.5861 0.0000 (  5714 PWs)   bands (ev):

   -45.1414 -23.7185 -23.3717 -23.1327 -20.4778 -11.9371  -3.0543  -2.7322
    -2.4647  -2.1974  -0.5227   0.0198   3.8768   6.6328   6.9887   7.4989
     8.0623  10.3967  10.9465  11.7445  11.9965  12.6953  13.5022  14.3062
    15.1224  15.3555

          k = 0.1250 0.0000 0.0000 (  5658 PWs)   bands (ev):

   -45.2055 -23.7043 -23.0170 -22.9128 -20.5555 -12.8320  -2.9968  -2.5159
    -2.3598  -1.0078   0.9065   1.5035   3.8897   5.7295   6.2271   6.2997
     6.9918   7.1296   8.4436   9.5445  11.7286  13.9735  14.2837  15.1196
    15.4935  17.7730

          k = 0.1875 0.1099 0.0000 (  5672 PWs)   bands (ev):

   -45.1925 -23.6590 -23.1724 -22.9430 -20.5207 -12.6705  -2.8560  -2.6415
    -2.3742  -0.9379   0.0046   1.3006   3.8584   5.7386   6.3357   6.4856
     7.3164   7.3892   9.0399  10.1553  12.2404  13.4664  13.8792  15.5521
    16.1945  17.5161

          k = 0.1875 0.1832 0.0000 (  5689 PWs)   bands (ev):

   -45.1846 -23.6354 -23.2487 -22.9682 -20.5064 -12.5682  -2.8169  -2.6664
    -2.3984  -0.9331  -0.3812   1.1152   3.8405   5.7532   6.4289   6.7126
     7.3861   7.6403   9.3619  10.4440  12.3643  13.2750  13.8189  15.7559
    16.7724  17.0383

          k = 0.1875 0.2564 0.0000 (  5701 PWs)   bands (ev):

   -45.1742 -23.6115 -23.3267 -23.0123 -20.4914 -12.4286  -2.8277  -2.6318
    -2.4450  -1.0691  -0.6372   0.7666   3.8635   5.7599   6.5548   7.0721
     7.5240   7.9970   9.7588  10.8449  12.5996  13.0511  13.7754  15.6638
    16.4055  16.8894

          k = 0.1875 0.3297 0.0000 (  5695 PWs)   bands (ev):

   -45.1630 -23.6056 -23.3790 -23.0677 -20.4795 -12.2689  -2.8765  -2.5690
    -2.5016  -1.4067  -0.6587   0.3587   3.9247   5.8503   6.7151   7.1876
     7.8290   8.5786  10.1591  11.3108  12.6998  12.8962  14.0799  14.9513
    16.0282  16.5520

          k = 0.1875 0.4030 0.0000 (  5700 PWs)   bands (ev):

   -45.1526 -23.6297 -23.3895 -23.1238 -20.4722 -12.1123  -2.9298  -2.5991
    -2.4881  -1.7296  -0.6248  -0.0090   4.0042   6.0679   6.8259   7.2468
     8.0148   9.3919  10.5013  11.7676  12.6043  12.8835  14.2151  14.8101
    15.1278  16.1284

          k = 0.1875 0.4762 0.0000 (  5711 PWs)   bands (ev):

   -45.1446 -23.6636 -23.3771 -23.1692 -20.4690 -11.9859  -2.9744  -2.6807
    -2.4557  -1.9454  -0.5982  -0.2711   4.0802   6.3852   6.8209   7.3997
     7.9912  10.2564  10.7569  12.0577  12.5299  13.0250  13.6895  14.3226
    15.2244  15.9150

          k = 0.1875 0.5495 0.0000 (  5709 PWs)   bands (ev):

   -45.1402 -23.6850 -23.3657 -23.1947 -20.4680 -11.9148  -3.0009  -2.7414
    -2.4437  -2.0404  -0.5982  -0.3926   4.1283   6.6306   6.8432   7.5172
     7.8540  10.6043  11.3639  12.1159  12.3726  12.7894  13.5246  14.3917
    14.9811  15.6089

          k = 0.1875-0.0366 0.0000 (  5677 PWs)   bands (ev):

   -45.1968 -23.6728 -23.1231 -22.9353 -20.5295 -12.7243  -2.8879  -2.6121
    -2.3687  -0.9533   0.2952   1.3198   3.8862   5.6725   6.3541   6.4468
     7.1623   7.3118   8.8621  10.0053  12.2363  13.4757  13.9689  15.2695
    16.0582  17.4028

          k = 0.2500 0.1465 0.0000 (  5688 PWs)   bands (ev):

   -45.1801 -23.6251 -23.3046 -22.9682 -20.4982 -12.5051  -2.8591  -2.6335
    -2.3834  -1.0328  -0.5843   1.1250   3.7497   5.8536   6.4966   6.8225
     7.5542   7.7550   9.5301  10.5559  12.0799  13.0967  14.4119  16.0963
    16.6766  16.9961

          k = 0.2500 0.2198 0.0000 (  5700 PWs)   bands (ev):

   -45.1721 -23.6153 -23.3601 -22.9949 -20.4891 -12.3961  -2.8959  -2.5895
    -2.4140  -1.2789  -0.6613   0.9263   3.7309   5.9205   6.5863   7.1274
     7.6301   8.0584   9.7965  10.8158  12.1019  12.9055  14.6452  15.7402
    16.3501  16.7953

          k = 0.2500 0.2931 0.0000 (  5710 PWs)   bands (ev):

   -45.1627 -23.6180 -23.3911 -23.0463 -20.4793 -12.2617  -2.9198  -2.5409
    -2.4819  -1.5472  -0.6521   0.5218   3.8132   5.9839   6.6900   7.2959
     7.8330   8.5857  10.1291  11.2532  12.3592  12.8066  14.5710  15.0322
    15.6773  16.7505

          k = 0.2500 0.3663 0.0000 (  5716 PWs)   bands (ev):

   -45.1533 -23.6337 -23.3918 -23.1142 -20.4707 -12.1205  -2.9353  -2.5823
    -2.4878  -1.7400  -0.6311   0.0333   3.9738   6.0729   6.8566   7.2333
     8.0236   9.3825  10.4988  11.7807  12.6031  12.9031  14.1963  14.7023
    15.0644  16.2011

          k = 0.2500 0.4396 0.0000 (  5707 PWs)   bands (ev):

   -45.1453 -23.6489 -23.3773 -23.1842 -20.4644 -11.9948  -2.9574  -2.6639
    -2.4487  -1.8406  -0.6613  -0.3789   4.1609   6.2393   6.8883   7.3068
     8.0149  10.2633  10.8265  12.1330  12.6666  13.2585  13.9379  14.4128
    14.9147  15.4717

          k = 0.2500 0.5129 0.0000 (  5710 PWs)   bands (ev):

   -45.1400 -23.6560 -23.3629 -23.2383 -20.4608 -11.9076  -2.9940  -2.6949
    -2.4240  -1.8714  -0.8698  -0.4976   4.3105   6.4821   6.7955   7.4897
     7.8458  10.6962  11.3907  12.0983  12.9982  13.4304  13.6195  14.1824
    14.9022  15.4550

          k = 0.2500 0.5861 0.0000 (  5698 PWs)   bands (ev):

   -45.1381 -23.6573 -23.3572 -23.2590 -20.4597 -11.8763  -3.0136  -2.6968
    -2.4160  -1.8725  -0.9873  -0.5053   4.3676   6.6329   6.7529   7.5388
     7.7467  10.6808  12.0516  12.3033  12.3819  13.3447  13.8057  14.2771
    14.9029  15.5631

          k = 0.2500-0.0733 0.0000 (  5684 PWs)   bands (ev):

   -45.1854 -23.6362 -23.2495 -22.9638 -20.5045 -12.5757  -2.8163  -2.6679
    -2.3826  -0.9371  -0.3647   1.1082   3.8283   5.7316   6.4278   6.7663
     7.3963   7.6203   9.3541  10.4472  12.3691  13.2852  13.8558  15.7598
    16.7206  16.9755

          k = 0.2500 0.0000 0.0000 (  5696 PWs)   bands (ev):

   -45.1872 -23.6407 -23.2255 -22.9663 -20.5067 -12.6001  -2.7933  -2.6842
    -2.3874  -0.9219  -0.2307   1.0506   3.8725   5.6471   6.4725   6.7568
     7.2847   7.5937   9.2935  10.4191  12.8158  13.0920  13.5690  15.5599
    16.6629  16.9387

          k = 0.3125 0.1832 0.0000 (  5705 PWs)   bands (ev):

   -45.1676 -23.6262 -23.3922 -22.9932 -20.4851 -12.3284  -2.9576  -2.5518
    -2.3965  -1.5594  -0.6575   0.9630   3.6254   6.0442   6.7669   7.2094
     7.7555   8.2439   9.8830  10.8446  11.9448  12.7691  15.0338  15.4728
    16.6592  16.7245

          k = 0.3125 0.2564 0.0000 (  5710 PWs)   bands (ev):

   -45.1606 -23.6468 -23.4044 -23.0202 -20.4806 -12.2265  -2.9945  -2.5206
    -2.4370  -1.8100  -0.6335   0.7591   3.6379   6.1661   6.7976   7.4349
     7.8826   8.6404  10.0645  11.0893  12.0607  12.7173  14.5518  15.2358
    15.9772  16.7184

          k = 0.3125 0.3297 0.0000 (  5712 PWs)   bands (ev):

   -45.1531 -23.6660 -23.3966 -23.0764 -20.4736 -12.1123  -2.9970  -2.5529
    -2.4771  -1.9379  -0.6077   0.3195   3.7903   6.3024   6.8013   7.4319
     8.0172   9.3683  10.3763  11.5629  12.3174  12.7777  13.9830  14.6865
    15.4574  16.5412

          k = 0.3125 0.4030 0.0000 (  5714 PWs)   bands (ev):

   -45.1461 -23.6711 -23.3801 -23.1524 -20.4659 -12.0028  -2.9806  -2.6604
    -2.4493  -1.9483  -0.6048  -0.2127   4.0332   6.3847   6.8572   7.3918
     8.0050  10.2292  10.7550  12.0925  12.5472  13.0150  13.5742  14.3501
    15.1184  15.9801

          k = 0.3125 0.4762 0.0000 (  5702 PWs)   bands (ev):

   -45.1408 -23.6597 -23.3645 -23.2300 -20.4592 -11.9164  -2.9924  -2.6888
    -2.4203  -1.8726  -0.8411  -0.5047   4.2922   6.4750   6.8058   7.4905
     7.8568  10.6740  11.3866  12.1062  12.9606  13.4569  13.6043  14.2670
    14.8572  15.4276

          k = 0.3125 0.5495 0.0000 (  5687 PWs)   bands (ev):

   -45.1379 -23.6438 -23.3556 -23.2825 -20.4555 -11.8685  -3.0241  -2.6591
    -2.3990  -1.7222  -1.2425  -0.5225   4.4673   6.6010   6.7188   7.4583
     7.8172  10.6514  12.0411  12.2788  13.0266  13.2832  14.0186  14.2731
    15.0075  15.6052

          k = 0.3125-0.1099 0.0000 (  5705 PWs)   bands (ev):

   -45.1729 -23.6156 -23.3589 -22.9935 -20.4871 -12.4040  -2.8922  -2.5896
    -2.4010  -1.2614  -0.6600   0.9056   3.7320   5.9216   6.5804   7.1312
     7.6201   8.0667   9.7905  10.8213  12.1091  12.9122  14.7198  15.7381
    16.3554  16.7426

          k = 0.3125-0.0366 0.0000 (  5695 PWs)   bands (ev):

   -45.1758 -23.6130 -23.3270 -23.0051 -20.4875 -12.4441  -2.8255  -2.6309
    -2.4169  -1.0548  -0.6269   0.7528   3.8464   5.7437   6.5885   7.0793
     7.5133   7.9998   9.7463  10.8509  12.6217  13.0601  13.8547  15.6194
    16.3721  16.8589

          k = 0.3750 0.2198 0.0000 (  5699 PWs)   bands (ev):

   -45.1569 -23.6812 -23.4057 -23.0143 -20.4805 -12.1681  -3.0541  -2.5104
    -2.4105  -2.0488  -0.6105   0.8348   3.5365   6.2684   7.0039   7.5101
     8.0217   8.8300  10.0323  11.0585  12.0494  12.7013  13.9956  15.3668
    15.8970  16.2037

          k = 0.3750 0.2931 0.0000 (  5704 PWs)   bands (ev):

   -45.1518 -23.7074 -23.3966 -23.0400 -20.4783 -12.0892  -3.0774  -2.5353
    -2.4488  -2.1601  -0.5863   0.6343   3.5886   6.4256   6.9602   7.5788
     8.1225   9.3568  10.2036  11.2663  12.1679  12.7474  13.5419  14.9148
    15.3659  16.0929

          k = 0.3750 0.3663 0.0000 (  5697 PWs)   bands (ev):

   -45.1467 -23.7122 -23.3827 -23.0973 -20.4718 -12.0088  -3.0492  -2.6486
    -2.4518  -2.1288  -0.5714   0.1831   3.7939   6.6010   6.8821   7.5230
     8.0512  10.1376  10.5843  11.7044  12.2797  12.7532  13.3453  14.4204
    15.0768  15.8476

          k = 0.3750 0.4396 0.0000 (  5694 PWs)   bands (ev):

   -45.1424 -23.6935 -23.3691 -23.1742 -20.4635 -11.9396  -3.0040  -2.7180
    -2.4331  -2.0286  -0.5919  -0.3496   4.0781   6.6500   6.8388   7.5369
     7.8574  10.5547  11.3488  12.1306  12.3455  12.7942  13.4987  14.3700
    14.9512  15.5269

          k = 0.3750 0.5129 0.0000 (  5693 PWs)   bands (ev):

   -45.1395 -23.6620 -23.3597 -23.2466 -20.4566 -11.8928  -3.0070  -2.6838
    -2.4098  -1.8617  -0.9513  -0.5240   4.3471   6.6385   6.7374   7.5337
     7.7741  10.6291  12.0571  12.2387  12.3247  13.4831  13.8563  14.2972
    14.8511  15.5085

          k = 0.3750 0.5861 0.0000 (  5692 PWs)   bands (ev):

   -45.1385 -23.6446 -23.3565 -23.2785 -20.4540 -11.8763  -3.0193  -2.6509
    -2.3968  -1.7013  -1.2475  -0.5314   4.4662   6.6011   6.7112   7.4444
     7.8348  10.6207  12.0626  12.1605  13.1146  13.2666  14.1481  14.2510
    14.9568  15.5821

          k = 0.3750-0.1465 0.0000 (  5717 PWs)   bands (ev):

   -45.1613 -23.6455 -23.4038 -23.0203 -20.4788 -12.2337  -2.9893  -2.5207
    -2.4252  -1.7922  -0.6359   0.7364   3.6465   6.1750   6.8056   7.4110
     7.8602   8.6521  10.0478  11.0997  12.0628  12.7207  14.5767  15.2810
    15.9238  16.7527

          k = 0.3750-0.0733 0.0000 (  5710 PWs)   bands (ev):

   -45.1641 -23.6173 -23.3898 -23.0439 -20.4756 -12.2769  -2.9119  -2.5434
    -2.4546  -1.5095  -0.6570   0.4878   3.8178   5.9835   6.7028   7.2879
     7.7955   8.5933  10.1105  11.2609  12.3723  12.8229  14.6594  15.0502
    15.6882  16.7015

          k = 0.3750 0.0000 0.0000 (  5700 PWs)   bands (ev):

   -45.1652 -23.6073 -23.3799 -23.0576 -20.4741 -12.2920  -2.8724  -2.5622
    -2.4657  -1.3703  -0.6676   0.3501   3.9042   5.8440   6.7708   7.1630
     7.7984   8.5773  10.1371  11.3188  12.6929  12.9755  14.1286  14.9170
    16.0151  16.4729

          k = 0.4375 0.2564 0.0000 (  5681 PWs)   bands (ev):

   -45.1498 -23.7380 -23.3916 -23.0282 -20.4805 -12.0548  -3.1323  -2.5417
    -2.4227  -2.3065  -0.5688   0.7532   3.4934   6.4920   7.0652   7.6483
     8.3147   9.4797  10.1345  11.2065  12.0927  12.6587  13.3601  14.7829
    15.1738  15.7723

          k = 0.4375 0.3297 0.0000 (  5704 PWs)   bands (ev):

   -45.1472 -23.7467 -23.3839 -23.0509 -20.4783 -12.0125  -3.1307  -2.6125
    -2.4463  -2.2784  -0.5577   0.5652   3.5745   6.6179   7.0137   7.6215
     8.2739   9.9689  10.3390  11.3848  11.9566  12.6069  13.4396  14.3850
    15.0145  15.5850

          k = 0.4375 0.4030 0.0000 (  5693 PWs)   bands (ev):

   -45.1447 -23.7289 -23.3759 -23.1051 -20.4710 -11.9739  -3.0668  -2.6925
    -2.4462  -2.1716  -0.5583   0.1281   3.8031   6.6873   6.9888   7.5263
     8.0320  10.3477  10.9252  11.7907  11.9010  12.6403  13.4828  14.2351
    15.0674  15.3415

          k = 0.4375 0.4762 0.0000 (  5702 PWs)   bands (ev):

   -45.1428 -23.6921 -23.3692 -23.1741 -20.4623 -11.9449  -3.0009  -2.7067
    -2.4327  -2.0172  -0.5921  -0.3648   4.0840   6.6531   6.8400   7.5561
     7.8227  10.5336  11.2589  12.1738  12.3882  12.8161  13.4966  14.3577
    14.9520  15.5726

          k = 0.4375 0.5495 0.0000 (  5701 PWs)   bands (ev):

   -45.1418 -23.6585 -23.3651 -23.2271 -20.4566 -11.9293  -2.9856  -2.6682
    -2.4177  -1.8387  -0.8540  -0.5232   4.2987   6.4766   6.7945   7.5063
     7.8318  10.6277  11.2688  12.1621  12.9502  13.4963  13.7337  14.2089
    14.8523  15.4578

          k = 0.4375-0.1832 0.0000 (  5711 PWs)   bands (ev):

   -45.1523 -23.7058 -23.3965 -23.0405 -20.4771 -12.0943  -3.0728  -2.5260
    -2.4466  -2.1520  -0.5880   0.6174   3.5973   6.4212   7.0014   7.5536
     8.0925   9.3547  10.1713  11.2790  12.1740  12.7458  13.5633  14.9381
    15.3538  16.0911

          k = 0.4375-0.1099 0.0000 (  5707 PWs)   bands (ev):

   -45.1542 -23.6632 -23.3962 -23.0764 -20.4708 -12.1247  -2.9883  -2.5360
    -2.4710  -1.9093  -0.6123   0.2855   3.8038   6.3114   6.8056   7.4435
     7.9573   9.3580  10.3281  11.5794  12.3288  12.7850  14.0307  14.6878
    15.4922  16.5695

          k = 0.4375-0.0366 0.0000 (  5722 PWs)   bands (ev):

   -45.1552 -23.6321 -23.3918 -23.1099 -20.4660 -12.1412  -2.9262  -2.5561
    -2.4773  -1.6920  -0.6404  -0.0018   3.9784   6.0694   6.8662   7.2515
     7.9663   9.3588  10.4515  11.7867  12.5888  12.9810  14.2019  14.7919
    15.0998  16.1455

          k =-0.5000-0.2931 0.0000 (  5692 PWs)   bands (ev):

   -45.1473 -23.7597 -23.3843 -23.0332 -20.4810 -12.0137  -3.1660  -2.5879
    -2.4284  -2.3552  -0.5533   0.7253   3.4821   6.6128   7.0290   7.6853
     8.4422   9.8446  10.2049  11.3185  11.8032  12.5631  13.5212  14.2985
    14.9738  15.5999

          k =-0.5000-0.2198 0.0000 (  5697 PWs)   bands (ev):

   -45.1473 -23.7460 -23.3839 -23.0511 -20.4778 -12.0143  -3.1287  -2.6072
    -2.4467  -2.2767  -0.5583   0.5590   3.5781   6.6055   7.0485   7.6068
     8.2625   9.9571  10.3229  11.3842  11.9774  12.6087  13.4340  14.3974
    15.0312  15.5674

          k =-0.5000-0.1465 0.0000 (  5713 PWs)   bands (ev):

   -45.1473 -23.7100 -23.3827 -23.0978 -20.4702 -12.0158  -3.0435  -2.6326
    -2.4517  -2.1168  -0.5734   0.1625   3.8040   6.5882   6.9227   7.5258
     8.0033  10.1216  10.5134  11.7181  12.3232  12.7603  13.3601  14.4204
    15.0986  15.8559

          k =-0.5000-0.0733 0.0000 (  5710 PWs)   bands (ev):

   -45.1473 -23.6682 -23.3803 -23.1514 -20.4627 -12.0174  -2.9726  -2.6341
    -2.4464  -1.9144  -0.6090  -0.2483   4.0457   6.3915   6.8426   7.4348
     7.9400  10.1985  10.6585  12.1189  12.5516  13.0678  13.6310  14.3220
    15.1705  16.0067

          k =-0.5000-0.0000 0.0000 (  5716 PWs)   bands (ev):

   -45.1473 -23.6485 -23.3786 -23.1767 -20.4596 -12.0180  -2.9496  -2.6283
    -2.4424  -1.7940  -0.6654  -0.4092   4.1596   6.2337   6.8842   7.3480
     7.9612  10.2144  10.7259  12.1809  12.6219  13.3923  13.9594  14.4325
    14.9196  15.4751

     highest occupied, lowest unoccupied level (ev):     4.4673    5.6471

!    total energy              =    -571.23386209 Ry
     total all-electron energy =    -12610.611273 Ry
     estimated scf accuracy    <          1.5E-09 Ry

     The total energy is the sum of the following terms:
     one-electron contribution =    -281.29188868 Ry
     hartree contribution      =     149.29764905 Ry
     xc contribution           =     -36.37937754 Ry
     ewald contribution        =      -6.00318424 Ry
     one-center paw contrib.   =    -396.85706068 Ry

     convergence has been achieved in   6 iterations

     negative rho (up, down):  2.823E-05 0.000E+00

     Forces acting on atoms (cartesian axes, Ry/au):

     atom    1 type  1   force =     0.00000000    0.00572800   -0.00055166
     atom    2 type  2   force =     0.00000000   -0.00261786    0.00373271
     atom    3 type  3   force =     0.00000000   -0.00311014   -0.00318105
     The non-local contrib.  to forces
     atom    1 type  1   force =     0.00000000    0.00130300   -0.02407974
     atom    2 type  2   force =     0.00000000   -0.01009495   -1.00919553
     atom    3 type  3   force =     0.00000000   -0.00265543    0.20982784
     The ionic contribution  to forces
     atom    1 type  1   force =    -0.00000001   -0.04615863   -0.62061734
     atom    2 type  2   force =     0.00000001    0.02914868   25.08489045
     atom    3 type  3   force =     0.00000000    0.01700995  -24.46427310
     The local contribution  to forces
     atom    1 type  1   force =    -0.00000000    0.05046436    0.63999197
     atom    2 type  2   force =     0.00000027   -0.02172237  -24.07521530
     atom    3 type  3   force =    -0.00000000   -0.01756300   24.25354719
     The core correction contribution to forces
     atom    1 type  1   force =     0.00000000    0.00010611    0.00406650
     atom    2 type  2   force =     0.00000000    0.00004387    0.00325135
     atom    3 type  3   force =    -0.00000000    0.00009003   -0.00223593
     The Hubbard contrib.    to forces
     atom    1 type  1   force =     0.00000000    0.00000000    0.00000000
     atom    2 type  2   force =     0.00000000    0.00000000    0.00000000
     atom    3 type  3   force =     0.00000000    0.00000000    0.00000000
     The SCF correction term to forces
     atom    1 type  1   force =    -0.00000000    0.00000739    0.00008462
     atom    2 type  2   force =    -0.00000000    0.00000114   -0.00000059
     atom    3 type  3   force =     0.00000000    0.00000254   -0.00004937

     Total force =     0.008584     Total SCF correction =     0.000098
     Energy error            =      1.1E-04 Ry
     Gradient error          =      5.7E-03 Ry/Bohr

     number of scf cycles    =   2
     number of bfgs steps    =   1

     energy             old  =    -571.2337522296 Ry
     energy             new  =    -571.2338620853 Ry

     CASE: energy            _new < energy            _old

     new trust radius        =       0.0083817845 bohr
     new conv_thr            =       0.0000000011 Ry


ATOMIC_POSITIONS (angstrom)
Zr            0.0000000000        0.0083990553       10.1027192892
F            -0.0000000020        1.9271391150       11.4118897540
Br           -0.0000000020        1.9262695928        8.2035696698



     Writing config-only to output data dir ./tmp/ZrFBr.save/
     NEW-OLD atomic charge density approx. for the potential

     Check: negative core charge=   -0.000002

     negative rho (up, down):  2.829E-05 0.000E+00

     total cpu time spent up to now is       27.4 secs

     Self-consistent Calculation

     iteration #  1     ecut=    65.00 Ry     beta= 0.70
     Davidson diagonalization with overlap
     ethr =  1.00E-06,  avg # of iterations =  3.0

     Threshold (ethr) on eigenvalues was too large:
     Diagonalizing with lowered threshold

     Davidson diagonalization with overlap
     ethr =  2.69E-08,  avg # of iterations =  3.0

     negative rho (up, down):  2.794E-05 0.000E+00

     total cpu time spent up to now is       30.8 secs

     total energy              =    -571.23394958 Ry
     estimated scf accuracy    <       0.00000708 Ry

     iteration #  2     ecut=    65.00 Ry     beta= 0.70
     Davidson diagonalization with overlap
     ethr =  2.72E-08,  avg # of iterations =  2.0

     negative rho (up, down):  2.815E-05 0.000E+00

     total cpu time spent up to now is       32.2 secs

     total energy              =    -571.23394916 Ry
     estimated scf accuracy    <       0.00001013 Ry

     iteration #  3     ecut=    65.00 Ry     beta= 0.70
     Davidson diagonalization with overlap
     ethr =  2.72E-08,  avg # of iterations =  2.0

     negative rho (up, down):  2.819E-05 0.000E+00

     total cpu time spent up to now is       33.5 secs

     total energy              =    -571.23395166 Ry
     estimated scf accuracy    <       0.00000196 Ry

     iteration #  4     ecut=    65.00 Ry     beta= 0.70
     Davidson diagonalization with overlap
     ethr =  7.53E-09,  avg # of iterations =  1.0

     negative rho (up, down):  2.819E-05 0.000E+00

     total cpu time spent up to now is       34.7 secs

     total energy              =    -571.23395200 Ry
     estimated scf accuracy    <       0.00000015 Ry

     iteration #  5     ecut=    65.00 Ry     beta= 0.70
     Davidson diagonalization with overlap
     ethr =  5.62E-10,  avg # of iterations =  2.0

     negative rho (up, down):  2.819E-05 0.000E+00

     total cpu time spent up to now is       36.1 secs

     total energy              =    -571.23395204 Ry
     estimated scf accuracy    <       0.00000002 Ry

     iteration #  6     ecut=    65.00 Ry     beta= 0.70
     Davidson diagonalization with overlap
     ethr =  9.44E-11,  avg # of iterations =  2.0

     negative rho (up, down):  2.819E-05 0.000E+00

     total cpu time spent up to now is       37.4 secs

     total energy              =    -571.23395204 Ry
     estimated scf accuracy    <          1.9E-09 Ry

     iteration #  7     ecut=    65.00 Ry     beta= 0.70
     Davidson diagonalization with overlap
     ethr =  7.18E-12,  avg # of iterations =  2.0

     negative rho (up, down):  2.819E-05 0.000E+00

     total cpu time spent up to now is       38.8 secs

     End of self-consistent calculation

          k = 0.0000 0.0000 0.0000 (  5617 PWs)   bands (ev):

   -45.2219 -23.7359 -22.9306 -22.9049 -20.5759 -12.9196  -3.0903  -2.4000
    -2.3482  -1.0728   1.5181   1.6482   3.8455   5.8591   6.0589   6.1171
     6.9931   7.0058   8.0713   8.9892  11.2957  14.1681  14.7853  15.0541
    15.4911  17.4256

          k = 0.0000 0.0733 0.0000 (  5647 PWs)   bands (ev):

   -45.2193 -23.7264 -22.9392 -22.9362 -20.5668 -12.8890  -3.0547  -2.4004
    -2.3884  -1.0482   1.4089   1.4735   3.8697   5.9073   5.9900   6.2004
     6.9508   7.0455   8.2098   9.2135  11.4455  14.2392  14.6100  14.9264
    15.3835  17.7051

          k = 0.0000 0.1465 0.0000 (  5692 PWs)   bands (ev):

   -45.2119 -23.6998 -23.0332 -22.9520 -20.5440 -12.8002  -2.9599  -2.4895
    -2.4026  -0.9892   0.8095   1.3510   3.9129   5.8500   6.0613   6.2912
     7.0237   7.1810   8.5739   9.6856  11.8731  13.8654  14.2880  15.2215
    15.3456  17.7978

          k = 0.0000 0.2198 0.0000 (  5710 PWs)   bands (ev):

   -45.2007 -23.6618 -23.1641 -22.9755 -20.5177 -12.6615  -2.8482  -2.6026
    -2.4093  -0.9287   0.0627   1.1791   3.9074   5.7780   6.3333   6.3353
     7.3391   7.3557   9.0642  10.1587  12.2467  13.5097  13.9386  15.6098
    16.0264  17.4843

          k = 0.0000 0.2931 0.0000 (  5708 PWs)   bands (ev):

   -45.1875 -23.6256 -23.2992 -23.0031 -20.4969 -12.4882  -2.8415  -2.6148
    -2.4220  -1.0014  -0.5594   0.9916   3.8212   5.8477   6.4844   6.7134
     7.5361   7.7643   9.5580  10.5456  12.0705  13.1594  14.5008  16.1839
    16.8071  16.8399

          k = 0.0000 0.3663 0.0000 (  5708 PWs)   bands (ev):

   -45.1742 -23.6224 -23.3916 -23.0305 -20.4854 -12.3026  -2.9385  -2.5449
    -2.4397  -1.5333  -0.6360   0.8184   3.7046   6.0153   6.7469   7.1418
     7.7282   8.2650   9.9076  10.8135  11.9568  12.8428  15.1653  15.6079
    16.5530  16.7864

          k = 0.0000 0.4396 0.0000 (  5704 PWs)   bands (ev):

   -45.1629 -23.6750 -23.4079 -23.0536 -20.4821 -12.1340  -3.0345  -2.5120
    -2.4582  -2.0400  -0.5794   0.6813   3.6169   6.2254   6.9802   7.4643
     8.0081   8.8559  10.0541  11.0205  12.0929  12.7936  14.1193  15.4703
    16.0313  16.0463

          k = 0.0000 0.5129 0.0000 (  5718 PWs)   bands (ev):

   -45.1554 -23.7318 -23.3941 -23.0690 -20.4829 -12.0147  -3.1100  -2.5546
    -2.4723  -2.3083  -0.5309   0.5942   3.5737   6.4364   7.0413   7.5999
     8.3372   9.4975  10.1622  11.1883  12.1817  12.7753  13.4172  14.8883
    15.2936  15.5804

          k = 0.0000-0.5861 0.0000 (  5730 PWs)   bands (ev):

   -45.1527 -23.7536 -23.3867 -23.0744 -20.4838 -11.9714  -3.1421  -2.6070
    -2.4775  -2.3603  -0.5130   0.5644   3.5624   6.5484   7.0085   7.6343
     8.4829   9.8542  10.2194  11.3480  11.9116  12.6489  13.5701  14.3982
    15.0968  15.3964

          k = 0.0625 0.0366 0.0000 (  5641 PWs)   bands (ev):

   -45.2194 -23.7267 -22.9604 -22.9139 -20.5666 -12.8904  -3.0550  -2.4316
    -2.3546  -1.0496   1.3085   1.5833   3.8629   5.8168   6.0919   6.2007
     6.9431   7.0575   8.2040   9.2083  11.4404  14.2390  14.4644  15.1298
    15.3532  17.6452

          k = 0.0625 0.1099 0.0000 (  5653 PWs)   bands (ev):

   -45.2144 -23.7086 -23.0111 -22.9380 -20.5507 -12.8306  -2.9892  -2.4757
    -2.3827  -1.0080   0.9610   1.4299   3.8964   5.8155   6.0863   6.2959
     6.9378   7.1651   8.4558   9.5507  11.7383  14.0148  14.3031  15.0999
    15.3878  17.7749

          k = 0.0625 0.1832 0.0000 (  5690 PWs)   bands (ev):

   -45.2051 -23.6761 -23.1162 -22.9649 -20.5264 -12.7168  -2.8806  -2.5728
    -2.4016  -0.9474   0.3390   1.2320   3.9204   5.7371   6.2735   6.3572
     7.1166   7.3488   8.8842  10.0096  12.2504  13.4798  14.0074  15.2798
    15.9499  17.3977

          k = 0.0625 0.2564 0.0000 (  5702 PWs)   bands (ev):

   -45.1929 -23.6379 -23.2450 -22.9955 -20.5032 -12.5604  -2.8043  -2.6432
    -2.4197  -0.9197  -0.3428   1.0122   3.8851   5.7458   6.3950   6.6577
     7.3793   7.6342   9.3802  10.4431  12.3477  13.3239  13.8871  15.7941
    16.6701  17.0000

          k = 0.0625 0.3297 0.0000 (  5699 PWs)   bands (ev):

   -45.1797 -23.6144 -23.3579 -23.0273 -20.4875 -12.3801  -2.8754  -2.5804
    -2.4427  -1.2426  -0.6460   0.7987   3.7977   5.9002   6.5465   7.0754
     7.6035   8.0760   9.8168  10.7990  12.0907  12.9651  14.7642  15.8374
    16.3969  16.7622

          k = 0.0625 0.4030 0.0000 (  5708 PWs)   bands (ev):

   -45.1674 -23.6414 -23.4059 -23.0564 -20.4805 -12.2017  -2.9737  -2.5212
    -2.4691  -1.7883  -0.6108   0.6171   3.7133   6.1356   6.7678   7.3875
     7.8522   8.6685  10.0767  11.0530  12.0784  12.7918  14.6939  15.3195
    15.9810  16.7762

          k = 0.0625 0.4762 0.0000 (  5709 PWs)   bands (ev):

   -45.1580 -23.7009 -23.3993 -23.0784 -20.4795 -12.0561  -3.0553  -2.5537
    -2.4711  -2.1608  -0.5546   0.4861   3.6651   6.3754   6.9542   7.5286
     8.1115   9.3835  10.2124  11.2256  12.2248  12.8485  13.6424  14.9630
    15.4314  16.0689

          k = 0.0625 0.5495 0.0000 (  5712 PWs)   bands (ev):

   -45.1529 -23.7407 -23.3866 -23.0904 -20.4805 -11.9735  -3.1072  -2.6373
    -2.4692  -2.2948  -0.5208   0.4177   3.6488   6.5508   7.0115   7.5716
     8.2954   9.9858  10.3492  11.3740  12.0736  12.6953  13.4768  14.4695
    15.1081  15.4723

          k = 0.1250 0.0733 0.0000 (  5663 PWs)   bands (ev):

   -45.2124 -23.7008 -23.0509 -22.9301 -20.5432 -12.8053  -2.9603  -2.5235
    -2.3596  -0.9944   0.7315   1.4612   3.8853   5.7351   6.2101   6.3020
     7.0160   7.1938   8.5563   9.6770  11.8552  13.8147  14.2435  15.1711
    15.5321  17.9406

          k = 0.1250 0.1465 0.0000 (  5670 PWs)   bands (ev):

   -45.2055 -23.6769 -23.1248 -22.9532 -20.5258 -12.7206  -2.8806  -2.5878
    -2.3803  -0.9517   0.2996   1.2969   3.8972   5.7117   6.3218   6.3669
     7.1053   7.3611   8.8731  10.0065  12.2410  13.4548  13.9794  15.2659
    16.0217  17.4327

          k = 0.1250 0.2198 0.0000 (  5692 PWs)   bands (ev):

   -45.1952 -23.6436 -23.2268 -22.9885 -20.5050 -12.5888  -2.7848  -2.6639
    -2.4103  -0.9132  -0.2395   1.0214   3.9008   5.6699   6.4309   6.6734
     7.2646   7.6150   9.3104  10.4176  12.8170  13.0399  13.5766  15.5838
    16.6768  16.9714

          k = 0.1250 0.2931 0.0000 (  5690 PWs)   bands (ev):

   -45.1830 -23.6142 -23.3296 -23.0303 -20.4876 -12.4245  -2.8113  -2.6239
    -2.4475  -1.0524  -0.6314   0.7129   3.8845   5.7392   6.5324   7.0533
     7.5027   8.0029   9.7648  10.8430  12.5665  13.0655  13.8476  15.6543
    16.4535  16.9236

          k = 0.1250 0.3663 0.0000 (  5703 PWs)   bands (ev):

   -45.1707 -23.6166 -23.3935 -23.0721 -20.4771 -12.2494  -2.9004  -2.5449
    -2.4883  -1.5229  -0.6427   0.4313   3.8592   5.9599   6.6521   7.2782
     7.8028   8.6021  10.1350  11.2353  12.3365  12.8397  14.6661  15.1085
    15.7473  16.7489

          k = 0.1250 0.4396 0.0000 (  5696 PWs)   bands (ev):

   -45.1603 -23.6613 -23.3999 -23.1076 -20.4730 -12.0911  -2.9768  -2.5750
    -2.4754  -1.9274  -0.5892   0.2101   3.8478   6.2781   6.7639   7.4139
     7.9878   9.3921  10.3755  11.5146  12.3260  12.8324  14.1011  14.6997
    15.5588  16.5970

          k = 0.1250 0.5129 0.0000 (  5713 PWs)   bands (ev):

   -45.1533 -23.7068 -23.3860 -23.1315 -20.4726 -11.9795  -3.0285  -2.6707
    -2.4577  -2.1384  -0.5456   0.0691   3.8530   6.5509   6.8831   7.4896
     8.0377  10.1721  10.5828  11.6317  12.3497  12.8518  13.3908  14.4393
    15.1527  15.8871

          k = 0.1250 0.5861 0.0000 (  5714 PWs)   bands (ev):

   -45.1509 -23.7244 -23.3791 -23.1399 -20.4728 -11.9391  -3.0475  -2.7221
    -2.4544  -2.1920  -0.5293   0.0206   3.8583   6.6327   6.9846   7.4860
     8.0468  10.3945  10.9358  11.7367  12.0032  12.6865  13.5056  14.3045
    15.1206  15.3437

          k = 0.1250 0.0000 0.0000 (  5658 PWs)   bands (ev):

   -45.2149 -23.7094 -23.0239 -22.9222 -20.5501 -12.8344  -2.9897  -2.4999
    -2.3517  -1.0117   0.9112   1.4994   3.8794   5.7214   6.2116   6.2931
     6.9749   7.1375   8.4416   9.5437  11.7265  13.9642  14.2851  15.1148
    15.4914  17.7658

          k = 0.1875 0.1099 0.0000 (  5672 PWs)   bands (ev):

   -45.2019 -23.6641 -23.1789 -22.9519 -20.5160 -12.6727  -2.8482  -2.6287
    -2.3649  -0.9413   0.0050   1.2993   3.8513   5.7260   6.3299   6.4699
     7.3178   7.3794   9.0361  10.1549  12.2351  13.4617  13.8757  15.5544
    16.1903  17.5093

          k = 0.1875 0.1832 0.0000 (  5689 PWs)   bands (ev):

   -45.1940 -23.6402 -23.2558 -22.9767 -20.5017 -12.5704  -2.8073  -2.6563
    -2.3876  -0.9358  -0.3833   1.1155   3.8320   5.7402   6.4190   6.7035
     7.3795   7.6356   9.3583  10.4449  12.3572  13.2711  13.8161  15.7549
    16.7694  17.0277

          k = 0.1875 0.2564 0.0000 (  5701 PWs)   bands (ev):

   -45.1837 -23.6161 -23.3344 -23.0203 -20.4867 -12.4307  -2.8170  -2.6232
    -2.4330  -1.0707  -0.6418   0.7677   3.8537   5.7461   6.5480   7.0622
     7.5112   7.9969   9.7541  10.8476  12.5919  13.0463  13.7730  15.6570
    16.4062  16.8877

          k = 0.1875 0.3297 0.0000 (  5695 PWs)   bands (ev):

   -45.1724 -23.6099 -23.3873 -23.0754 -20.4748 -12.2709  -2.8665  -2.5589
    -2.4899  -1.4087  -0.6636   0.3597   3.9135   5.8369   6.7125   7.1730
     7.8164   8.5793  10.1523  11.3149  12.6956  12.8896  14.0766  14.9433
    16.0276  16.5516

          k = 0.1875 0.4030 0.0000 (  5700 PWs)   bands (ev):

   -45.1620 -23.6343 -23.3977 -23.1311 -20.4676 -12.1143  -2.9207  -2.5858
    -2.4791  -1.7313  -0.6296  -0.0088   3.9913   6.0563   6.8257   7.2298
     8.0033   9.3914  10.4928  11.7712  12.6011  12.8784  14.2073  14.8087
    15.1244  16.1292

          k = 0.1875 0.4762 0.0000 (  5711 PWs)   bands (ev):

   -45.1540 -23.6688 -23.3850 -23.1762 -20.4644 -11.9878  -2.9657  -2.6688
    -2.4465  -1.9452  -0.6020  -0.2725   4.0658   6.3763   6.8185   7.3856
     7.9791  10.2555  10.7484  12.0571  12.5252  13.0217  13.6877  14.3214
    15.2223  15.9170

          k = 0.1875 0.5495 0.0000 (  5709 PWs)   bands (ev):

   -45.1497 -23.6904 -23.3734 -23.2016 -20.4634 -11.9166  -2.9922  -2.7314
    -2.4345  -2.0382  -0.5997  -0.3968   4.1130   6.6252   6.8387   7.5059
     7.8396  10.5988  11.3589  12.1124  12.3694  12.7841  13.5286  14.3916
    14.9786  15.6040

          k = 0.1875-0.0366 0.0000 (  5677 PWs)   bands (ev):

   -45.2062 -23.6780 -23.1292 -22.9447 -20.5247 -12.7265  -2.8809  -2.5977
    -2.3606  -0.9569   0.2977   1.3166   3.8803   5.6607   6.3496   6.4274
     7.1564   7.3121   8.8577  10.0043  12.2331  13.4668  13.9667  15.2727
    16.0556  17.4010

          k = 0.2500 0.1465 0.0000 (  5688 PWs)   bands (ev):

   -45.1895 -23.6299 -23.3109 -22.9771 -20.4938 -12.5071  -2.8487  -2.6249
    -2.3744  -1.0333  -0.5880   1.1239   3.7452   5.8419   6.4847   6.8110
     7.5495   7.7506   9.5236  10.5542  12.0745  13.0938  14.4100  16.0973
    16.6789  16.9921

          k = 0.2500 0.2198 0.0000 (  5700 PWs)   bands (ev):

   -45.1816 -23.6196 -23.3673 -23.0034 -20.4848 -12.3980  -2.8852  -2.5817
    -2.4038  -1.2796  -0.6660   0.9262   3.7250   5.9094   6.5723   7.1177
     7.6205   8.0578   9.7894  10.8156  12.0962  12.9031  14.6441  15.7373
    16.3510  16.7903

          k = 0.2500 0.2931 0.0000 (  5710 PWs)   bands (ev):

   -45.1722 -23.6219 -23.3990 -23.0544 -20.4750 -12.2636  -2.9092  -2.5334
    -2.4708  -1.5488  -0.6567   0.5219   3.8063   5.9712   6.6787   7.2860
     7.8202   8.5870  10.1202  11.2556  12.3527  12.8057  14.5708  15.0263
    15.6755  16.7449

          k = 0.2500 0.3663 0.0000 (  5716 PWs)   bands (ev):

   -45.1628 -23.6376 -23.3999 -23.1220 -20.4664 -12.1223  -2.9251  -2.5714
    -2.4795  -1.7418  -0.6354   0.0331   3.9661   6.0597   6.8480   7.2222
     8.0110   9.3834  10.4877  11.7846  12.5995  12.9024  14.1918  14.6958
    15.0631  16.1996

          k = 0.2500 0.4396 0.0000 (  5707 PWs)   bands (ev):

   -45.1548 -23.6532 -23.3853 -23.1916 -20.4601 -11.9966  -2.9475  -2.6536
    -2.4404  -1.8418  -0.6638  -0.3813   4.1518   6.2273   6.8811   7.2949
     8.0026  10.2638  10.8153  12.1338  12.6669  13.2569  13.9314  14.4133
    14.9087  15.4722

          k = 0.2500 0.5129 0.0000 (  5710 PWs)   bands (ev):

   -45.1495 -23.6605 -23.3709 -23.2454 -20.4566 -11.9093  -2.9840  -2.6856
    -2.4156  -1.8719  -0.8693  -0.5033   4.2999   6.4727   6.7884   7.4771
     7.8338  10.6889  11.3895  12.0926  12.9977  13.4273  13.6227  14.1829
    14.8953  15.4570

          k = 0.2500 0.5861 0.0000 (  5698 PWs)   bands (ev):

   -45.1476 -23.6620 -23.3652 -23.2660 -20.4554 -11.8780  -3.0036  -2.6879
    -2.4076  -1.8727  -0.9866  -0.5113   4.3564   6.6253   6.7463   7.5230
     7.7368  10.6728  12.0430  12.3014  12.3865  13.3421  13.8076  14.2792
    14.8996  15.5582

          k = 0.2500-0.0733 0.0000 (  5684 PWs)   bands (ev):

   -45.1948 -23.6413 -23.2551 -22.9730 -20.5002 -12.5777  -2.8070  -2.6575
    -2.3747  -0.9392  -0.3655   1.1057   3.8255   5.7179   6.4196   6.7517
     7.3952   7.6144   9.3469  10.4456  12.3640  13.2816  13.8527  15.7647
    16.7126  16.9792

          k = 0.2500 0.0000 0.0000 (  5696 PWs)   bands (ev):

   -45.1967 -23.6459 -23.2307 -22.9758 -20.5025 -12.6021  -2.7851  -2.6723
    -2.3801  -0.9246  -0.2302   1.0472   3.8705   5.6328   6.4633   6.7425
     7.2839   7.5887   9.2858  10.4178  12.8140  13.0829  13.5669  15.5657
    16.6532  16.9439

          k = 0.3125 0.1832 0.0000 (  5705 PWs)   bands (ev):

   -45.1770 -23.6297 -23.3995 -23.0020 -20.4810 -12.3302  -2.9473  -2.5446
    -2.3880  -1.5598  -0.6619   0.9620   3.6219   6.0340   6.7523   7.2005
     7.7476   8.2399   9.8736  10.8416  11.9416  12.7681  15.0288  15.4802
    16.6516  16.7206

          k = 0.3125 0.2564 0.0000 (  5710 PWs)   bands (ev):

   -45.1701 -23.6499 -23.4123 -23.0287 -20.4765 -12.2283  -2.9843  -2.5135
    -2.4276  -1.8116  -0.6375   0.7586   3.6333   6.1561   6.7834   7.4248
     7.8709   8.6399  10.0541  11.0882  12.0566  12.7177  14.5524  15.2368
    15.9711  16.7116

          k = 0.3125 0.3297 0.0000 (  5712 PWs)   bands (ev):

   -45.1626 -23.6692 -23.4047 -23.0846 -20.4695 -12.1140  -2.9869  -2.5436
    -2.4700  -1.9395  -0.6115   0.3190   3.7852   6.2913   6.7878   7.4236
     8.0027   9.3689  10.3639  11.5642  12.3126  12.7802  13.9851  14.6808
    15.4531  16.5340

          k = 0.3125 0.4030 0.0000 (  5714 PWs)   bands (ev):

   -45.1556 -23.6743 -23.3883 -23.1604 -20.4618 -12.0045  -2.9705  -2.6518
    -2.4421  -1.9493  -0.6085  -0.2137   4.0277   6.3735   6.8441   7.3839
     7.9905  10.2297  10.7420  12.0961  12.5454  13.0149  13.5746  14.3413
    15.1149  15.9834

          k = 0.3125 0.4762 0.0000 (  5702 PWs)   bands (ev):

   -45.1502 -23.6630 -23.3727 -23.2379 -20.4552 -11.9180  -2.9824  -2.6806
    -2.4129  -1.8734  -0.8424  -0.5087   4.2860   6.4649   6.7951   7.4794
     7.8429  10.6662  11.3851  12.1042  12.9624  13.4581  13.6001  14.2626
    14.8518  15.4295

          k = 0.3125 0.5495 0.0000 (  5687 PWs)   bands (ev):

   -45.1473 -23.6470 -23.3638 -23.2903 -20.4514 -11.8701  -3.0142  -2.6506
    -2.3913  -1.7232  -1.2435  -0.5270   4.4603   6.5933   6.7099   7.4418
     7.8058  10.6435  12.0341  12.2812  13.0296  13.2852  14.0140  14.2710
    15.0014  15.6068

          k = 0.3125-0.1099 0.0000 (  5705 PWs)   bands (ev):

   -45.1823 -23.6196 -23.3651 -23.0027 -20.4831 -12.4058  -2.8816  -2.5821
    -2.3936  -1.2607  -0.6645   0.9035   3.7302   5.9086   6.5693   7.1226
     7.6142   8.0604   9.7806  10.8184  12.1060  12.9105  14.7162  15.7396
    16.3542  16.7424

          k = 0.3125-0.0366 0.0000 (  5695 PWs)   bands (ev):

   -45.1852 -23.6175 -23.3324 -23.0146 -20.4836 -12.4460  -2.8143  -2.6233
    -2.4103  -1.0538  -0.6308   0.7497   3.8461   5.7288   6.5769   7.0740
     7.5069   7.9931   9.7354  10.8491  12.6187  13.0586  13.8497  15.6185
    16.3696  16.8618

          k = 0.3750 0.2198 0.0000 (  5699 PWs)   bands (ev):

   -45.1664 -23.6836 -23.4139 -23.0229 -20.4765 -12.1697  -3.0445  -2.5040
    -2.4025  -2.0499  -0.6141   0.8337   3.5331   6.2576   6.9918   7.5008
     8.0133   8.8223  10.0244  11.0533  12.0462  12.7027  13.9960  15.3686
    15.8912  16.1981

          k = 0.3750 0.2931 0.0000 (  5704 PWs)   bands (ev):

   -45.1613 -23.7098 -23.4049 -23.0484 -20.4742 -12.0908  -3.0680  -2.5284
    -2.4416  -2.1610  -0.5895   0.6335   3.5845   6.4134   6.9515   7.5678
     8.1094   9.3526  10.1950  11.2620  12.1644  12.7509  13.5429  14.9150
    15.3595  16.0874

          k = 0.3750 0.3663 0.0000 (  5697 PWs)   bands (ev):

   -45.1562 -23.7146 -23.3910 -23.1057 -20.4678 -12.0104  -3.0397  -2.6421
    -2.4454  -2.1285  -0.5746   0.1821   3.7896   6.5877   6.8739   7.5141
     8.0357  10.1336  10.5754  11.7022  12.2760  12.7575  13.3461  14.4154
    15.0719  15.8458

          k = 0.3750 0.4396 0.0000 (  5694 PWs)   bands (ev):

   -45.1519 -23.6958 -23.3775 -23.1825 -20.4595 -11.9411  -2.9942  -2.7118
    -2.4265  -2.0282  -0.5953  -0.3511   4.0736   6.6393   6.8288   7.5279
     7.8411  10.5468  11.3457  12.1335  12.3402  12.7925  13.4971  14.3660
    14.9463  15.5301

          k = 0.3750 0.5129 0.0000 (  5693 PWs)   bands (ev):

   -45.1490 -23.6640 -23.3681 -23.2553 -20.4527 -11.8943  -2.9976  -2.6766
    -2.4026  -1.8618  -0.9536  -0.5276   4.3425   6.6315   6.7262   7.5210
     7.7590  10.6225  12.0526  12.2380  12.3252  13.4788  13.8523  14.2929
    14.8529  15.5055

          k = 0.3750 0.5861 0.0000 (  5692 PWs)   bands (ev):

   -45.1480 -23.6464 -23.3648 -23.2875 -20.4500 -11.8778  -3.0102  -2.6433
    -2.3893  -1.7011  -1.2506  -0.5352   4.4615   6.5968   6.6983   7.4304
     7.8202  10.6152  12.0557  12.1595  13.1155  13.2712  14.1393  14.2403
    14.9587  15.5863

          k = 0.3750-0.1465 0.0000 (  5717 PWs)   bands (ev):

   -45.1708 -23.6479 -23.4115 -23.0293 -20.4749 -12.2353  -2.9794  -2.5139
    -2.4184  -1.7920  -0.6399   0.7346   3.6442   6.1636   6.7924   7.4055
     7.8529   8.6432  10.0382  11.0949  12.0604  12.7203  14.5750  15.2815
    15.9197  16.7489

          k = 0.3750-0.0733 0.0000 (  5710 PWs)   bands (ev):

   -45.1736 -23.6200 -23.3967 -23.0533 -20.4718 -12.2786  -2.9016  -2.5360
    -2.4490  -1.5084  -0.6613   0.4851   3.8170   5.9698   6.6904   7.2845
     7.7878   8.5851  10.0982  11.2580  12.3712  12.8208  14.6559  15.0432
    15.6913  16.6991

          k = 0.3750 0.0000 0.0000 (  5700 PWs)   bands (ev):

   -45.1746 -23.6103 -23.3864 -23.0673 -20.4703 -12.2936  -2.8618  -2.5547
    -2.4606  -1.3687  -0.6721   0.3469   3.9043   5.8295   6.7556   7.1630
     7.7904   8.5697  10.1236  11.3169  12.6940  12.9728  14.1221  14.9098
    16.0176  16.4742

          k = 0.4375 0.2564 0.0000 (  5681 PWs)   bands (ev):

   -45.1593 -23.7399 -23.4001 -23.0369 -20.4765 -12.0562  -3.1235  -2.5382
    -2.4146  -2.3057  -0.5718   0.7521   3.4898   6.4785   7.0579   7.6372
     8.3078   9.4651  10.1318  11.1993  12.0905  12.6609  13.3590  14.7863
    15.1687  15.7650

          k = 0.4375 0.3297 0.0000 (  5704 PWs)   bands (ev):

   -45.1567 -23.7487 -23.3925 -23.0594 -20.4743 -12.0139  -3.1220  -2.6089
    -2.4394  -2.2764  -0.5606   0.5641   3.5706   6.6015   7.0108   7.6095
     8.2631   9.9551  10.3368  11.3792  11.9569  12.6061  13.4402  14.3853
    15.0107  15.5792

          k = 0.4375 0.4030 0.0000 (  5693 PWs)   bands (ev):

   -45.1542 -23.7307 -23.3844 -23.1137 -20.4671 -11.9754  -3.0576  -2.6885
    -2.4397  -2.1698  -0.5614   0.1267   3.7993   6.6726   6.9837   7.5153
     8.0197  10.3380  10.9204  11.7863  11.9024  12.6351  13.4825  14.2351
    15.0627  15.3411

          k = 0.4375 0.4762 0.0000 (  5702 PWs)   bands (ev):

   -45.1524 -23.6937 -23.3778 -23.1830 -20.4584 -11.9463  -2.9914  -2.7019
    -2.4259  -2.0161  -0.5955  -0.3669   4.0804   6.6431   6.8298   7.5455
     7.8096  10.5281  11.2547  12.1688  12.3857  12.8089  13.4931  14.3596
    14.9526  15.5702

          k = 0.4375 0.5495 0.0000 (  5701 PWs)   bands (ev):

   -45.1514 -23.6596 -23.3736 -23.2364 -20.4527 -11.9307  -2.9766  -2.6622
    -2.4105  -1.8380  -0.8571  -0.5267   4.2954   6.4692   6.7813   7.4975
     7.8170  10.6256  11.2651  12.1489  12.9508  13.4968  13.7197  14.2092
    14.8561  15.4615

          k = 0.4375-0.1832 0.0000 (  5711 PWs)   bands (ev):

   -45.1618 -23.7076 -23.4050 -23.0493 -20.4731 -12.0957  -3.0635  -2.5219
    -2.4396  -2.1507  -0.5913   0.6158   3.5943   6.4100   6.9885   7.5458
     8.0872   9.3418  10.1669  11.2716  12.1701  12.7472  13.5618  14.9401
    15.3479  16.0887

          k = 0.4375-0.1099 0.0000 (  5707 PWs)   bands (ev):

   -45.1637 -23.6648 -23.4045 -23.0856 -20.4669 -12.1262  -2.9787  -2.5309
    -2.4645  -1.9082  -0.6161   0.2832   3.8017   6.2999   6.7927   7.4360
     7.9514   9.3496  10.3190  11.5744  12.3250  12.7827  14.0280  14.6876
    15.4908  16.5668

          k = 0.4375-0.0366 0.0000 (  5722 PWs)   bands (ev):

   -45.1647 -23.6335 -23.3996 -23.1195 -20.4622 -12.1427  -2.9164  -2.5501
    -2.4714  -1.6907  -0.6443  -0.0049   3.9774   6.0568   6.8513   7.2473
     7.9593   9.3530  10.4388  11.7838  12.5877  12.9760  14.1939  14.7878
    15.1034  16.1491

          k =-0.5000-0.2931 0.0000 (  5692 PWs)   bands (ev):

   -45.1568 -23.7615 -23.3929 -23.0418 -20.4770 -12.0151  -3.1576  -2.5864
    -2.4200  -2.3529  -0.5560   0.7242   3.4784   6.5963   7.0253   7.6736
     8.4361   9.8246  10.2040  11.3144  11.8036  12.5604  13.5215  14.2997
    14.9723  15.5919

          k =-0.5000-0.2198 0.0000 (  5697 PWs)   bands (ev):

   -45.1568 -23.7477 -23.3925 -23.0598 -20.4739 -12.0157  -3.1200  -2.6050
    -2.4395  -2.2739  -0.5612   0.5577   3.5744   6.5913   7.0411   7.5964
     8.2556   9.9397  10.3225  11.3785  11.9770  12.6060  13.4327  14.3997
    15.0282  15.5626

          k =-0.5000-0.1465 0.0000 (  5713 PWs)   bands (ev):

   -45.1568 -23.7114 -23.3913 -23.1067 -20.4663 -12.0172  -3.0342  -2.6293
    -2.4449  -2.1149  -0.5767   0.1606   3.8008   6.5771   6.9110   7.5159
     7.9960  10.1118  10.5093  11.7120  12.3169  12.7594  13.3566  14.4238
    15.0960  15.8541

          k =-0.5000-0.0733 0.0000 (  5710 PWs)   bands (ev):

   -45.1569 -23.6693 -23.3888 -23.1607 -20.4589 -12.0188  -2.9631  -2.6296
    -2.4395  -1.9131  -0.6125  -0.2510   4.0432   6.3814   6.8294   7.4255
     7.9315  10.1963  10.6488  12.1120  12.5454  13.0609  13.6297  14.3243
    15.1720  16.0036

          k =-0.5000-0.0000 0.0000 (  5716 PWs)   bands (ev):

   -45.1569 -23.6493 -23.3869 -23.1863 -20.4558 -12.0194  -2.9403  -2.6232
    -2.4355  -1.7927  -0.6688  -0.4126   4.1576   6.2234   6.8700   7.3405
     7.9517  10.2144  10.7145  12.1703  12.6206  13.3846  13.9536  14.4352
    14.9181  15.4835

     highest occupied, lowest unoccupied level (ev):     4.4615    5.6328

!    total energy              =    -571.23395204 Ry
     total all-electron energy =    -12610.611363 Ry
     estimated scf accuracy    <          2.6E-11 Ry

     The total energy is the sum of the following terms:
     one-electron contribution =    -280.79328281 Ry
     hartree contribution      =     149.04555033 Ry
     xc contribution           =     -36.37690800 Ry
     ewald contribution        =      -6.25235933 Ry
     one-center paw contrib.   =    -396.85695224 Ry

     convergence has been achieved in   7 iterations

     negative rho (up, down):  2.819E-05 0.000E+00

     Forces acting on atoms (cartesian axes, Ry/au):

     atom    1 type  1   force =     0.00000000    0.00376513   -0.00011663
     atom    2 type  2   force =     0.00000000   -0.00187140    0.00257326
     atom    3 type  3   force =     0.00000000   -0.00189373   -0.00245663
     The non-local contrib.  to forces
     atom    1 type  1   force =     0.00000000   -0.00004444   -0.02413208
     atom    2 type  2   force =     0.00000000   -0.01335245   -1.01305694
     atom    3 type  3   force =     0.00000000   -0.00207862    0.21020835
     The ionic contribution  to forces
     atom    1 type  1   force =    -0.00000001   -0.08075841   -0.63461812
     atom    2 type  2   force =     0.00000001    0.05474611   25.07180839
     atom    3 type  3   force =     0.00000000    0.02601230  -24.43719027
     The local contribution  to forces
     atom    1 type  1   force =    -0.00000000    0.08445840    0.65457249
     atom    2 type  2   force =     0.00000027   -0.04331755  -24.05944951
     atom    3 type  3   force =    -0.00000000   -0.02584272   24.22681345
     The core correction contribution to forces
     atom    1 type  1   force =     0.00000000    0.00011134    0.00406247
     atom    2 type  2   force =     0.00000000    0.00005110    0.00326977
     atom    3 type  3   force =    -0.00000000    0.00001495   -0.00228982
     The Hubbard contrib.    to forces
     atom    1 type  1   force =     0.00000000    0.00000000    0.00000000
     atom    2 type  2   force =     0.00000000    0.00000000    0.00000000
     atom    3 type  3   force =     0.00000000    0.00000000    0.00000000
     The SCF correction term to forces
     atom    1 type  1   force =    -0.00000000   -0.00000271   -0.00000227
     atom    2 type  2   force =    -0.00000000    0.00000043    0.00000067
     atom    3 type  3   force =     0.00000000   -0.00000060    0.00000079

     Total force =     0.005825     Total SCF correction =     0.000004
     Energy error            =      9.0E-05 Ry
     Gradient error          =      3.8E-03 Ry/Bohr

     number of scf cycles    =   3
     number of bfgs steps    =   2

     energy             old  =    -571.2338620853 Ry
     energy             new  =    -571.2339520427 Ry

     CASE: energy            _new < energy            _old

     new trust radius        =       0.0125726768 bohr
     new conv_thr            =       0.0000000009 Ry


ATOMIC_POSITIONS (angstrom)
Zr            0.0000000000        0.0150426729       10.1023628209
F            -0.0000000020        1.9239265115       11.4163606802
Br           -0.0000000020        1.9228385787        8.1994552119



     Writing config-only to output data dir ./tmp/ZrFBr.save/
     NEW-OLD atomic charge density approx. for the potential

     Check: negative core charge=   -0.000002

     negative rho (up, down):  2.822E-05 0.000E+00

     total cpu time spent up to now is       39.2 secs

     Self-consistent Calculation

     iteration #  1     ecut=    65.00 Ry     beta= 0.70
     Davidson diagonalization with overlap
     ethr =  1.00E-06,  avg # of iterations =  4.1

     Threshold (ethr) on eigenvalues was too large:
     Diagonalizing with lowered threshold

     Davidson diagonalization with overlap
     ethr =  6.90E-08,  avg # of iterations =  1.2

     negative rho (up, down):  2.779E-05 0.000E+00

     total cpu time spent up to now is       42.7 secs

     total energy              =    -571.23401747 Ry
     estimated scf accuracy    <       0.00001786 Ry

     iteration #  2     ecut=    65.00 Ry     beta= 0.70
     Davidson diagonalization with overlap
     ethr =  6.87E-08,  avg # of iterations =  2.0

     negative rho (up, down):  2.811E-05 0.000E+00

     total cpu time spent up to now is       44.1 secs

     total energy              =    -571.23401598 Ry
     estimated scf accuracy    <       0.00003112 Ry

     iteration #  3     ecut=    65.00 Ry     beta= 0.70
     Davidson diagonalization with overlap
     ethr =  6.87E-08,  avg # of iterations =  2.0

     negative rho (up, down):  2.820E-05 0.000E+00

     total cpu time spent up to now is       45.4 secs

     total energy              =    -571.23402331 Ry
     estimated scf accuracy    <       0.00000400 Ry

     iteration #  4     ecut=    65.00 Ry     beta= 0.70
     Davidson diagonalization with overlap
     ethr =  1.54E-08,  avg # of iterations =  1.2

     negative rho (up, down):  2.821E-05 0.000E+00

     total cpu time spent up to now is       46.6 secs

     total energy              =    -571.23402399 Ry
     estimated scf accuracy    <       0.00000040 Ry

     iteration #  5     ecut=    65.00 Ry     beta= 0.70
     Davidson diagonalization with overlap
     ethr =  1.54E-09,  avg # of iterations =  2.0

     negative rho (up, down):  2.821E-05 0.000E+00

     total cpu time spent up to now is       48.0 secs

     total energy              =    -571.23402410 Ry
     estimated scf accuracy    <       0.00000005 Ry

     iteration #  6     ecut=    65.00 Ry     beta= 0.70
     Davidson diagonalization with overlap
     ethr =  2.06E-10,  avg # of iterations =  2.0

     negative rho (up, down):  2.822E-05 0.000E+00

     total cpu time spent up to now is       49.3 secs

     total energy              =    -571.23402411 Ry
     estimated scf accuracy    <          3.8E-09 Ry

     iteration #  7     ecut=    65.00 Ry     beta= 0.70
     Davidson diagonalization with overlap
     ethr =  1.48E-11,  avg # of iterations =  2.0

     negative rho (up, down):  2.822E-05 0.000E+00

     total cpu time spent up to now is       50.7 secs

     End of self-consistent calculation

          k = 0.0000 0.0000 0.0000 (  5617 PWs)   bands (ev):

   -45.2367 -23.7442 -22.9432 -22.9195 -20.5677 -12.9218  -3.0798  -2.3754
    -2.3374  -1.0784   1.5307   1.6448   3.8223   5.8508   6.0449   6.0997
     6.9587   7.0180   8.0731   8.9909  11.2952  14.1794  14.7730  15.0492
    15.4601  17.4085

          k = 0.0000 0.0733 0.0000 (  5647 PWs)   bands (ev):

   -45.2341 -23.7347 -22.9537 -22.9488 -20.5586 -12.8912  -3.0438  -2.3777
    -2.3758  -1.0539   1.4058   1.4858   3.8457   5.8988   5.9663   6.1956
     6.9591   7.0113   8.2114   9.2171  11.4446  14.2486  14.6057  14.9145
    15.3508  17.6927

          k = 0.0000 0.1465 0.0000 (  5692 PWs)   bands (ev):

   -45.2267 -23.7079 -23.0475 -22.9646 -20.5361 -12.8023  -2.9477  -2.4794
    -2.3780  -0.9951   0.8068   1.3624   3.8871   5.8253   6.0522   6.2946
     7.0248   7.1475   8.5744   9.6918  11.8711  13.8588  14.2864  15.1998
    15.3350  17.7875

          k = 0.0000 0.2198 0.0000 (  5710 PWs)   bands (ev):

   -45.2155 -23.6698 -23.1782 -22.9881 -20.5101 -12.6635  -2.8338  -2.5934
    -2.3846  -0.9352   0.0605   1.1893   3.8796   5.7562   6.3235   6.3390
     7.3227   7.3383   9.0628  10.1662  12.2431  13.4971  13.9289  15.6029
    16.0182  17.4693

          k = 0.0000 0.2931 0.0000 (  5708 PWs)   bands (ev):

   -45.2023 -23.6333 -23.3134 -23.0156 -20.4895 -12.4900  -2.8272  -2.6043
    -2.3973  -1.0064  -0.5637   1.0007   3.7916   5.8320   6.4840   6.7031
     7.5035   7.7631   9.5530  10.5542  12.0669  13.1351  14.5023  16.1784
    16.8067  16.8369

          k = 0.0000 0.3663 0.0000 (  5708 PWs)   bands (ev):

   -45.1891 -23.6302 -23.4054 -23.0430 -20.4781 -12.3042  -2.9258  -2.5323
    -2.4150  -1.5344  -0.6447   0.8266   3.6741   6.0065   6.7427   7.1298
     7.6969   8.2614   9.8974  10.8244  11.9534  12.8194  15.1795  15.5957
    16.5368  16.7781

          k = 0.0000 0.4396 0.0000 (  5704 PWs)   bands (ev):

   -45.1778 -23.6842 -23.4203 -23.0661 -20.4749 -12.1354  -3.0232  -2.4998
    -2.4336  -2.0382  -0.5897   0.6889   3.5860   6.2216   6.9747   7.4464
     7.9825   8.8474  10.0439  11.0292  12.0856  12.7766  14.1265  15.4678
    16.0133  16.0310

          k = 0.0000 0.5129 0.0000 (  5718 PWs)   bands (ev):

   -45.1703 -23.7417 -23.4057 -23.0814 -20.4757 -12.0159  -3.1006  -2.5468
    -2.4477  -2.2999  -0.5420   0.6014   3.5426   6.4367   7.0338   7.5772
     8.3159   9.4864  10.1549  11.1868  12.1739  12.7687  13.4234  14.8789
    15.2866  15.5621

          k = 0.0000-0.5861 0.0000 (  5730 PWs)   bands (ev):

   -45.1676 -23.7637 -23.3981 -23.0868 -20.4765 -11.9725  -3.1338  -2.6011
    -2.4530  -2.3487  -0.5243   0.5714   3.5313   6.5516   6.9983   7.6105
     8.4626   9.8477  10.2087  11.3299  11.9235  12.6409  13.5768  14.3826
    15.0938  15.3782

          k = 0.0625 0.0366 0.0000 (  5641 PWs)   bands (ev):

   -45.2343 -23.7350 -22.9727 -22.9283 -20.5587 -12.8925  -3.0444  -2.4084
    -2.3430  -1.0552   1.3184   1.5820   3.8412   5.8066   6.0681   6.1937
     6.9210   7.0594   8.2046   9.2093  11.4393  14.2486  14.4515  15.1243
    15.3286  17.6308

          k = 0.0625 0.1099 0.0000 (  5653 PWs)   bands (ev):

   -45.2292 -23.7169 -23.0244 -22.9513 -20.5429 -12.8327  -2.9779  -2.4594
    -2.3645  -1.0136   0.9626   1.4367   3.8734   5.7967   6.0721   6.2919
     6.9331   7.1441   8.4562   9.5546  11.7363  14.0062  14.3064  15.0854
    15.3715  17.7616

          k = 0.0625 0.1832 0.0000 (  5690 PWs)   bands (ev):

   -45.2200 -23.6843 -23.1299 -22.9777 -20.5189 -12.7188  -2.8678  -2.5609
    -2.3796  -0.9534   0.3377   1.2411   3.8955   5.7150   6.2632   6.3580
     7.1049   7.3295   8.8833  10.0157  12.2474  13.4719  13.9949  15.2738
    15.9398  17.3850

          k = 0.0625 0.2564 0.0000 (  5702 PWs)   bands (ev):

   -45.2078 -23.6458 -23.2589 -23.0079 -20.4959 -12.5622  -2.7895  -2.6329
    -2.3965  -0.9259  -0.3451   1.0209   3.8582   5.7263   6.3949   6.6482
     7.3528   7.6283   9.3768  10.4504  12.3439  13.3026  13.8835  15.7919
    16.6683  16.9823

          k = 0.0625 0.3297 0.0000 (  5699 PWs)   bands (ev):

   -45.1946 -23.6221 -23.3719 -23.0397 -20.4804 -12.3817  -2.8623  -2.5678
    -2.4192  -1.2448  -0.6532   0.8065   3.7692   5.8859   6.5447   7.0637
     7.5730   8.0739   9.8091  10.8080  12.0879  12.9413  14.7652  15.8335
    16.3871  16.7597

          k = 0.0625 0.4030 0.0000 (  5708 PWs)   bands (ev):

   -45.1823 -23.6499 -23.4190 -23.0686 -20.4735 -12.2031  -2.9618  -2.5073
    -2.4462  -1.7883  -0.6200   0.6241   3.6838   6.1276   6.7634   7.3707
     7.8265   8.6634  10.0654  11.0629  12.0738  12.7719  14.7003  15.3105
    15.9729  16.7569

          k = 0.0625 0.4762 0.0000 (  5709 PWs)   bands (ev):

   -45.1729 -23.7105 -23.4113 -23.0906 -20.4725 -12.0573  -3.0449  -2.5382
    -2.4526  -2.1559  -0.5648   0.4925   3.6351   6.3728   6.9477   7.5078
     8.0888   9.3749  10.2024  11.2301  12.2154  12.8362  13.6499  14.9492
    15.4326  16.0479

          k = 0.0625 0.5495 0.0000 (  5712 PWs)   bands (ev):

   -45.1678 -23.7507 -23.3982 -23.1026 -20.4734 -11.9746  -3.0985  -2.6258
    -2.4509  -2.2839  -0.5315   0.4238   3.6186   6.5522   7.0030   7.5491
     8.2733   9.9808  10.3361  11.3656  12.0752  12.6874  13.4818  14.4581
    15.1054  15.4540

          k = 0.1250 0.0733 0.0000 (  5663 PWs)   bands (ev):

   -45.2273 -23.7093 -23.0624 -22.9443 -20.5361 -12.8073  -2.9498  -2.5030
    -2.3469  -0.9999   0.7377   1.4617   3.8682   5.7192   6.1910   6.2897
     7.0043   7.1905   8.5545   9.6773  11.8522  13.8035  14.2415  15.1656
    15.5250  17.7525

          k = 0.1250 0.1465 0.0000 (  5670 PWs)   bands (ev):

   -45.2204 -23.6853 -23.1370 -22.9666 -20.5188 -12.7225  -2.8691  -2.5712
    -2.3640  -0.9570   0.3013   1.3015   3.8785   5.6910   6.3119   6.3539
     7.0992   7.3464   8.8711  10.0095  12.2360  13.4472  13.9699  15.2643
    16.0131  17.4143

          k = 0.1250 0.2198 0.0000 (  5692 PWs)   bands (ev):

   -45.2101 -23.6518 -23.2396 -23.0013 -20.4982 -12.5905  -2.7714  -2.6506
    -2.3914  -0.9183  -0.2409   1.0277   3.8803   5.6483   6.4252   6.6620
     7.2466   7.6069   9.3069  10.4227  12.8104  13.0320  13.5644  15.5827
    16.6722  16.9544

          k = 0.1250 0.2931 0.0000 (  5690 PWs)   bands (ev):

   -45.1979 -23.6221 -23.3430 -23.0426 -20.4809 -12.4261  -2.7979  -2.6106
    -2.4274  -1.0548  -0.6371   0.7191   3.8618   5.7194   6.5307   7.0379
     7.4777   8.0013   9.7582  10.8498  12.5641  13.0436  13.8442  15.6481
    16.4509  16.9185

          k = 0.1250 0.3663 0.0000 (  5703 PWs)   bands (ev):

   -45.1856 -23.6245 -23.4070 -23.0841 -20.4705 -12.2508  -2.8882  -2.5288
    -2.4693  -1.5240  -0.6504   0.4367   3.8344   5.9437   6.6515   7.2561
     7.7819   8.5999  10.1245  11.2434  12.3344  12.8200  14.6615  15.1034
    15.7404  16.7483

          k = 0.1250 0.4396 0.0000 (  5696 PWs)   bands (ev):

   -45.1752 -23.6702 -23.4125 -23.1194 -20.4664 -12.0923  -2.9657  -2.5548
    -2.4613  -1.9262  -0.5975   0.2146   3.8214   6.2671   6.7614   7.3909
     7.9681   9.3879  10.3632  11.5211  12.3190  12.8197  14.0996  14.6935
    15.5565  16.5776

          k = 0.1250 0.5129 0.0000 (  5713 PWs)   bands (ev):

   -45.1683 -23.7165 -23.3980 -23.1431 -20.4660 -11.9805  -3.0187  -2.6541
    -2.4433  -2.1322  -0.5543   0.0729   3.8256   6.5464   6.8767   7.4689
     8.0151  10.1689  10.5683  11.6327  12.3388  12.8431  13.3977  14.4296
    15.1541  15.8691

          k = 0.1250 0.5861 0.0000 (  5714 PWs)   bands (ev):

   -45.1658 -23.7342 -23.3909 -23.1515 -20.4662 -11.9400  -3.0384  -2.7073
    -2.4400  -2.1834  -0.5381   0.0241   3.8305   6.6304   6.9783   7.4655
     8.0226  10.3912  10.9190  11.7244  12.0130  12.6731  13.5113  14.3010
    15.1173  15.3259

          k = 0.1250 0.0000 0.0000 (  5658 PWs)   bands (ev):

   -45.2297 -23.7179 -23.0349 -22.9369 -20.5429 -12.8364  -2.9796  -2.4772
    -2.3411  -1.0172   0.9207   1.4966   3.8630   5.7085   6.1810   6.2887
     6.9498   7.1495   8.4394   9.5428  11.7244  13.9499  14.2876  15.1054
    15.4882  17.7542

          k = 0.1875 0.1099 0.0000 (  5672 PWs)   bands (ev):

   -45.2168 -23.6727 -23.1894 -22.9659 -20.5097 -12.6743  -2.8373  -2.6110
    -2.3523  -0.9458   0.0076   1.3004   3.8402   5.7062   6.3191   6.4470
     7.3154   7.3692   9.0308  10.1543  12.2275  13.4543  13.8708  15.5573
    16.1846  17.4965

          k = 0.1875 0.1832 0.0000 (  5689 PWs)   bands (ev):

   -45.2089 -23.6486 -23.2670 -22.9900 -20.4955 -12.5720  -2.7940  -2.6423
    -2.3727  -0.9388  -0.3847   1.1188   3.8190   5.7194   6.4030   6.6897
     7.3688   7.6289   9.3527  10.4463  12.3467  13.2642  13.8130  15.7534
    16.7650  17.0110

          k = 0.1875 0.2564 0.0000 (  5701 PWs)   bands (ev):

   -45.1986 -23.6240 -23.3466 -23.0331 -20.4806 -12.4322  -2.8023  -2.6112
    -2.4164  -1.0710  -0.6478   0.7718   3.8391   5.7242   6.5365   7.0470
     7.4921   7.9959   9.7462  10.8517  12.5806  13.0385  13.7704  15.6461
    16.4077  16.8846

          k = 0.1875 0.3297 0.0000 (  5695 PWs)   bands (ev):

   -45.1873 -23.6175 -23.4003 -23.0876 -20.4687 -12.2722  -2.8530  -2.5449
    -2.4731  -1.4097  -0.6702   0.3635   3.8967   5.8157   6.7072   7.1510
     7.7971   8.5794  10.1408  11.3213  12.6884  12.8807  14.0722  14.9308
    16.0261  16.5513

          k = 0.1875 0.4030 0.0000 (  5700 PWs)   bands (ev):

   -45.1769 -23.6424 -23.4106 -23.1428 -20.4615 -12.1154  -2.9084  -2.5668
    -2.4664  -1.7322  -0.6358  -0.0062   3.9721   6.0377   6.8243   7.2039
     7.9853   9.3902  10.4787  11.7773  12.5961  12.8713  14.1947  14.8064
    15.1198  16.1300

          k = 0.1875 0.4762 0.0000 (  5711 PWs)   bands (ev):

   -45.1690 -23.6776 -23.3975 -23.1875 -20.4583 -11.9887  -2.9540  -2.6515
    -2.4336  -1.9437  -0.6065  -0.2726   4.0443   6.3617   6.8137   7.3640
     7.9595  10.2539  10.7345  12.0570  12.5179  13.0167  13.6844  14.3191
    15.2191  15.9195

          k = 0.1875 0.5495 0.0000 (  5709 PWs)   bands (ev):

   -45.1646 -23.6996 -23.3857 -23.2126 -20.4574 -11.9174  -2.9806  -2.7167
    -2.4217  -2.0341  -0.6005  -0.4011   4.0900   6.6150   6.8315   7.4882
     7.8165  10.5906  11.3504  12.1076  12.3642  12.7763  13.5346  14.3906
    14.9742  15.5960

          k = 0.1875-0.0366 0.0000 (  5677 PWs)   bands (ev):

   -45.2211 -23.6867 -23.1390 -22.9593 -20.5184 -12.7282  -2.8709  -2.5774
    -2.3501  -0.9619   0.3037   1.3147   3.8706   5.6423   6.3391   6.4000
     7.1459   7.3144   8.8517  10.0030  12.2289  13.4534  13.9630  15.2771
    16.0521  17.3979

          k = 0.2500 0.1465 0.0000 (  5688 PWs)   bands (ev):

   -45.2044 -23.6382 -23.3210 -22.9909 -20.4882 -12.5084  -2.8342  -2.6129
    -2.3623  -1.0323  -0.5925   1.1251   3.7384   5.8230   6.4658   6.7934
     7.5414   7.7444   9.5135  10.5516  12.0667  13.0885  14.4089  16.0982
    16.6809  16.9873

          k = 0.2500 0.2198 0.0000 (  5700 PWs)   bands (ev):

   -45.1965 -23.6272 -23.3786 -23.0167 -20.4792 -12.3992  -2.8702  -2.5710
    -2.3900  -1.2784  -0.6724   0.9286   3.7163   5.8912   6.5505   7.1025
     7.6061   8.0562   9.7780  10.8154  12.0880  12.8985  14.6437  15.7317
    16.3525  16.7830

          k = 0.2500 0.2931 0.0000 (  5710 PWs)   bands (ev):

   -45.1871 -23.6288 -23.4114 -23.0671 -20.4694 -12.2646  -2.8945  -2.5230
    -2.4554  -1.5493  -0.6626   0.5245   3.7963   5.9508   6.6604   7.2708
     7.8008   8.5882  10.1057  11.2594  12.3432  12.8038  14.5711  15.0165
    15.6729  16.7364

          k = 0.2500 0.3663 0.0000 (  5716 PWs)   bands (ev):

   -45.1777 -23.6446 -23.4127 -23.1342 -20.4608 -12.1232  -2.9112  -2.5561
    -2.4681  -1.7430  -0.6408   0.0349   3.9546   6.0386   6.8327   7.2061
     7.9913   9.3842  10.4699  11.7911  12.5938  12.9020  14.1841  14.6864
    15.0613  16.1969

          k = 0.2500 0.4396 0.0000 (  5707 PWs)   bands (ev):

   -45.1698 -23.6606 -23.3981 -23.2033 -20.4545 -11.9974  -2.9341  -2.6388
    -2.4288  -1.8424  -0.6661  -0.3832   4.1383   6.2084   6.8680   7.2773
     7.9826  10.2643  10.7975  12.1363  12.6668  13.2547  13.9206  14.4134
    14.9002  15.4731

          k = 0.2500 0.5129 0.0000 (  5710 PWs)   bands (ev):

   -45.1644 -23.6683 -23.3837 -23.2566 -20.4510 -11.9100  -2.9703  -2.6723
    -2.4039  -1.8714  -0.8668  -0.5106   4.2841   6.4575   6.7762   7.4579
     7.8139  10.6780  11.3871  12.0850  12.9969  13.4222  13.6273  14.1831
    14.8842  15.4603

          k = 0.2500 0.5861 0.0000 (  5698 PWs)   bands (ev):

   -45.1626 -23.6699 -23.3780 -23.2770 -20.4498 -11.8786  -2.9896  -2.6753
    -2.3959  -1.8717  -0.9837  -0.5191   4.3395   6.6119   6.7358   7.4990
     7.7198  10.6609  12.0301  12.2984  12.3928  13.3385  13.8107  14.2817
    14.8937  15.5501

          k = 0.2500-0.0733 0.0000 (  5684 PWs)   bands (ev):

   -45.2097 -23.6499 -23.2642 -22.9876 -20.4946 -12.5790  -2.7941  -2.6429
    -2.3644  -0.9413  -0.3649   1.1048   3.8211   5.6963   6.4059   6.7291
     7.3928   7.6060   9.3361  10.4433  12.3564  13.2753  13.8492  15.7720
    16.7005  16.9846

          k = 0.2500 0.0000 0.0000 (  5696 PWs)   bands (ev):

   -45.2116 -23.6546 -23.2393 -22.9908 -20.4969 -12.6034  -2.7738  -2.6555
    -2.3707  -0.9278  -0.2272   1.0448   3.8673   5.6107   6.4478   6.7205
     7.2825   7.5812   9.2744  10.4161  12.8115  13.0695  13.5635  15.5748
    16.6384  16.9519

          k = 0.3125 0.1832 0.0000 (  5705 PWs)   bands (ev):

   -45.1920 -23.6361 -23.4109 -23.0157 -20.4758 -12.3310  -2.9328  -2.5348
    -2.3766  -1.5583  -0.6677   0.9631   3.6168   6.0171   6.7296   7.1862
     7.7356   8.2329   9.8589  10.8372  11.9371  12.7657  15.0213  15.4917
    16.6390  16.7155

          k = 0.3125 0.2564 0.0000 (  5710 PWs)   bands (ev):

   -45.1851 -23.6557 -23.4248 -23.0420 -20.4711 -12.2291  -2.9701  -2.5038
    -2.4149  -1.8122  -0.6426   0.7604   3.6268   6.1395   6.7611   7.4087
     7.8534   8.6380  10.0379  11.0866  12.0505  12.7177  14.5523  15.2387
    15.9620  16.7014

          k = 0.3125 0.3297 0.0000 (  5712 PWs)   bands (ev):

   -45.1775 -23.6749 -23.4176 -23.0975 -20.4642 -12.1147  -2.9729  -2.5306
    -2.4603  -1.9406  -0.6161   0.3205   3.7779   6.2733   6.7659   7.4110
     7.9803   9.3692  10.3447  11.5665  12.3054  12.7837  13.9875  14.6718
    15.4471  16.5231

          k = 0.3125 0.4030 0.0000 (  5714 PWs)   bands (ev):

   -45.1706 -23.6802 -23.4012 -23.1730 -20.4564 -12.0050  -2.9566  -2.6395
    -2.4324  -1.9497  -0.6127  -0.2133   4.0196   6.3554   6.8225   7.3721
     7.9673  10.2302  10.7218  12.1022  12.5422  13.0150  13.5745  14.3275
    15.1098  15.9881

          k = 0.3125 0.4762 0.0000 (  5702 PWs)   bands (ev):

   -45.1652 -23.6689 -23.3857 -23.2503 -20.4499 -11.9184  -2.9685  -2.6688
    -2.4027  -1.8733  -0.8425  -0.5134   4.2766   6.4488   6.7773   7.4626
     7.8202  10.6544  11.3824  12.1018  12.9649  13.4596  13.5937  14.2553
    14.8432  15.4325

          k = 0.3125 0.5495 0.0000 (  5687 PWs)   bands (ev):

   -45.1623 -23.6529 -23.3769 -23.3027 -20.4461 -11.8705  -3.0005  -2.6388
    -2.3807  -1.7231  -1.2433  -0.5327   4.4497   6.5802   6.6955   7.4164
     7.7868  10.6319  12.0239  12.2843  13.0337  13.2881  14.0070  14.2670
    14.9916  15.6093

          k = 0.3125-0.1099 0.0000 (  5705 PWs)   bands (ev):

   -45.1973 -23.6270 -23.3750 -23.0170 -20.4779 -12.4068  -2.8669  -2.5717
    -2.3839  -1.2574  -0.6708   0.9031   3.7275   5.8879   6.5518   7.1085
     7.6053   8.0502   9.7653  10.8140  12.1018  12.9070  14.7121  15.7410
    16.3525  16.7421

          k = 0.3125-0.0366 0.0000 (  5695 PWs)   bands (ev):

   -45.2002 -23.6254 -23.3411 -23.0296 -20.4785 -12.4469  -2.7987  -2.6129
    -2.4019  -1.0503  -0.6359   0.7477   3.8457   5.7055   6.5579   7.0651
     7.4978   7.9821   9.7185  10.8466  12.6141  13.0560  13.8431  15.6168
    16.3661  16.8652

          k = 0.3750 0.2198 0.0000 (  5699 PWs)   bands (ev):

   -45.1814 -23.6882 -23.4268 -23.0366 -20.4714 -12.1702  -3.0310  -2.4954
    -2.3918  -2.0497  -0.6186   0.8347   3.5282   6.2397   6.9723   7.4862
     8.0008   8.8093  10.0124  11.0455  12.0413  12.7041  13.9958  15.3712
    15.8816  16.1907

          k = 0.3750 0.2931 0.0000 (  5704 PWs)   bands (ev):

   -45.1763 -23.7145 -23.4181 -23.0618 -20.4690 -12.0912  -3.0547  -2.5187
    -2.4319  -2.1613  -0.5934   0.6347   3.5788   6.3930   6.9373   7.5510
     8.0894   9.3450  10.1822  11.2554  12.1590  12.7557  13.5436  14.9147
    15.3499  16.0796

          k = 0.3750 0.3663 0.0000 (  5697 PWs)   bands (ev):

   -45.1712 -23.7193 -23.4043 -23.1188 -20.4626 -12.0107  -3.0265  -2.6326
    -2.4369  -2.1276  -0.5784   0.1828   3.7835   6.5655   6.8603   7.5003
     8.0115  10.1267  10.5622  11.6990  12.2703  12.7636  13.3468  14.4070
    15.0646  15.8431

          k = 0.3750 0.4396 0.0000 (  5694 PWs)   bands (ev):

   -45.1669 -23.7004 -23.3908 -23.1957 -20.4543 -11.9414  -2.9806  -2.7027
    -2.4176  -2.0271  -0.5989  -0.3517   4.0671   6.6212   6.8127   7.5140
     7.8153  10.5348  11.3404  12.1376  12.3326  12.7896  13.4942  14.3592
    14.9389  15.5348

          k = 0.3750 0.5129 0.0000 (  5693 PWs)   bands (ev):

   -45.1641 -23.6681 -23.3813 -23.2688 -20.4475 -11.8945  -2.9846  -2.6666
    -2.3929  -1.8607  -0.9553  -0.5317   4.3356   6.6191   6.7086   7.5016
     7.7347  10.6127  12.0448  12.2373  12.3258  13.4723  13.8459  14.2859
    14.8554  15.5010

          k = 0.3750 0.5861 0.0000 (  5692 PWs)   bands (ev):

   -45.1630 -23.6501 -23.3781 -23.3014 -20.4449 -11.8780  -2.9975  -2.6328
    -2.3791  -1.6990  -1.2536  -0.5397   4.4544   6.5896   6.6771   7.4088
     7.7963  10.6069  12.0438  12.1593  13.1162  13.2780  14.1256  14.2242
    14.9611  15.5932

          k = 0.3750-0.1465 0.0000 (  5717 PWs)   bands (ev):

   -45.1857 -23.6527 -23.4238 -23.0434 -20.4698 -12.2359  -2.9656  -2.5048
    -2.4096  -1.7897  -0.6452   0.7345   3.6410   6.1450   6.7716   7.3958
     7.8423   8.6283  10.0233  11.0878  12.0569  12.7190  14.5715  15.2828
    15.9142  16.7424

          k = 0.3750-0.0733 0.0000 (  5710 PWs)   bands (ev):

   -45.1886 -23.6253 -23.4077 -23.0681 -20.4668 -12.2792  -2.8873  -2.5258
    -2.4419  -1.5047  -0.6671   0.4835   3.8160   5.9482   6.6703   7.2784
     7.7766   8.5717  10.0790  11.2539  12.3698  12.8172  14.6508  15.0323
    15.6960  16.6957

          k = 0.3750 0.0000 0.0000 (  5700 PWs)   bands (ev):

   -45.1896 -23.6160 -23.3965 -23.0825 -20.4654 -12.2943  -2.8470  -2.5444
    -2.4541  -1.3642  -0.6780   0.3444   3.9046   5.8068   6.7310   7.1625
     7.7786   8.5571  10.1023  11.3144  12.6949  12.9697  14.1125  14.8986
    16.0205  16.4766

          k = 0.4375 0.2564 0.0000 (  5681 PWs)   bands (ev):

   -45.1743 -23.7438 -23.4136 -23.0505 -20.4713 -12.0565  -3.1110  -2.5333
    -2.4038  -2.3036  -0.5753   0.7530   3.4847   6.4561   7.0453   7.6203
     8.2973   9.4416  10.1284  11.1881  12.0867  12.6637  13.3568  14.7904
    15.1612  15.7551

          k = 0.4375 0.3297 0.0000 (  5704 PWs)   bands (ev):

   -45.1717 -23.7527 -23.4060 -23.0729 -20.4691 -12.0141  -3.1095  -2.6037
    -2.4303  -2.2732  -0.5639   0.5649   3.5652   6.5745   7.0051   7.5914
     8.2463   9.9335  10.3337  11.3703  11.9570  12.6044  13.4408  14.3847
    15.0051  15.5715

          k = 0.4375 0.4030 0.0000 (  5693 PWs)   bands (ev):

   -45.1693 -23.7346 -23.3980 -23.1272 -20.4619 -11.9755  -3.0448  -2.6826
    -2.4311  -2.1668  -0.5649   0.1267   3.7938   6.6481   6.9749   7.4984
     8.0005  10.3231  10.9124  11.7798  11.9043  12.6268  13.4819  14.2344
    15.0557  15.3406

          k = 0.4375 0.4762 0.0000 (  5702 PWs)   bands (ev):

   -45.1674 -23.6970 -23.3913 -23.1969 -20.4534 -11.9464  -2.9784  -2.6950
    -2.4168  -2.0138  -0.5992  -0.3683   4.0750   6.6261   6.8136   7.5291
     7.7890  10.5197  11.2475  12.1616  12.3817  12.7983  13.4877  14.3620
    14.9537  15.5661

          k = 0.4375 0.5495 0.0000 (  5701 PWs)   bands (ev):

   -45.1664 -23.6623 -23.3870 -23.2511 -20.4477 -11.9308  -2.9642  -2.6540
    -2.4006  -1.8357  -0.8598  -0.5308   4.2904   6.4572   6.7594   7.4844
     7.7930  10.6219  11.2586  12.1298  12.9512  13.4973  13.6989  14.2091
    14.8615  15.4678

          k = 0.4375-0.1832 0.0000 (  5711 PWs)   bands (ev):

   -45.1768 -23.7113 -23.4184 -23.0632 -20.4680 -12.0960  -3.0506  -2.5164
    -2.4302  -2.1475  -0.5954   0.6160   3.5900   6.3911   6.9680   7.5335
     8.0792   9.3207  10.1605  11.2604  12.1640  12.7487  13.5589  14.9429
    15.3397  16.0848

          k = 0.4375-0.1099 0.0000 (  5707 PWs)   bands (ev):

   -45.1787 -23.6682 -23.4175 -23.1000 -20.4619 -12.1265  -2.9653  -2.5243
    -2.4557  -1.9049  -0.6208   0.2820   3.7988   6.2811   6.7720   7.4241
     7.9426   9.3355  10.3046  11.5671  12.3193  12.7788  14.0232  14.6873
    15.4895  16.5616

          k = 0.4375-0.0366 0.0000 (  5722 PWs)   bands (ev):

   -45.1797 -23.6369 -23.4120 -23.1346 -20.4573 -12.1430  -2.9027  -2.5425
    -2.4632  -1.6868  -0.6492  -0.0075   3.9760   6.0369   6.8267   7.2411
     7.9484   9.3432  10.4185  11.7800  12.5856  12.9688  14.1814  14.7814
    15.1093  16.1546

          k =-0.5000-0.2931 0.0000 (  5692 PWs)   bands (ev):

   -45.1719 -23.7653 -23.4066 -23.0553 -20.4718 -12.0153  -3.1456  -2.5840
    -2.4088  -2.3492  -0.5591   0.7250   3.4732   6.5691   7.0180   7.6558
     8.4267   9.7934  10.2030  11.3077  11.8038  12.5557  13.5217  14.3003
    14.9703  15.5809

          k =-0.5000-0.2198 0.0000 (  5697 PWs)   bands (ev):

   -45.1719 -23.7514 -23.4062 -23.0734 -20.4687 -12.0159  -3.1076  -2.6018
    -2.4300  -2.2694  -0.5645   0.5581   3.5694   6.5676   7.0286   7.5807
     8.2447   9.9126  10.3218  11.3697  11.9759  12.6015  13.4304  14.4023
    15.0243  15.5557

          k =-0.5000-0.1465 0.0000 (  5713 PWs)   bands (ev):

   -45.1719 -23.7148 -23.4049 -23.1207 -20.4612 -12.0174  -3.0213  -2.6246
    -2.4358  -2.1112  -0.5806   0.1600   3.7963   6.5583   6.8924   7.5004
     7.9846  10.0960  10.5032  11.7031  12.3068  12.7579  13.3510  14.4286
    15.0927  15.8507

          k =-0.5000-0.0733 0.0000 (  5710 PWs)   bands (ev):

   -45.1719 -23.6720 -23.4021 -23.1753 -20.4539 -12.0189  -2.9501  -2.6236
    -2.4302  -1.9099  -0.6166  -0.2532   4.0396   6.3653   6.8075   7.4114
     7.9179  10.1922  10.6334  12.1023  12.5354  13.0508  13.6274  14.3273
    15.1745  15.9988

          k =-0.5000-0.0000 0.0000 (  5716 PWs)   bands (ev):

   -45.1719 -23.6518 -23.4001 -23.2014 -20.4509 -12.0196  -2.9275  -2.6165
    -2.4259  -1.7894  -0.6724  -0.4164   4.1546   6.2071   6.8460   7.3296
     7.9363  10.2140  10.6962  12.1554  12.6179  13.3730  13.9451  14.4380
    14.9165  15.4964

     highest occupied, lowest unoccupied level (ev):     4.4544    5.6107

!    total energy              =    -571.23402411 Ry
     total all-electron energy =    -12610.611435 Ry
     estimated scf accuracy    <          6.6E-11 Ry

     The total energy is the sum of the following terms:
     one-electron contribution =    -279.99340409 Ry
     hartree contribution      =     148.64149832 Ry
     xc contribution           =     -36.37299236 Ry
     ewald contribution        =      -6.65234860 Ry
     one-center paw contrib.   =    -396.85677738 Ry

     convergence has been achieved in   7 iterations

     negative rho (up, down):  2.822E-05 0.000E+00

     Forces acting on atoms (cartesian axes, Ry/au):

     atom    1 type  1   force =     0.00000000    0.00084613    0.00021382
     atom    2 type  2   force =     0.00000000   -0.00074674    0.00093904
     atom    3 type  3   force =     0.00000000   -0.00009939   -0.00115287
     The non-local contrib.  to forces
     atom    1 type  1   force =     0.00000000   -0.00206524   -0.02414676
     atom    2 type  2   force =     0.00000000   -0.01842905   -1.01858456
     atom    3 type  3   force =     0.00000000   -0.00123548    0.21083279
     The ionic contribution  to forces
     atom    1 type  1   force =    -0.00000001   -0.13354999   -0.65793976
     atom    2 type  2   force =     0.00000001    0.09413212   25.04992272
     atom    3 type  3   force =     0.00000000    0.03941788  -24.39198296
     The local contribution  to forces
     atom    1 type  1   force =    -0.00000000    0.13634705    0.67825528
     atom    2 type  2   force =     0.00000027   -0.07651406  -24.03369822
     atom    3 type  3   force =    -0.00000000   -0.03818586   24.18237517
     The core correction contribution to forces
     atom    1 type  1   force =     0.00000000    0.00011737    0.00404739
     atom    2 type  2   force =     0.00000000    0.00006249    0.00329541
     atom    3 type  3   force =    -0.00000000   -0.00009636   -0.00238075
     The Hubbard contrib.    to forces
     atom    1 type  1   force =     0.00000000    0.00000000    0.00000000
     atom    2 type  2   force =     0.00000000    0.00000000    0.00000000
     atom    3 type  3   force =     0.00000000    0.00000000    0.00000000
     The SCF correction term to forces
     atom    1 type  1   force =    -0.00000000   -0.00000426   -0.00000395
     atom    2 type  2   force =    -0.00000000    0.00000055    0.00000207
     atom    3 type  3   force =     0.00000000   -0.00000077    0.00000126

     Total force =     0.001882     Total SCF correction =     0.000006
     Energy error            =      7.2E-05 Ry
     Gradient error          =      1.2E-03 Ry/Bohr

     number of scf cycles    =   4
     number of bfgs steps    =   3

     energy             old  =    -571.2339520427 Ry
     energy             new  =    -571.2340241086 Ry

     CASE: energy            _new < energy            _old

     new trust radius        =       0.0049205916 bohr
     new conv_thr            =       0.0000000007 Ry


ATOMIC_POSITIONS (angstrom)
Zr            0.0000000000        0.0176463740       10.1023920318
F            -0.0000000020        1.9224290590       11.4183787848
Br           -0.0000000020        1.9217323302        8.1974078964



     Writing config-only to output data dir ./tmp/ZrFBr.save/
     NEW-OLD atomic charge density approx. for the potential

     Check: negative core charge=   -0.000002

     negative rho (up, down):  2.812E-05 0.000E+00

     total cpu time spent up to now is       51.1 secs

     Self-consistent Calculation

     iteration #  1     ecut=    65.00 Ry     beta= 0.70
     Davidson diagonalization with overlap
     ethr =  1.00E-06,  avg # of iterations =  3.0

     Threshold (ethr) on eigenvalues was too large:
     Diagonalizing with lowered threshold

     Davidson diagonalization with overlap
     ethr =  1.42E-08,  avg # of iterations =  3.0

     negative rho (up, down):  2.797E-05 0.000E+00

     total cpu time spent up to now is       54.5 secs

     total energy              =    -571.23403039 Ry
     estimated scf accuracy    <       0.00000381 Ry

     iteration #  2     ecut=    65.00 Ry     beta= 0.70
     Davidson diagonalization with overlap
     ethr =  1.47E-08,  avg # of iterations =  2.0

     negative rho (up, down):  2.813E-05 0.000E+00

     total cpu time spent up to now is       55.9 secs

     total energy              =    -571.23402997 Ry
     estimated scf accuracy    <       0.00000859 Ry

     iteration #  3     ecut=    65.00 Ry     beta= 0.70
     Davidson diagonalization with overlap
     ethr =  1.47E-08,  avg # of iterations =  2.0

     negative rho (up, down):  2.818E-05 0.000E+00

     total cpu time spent up to now is       57.2 secs

     total energy              =    -571.23403184 Ry
     estimated scf accuracy    <       0.00000060 Ry

     iteration #  4     ecut=    65.00 Ry     beta= 0.70
     Davidson diagonalization with overlap
     ethr =  2.31E-09,  avg # of iterations =  2.0

     negative rho (up, down):  2.819E-05 0.000E+00

     total cpu time spent up to now is       58.5 secs

     total energy              =    -571.23403194 Ry
     estimated scf accuracy    <       0.00000008 Ry

     iteration #  5     ecut=    65.00 Ry     beta= 0.70
     Davidson diagonalization with overlap
     ethr =  3.10E-10,  avg # of iterations =  2.0

     negative rho (up, down):  2.819E-05 0.000E+00

     total cpu time spent up to now is       59.9 secs

     total energy              =    -571.23403196 Ry
     estimated scf accuracy    <          9.6E-09 Ry

     iteration #  6     ecut=    65.00 Ry     beta= 0.70
     Davidson diagonalization with overlap
     ethr =  3.69E-11,  avg # of iterations =  2.0

     negative rho (up, down):  2.820E-05 0.000E+00

     total cpu time spent up to now is       61.2 secs

     End of self-consistent calculation

          k = 0.0000 0.0000 0.0000 (  5617 PWs)   bands (ev):

   -45.2435 -23.7482 -22.9490 -22.9261 -20.5648 -12.9217  -3.0755  -2.3659
    -2.3335  -1.0807   1.5376   1.6458   3.8117   5.8463   6.0318   6.0988
     6.9451   7.0225   8.0743   8.9918  11.2954  14.1850  14.7679  15.0472
    15.4439  17.4016

          k = 0.0000 0.0733 0.0000 (  5647 PWs)   bands (ev):

   -45.2409 -23.7387 -22.9603 -22.9546 -20.5558 -12.8912  -3.0393  -2.3739
    -2.3663  -1.0561   1.4067   1.4925   3.8349   5.8943   5.9546   6.1944
     6.9622   6.9977   8.2124   9.2186  11.4446  14.2532  14.6037  14.9097
    15.3346  17.6876

          k = 0.0000 0.1465 0.0000 (  5692 PWs)   bands (ev):

   -45.2335 -23.7120 -23.0540 -22.9704 -20.5334 -12.8021  -2.9428  -2.4758
    -2.3685  -0.9973   0.8077   1.3688   3.8758   5.8140   6.0475   6.2957
     7.0251   7.1338   8.5746   9.6943  11.8707  13.8559  14.2854  15.1901
    15.3309  17.7827

          k = 0.0000 0.2198 0.0000 (  5710 PWs)   bands (ev):

   -45.2224 -23.6738 -23.1845 -22.9939 -20.5075 -12.6633  -2.8281  -2.5902
    -2.3751  -0.9374   0.0611   1.1951   3.8677   5.7461   6.3188   6.3404
     7.3090   7.3375   9.0618  10.1690  12.2418  13.4914  13.9250  15.6002
    16.0152  17.4627

          k = 0.0000 0.2931 0.0000 (  5708 PWs)   bands (ev):

   -45.2092 -23.6372 -23.3197 -23.0214 -20.4870 -12.4896  -2.8217  -2.6003
    -2.3878  -1.0072  -0.5650   1.0060   3.7793   5.8242   6.4839   6.6981
     7.4898   7.7619   9.5502  10.5573  12.0655  13.1246  14.5038  16.1762
    16.8061  16.8362

          k = 0.0000 0.3663 0.0000 (  5708 PWs)   bands (ev):

   -45.1960 -23.6342 -23.4116 -23.0488 -20.4757 -12.3037  -2.9210  -2.5275
    -2.4055  -1.5334  -0.6479   0.8315   3.6615   6.0013   6.7410   7.1242
     7.6837   8.2588   9.8922  10.8286  11.9521  12.8096  15.1849  15.5915
    16.5301  16.7741

          k = 0.0000 0.4396 0.0000 (  5704 PWs)   bands (ev):

   -45.1847 -23.6886 -23.4260 -23.0718 -20.4724 -12.1347  -3.0189  -2.4951
    -2.4241  -2.0365  -0.5933   0.6934   3.5733   6.2184   6.9722   7.4381
     7.9716   8.8426  10.0392  11.0323  12.0825  12.7697  14.1289  15.4668
    16.0060  16.0244

          k = 0.0000 0.5129 0.0000 (  5718 PWs)   bands (ev):

   -45.1772 -23.7463 -23.4112 -23.0871 -20.4732 -12.0151  -3.0969  -2.5435
    -2.4382  -2.2960  -0.5458   0.6057   3.5299   6.4349   7.0301   7.5669
     8.3069   9.4805  10.1520  11.1855  12.1704  12.7659  13.4257  14.8745
    15.2837  15.5549

          k = 0.0000-0.5861 0.0000 (  5730 PWs)   bands (ev):

   -45.1745 -23.7685 -23.4035 -23.0925 -20.4740 -11.9717  -3.1305  -2.5984
    -2.4435  -2.3439  -0.5281   0.5757   3.5186   6.5508   6.9935   7.5997
     8.4540   9.8435  10.2046  11.3218  11.9281  12.6375  13.5796  14.3755
    15.0924  15.3710

          k = 0.0625 0.0366 0.0000 (  5641 PWs)   bands (ev):

   -45.2411 -23.7391 -22.9784 -22.9349 -20.5559 -12.8924  -3.0402  -2.3996
    -2.3387  -1.0575   1.3240   1.5837   3.8313   5.8014   6.0555   6.1925
     6.9109   7.0610   8.2053   9.2099  11.4393  14.2533  14.4461  15.1220
    15.3156  17.6250

          k = 0.0625 0.1099 0.0000 (  5653 PWs)   bands (ev):

   -45.2361 -23.7210 -23.0305 -22.9574 -20.5402 -12.8326  -2.9734  -2.4535
    -2.3573  -1.0159   0.9650   1.4414   3.8631   5.7878   6.0650   6.2904
     6.9304   7.1362   8.4565   9.5562  11.7360  14.0025  14.3080  15.0782
    15.3644  17.7558

          k = 0.0625 0.1832 0.0000 (  5690 PWs)   bands (ev):

   -45.2268 -23.6883 -23.1361 -22.9835 -20.5163 -12.7185  -2.8626  -2.5566
    -2.3710  -0.9555   0.3388   1.2465   3.8847   5.7048   6.2577   6.3584
     7.0995   7.3218   8.8827  10.0181  12.2465  13.4684  13.9891  15.2714
    15.9358  17.3793

          k = 0.0625 0.2564 0.0000 (  5702 PWs)   bands (ev):

   -45.2146 -23.6498 -23.2651 -23.0137 -20.4934 -12.5619  -2.7838  -2.6291
    -2.3876  -0.9276  -0.3450   1.0261   3.8468   5.7170   6.3943   6.6440
     7.3415   7.6255   9.3748  10.4532  12.3424  13.2932  13.8826  15.7913
    16.6677  16.9746

          k = 0.0625 0.3297 0.0000 (  5699 PWs)   bands (ev):

   -45.2014 -23.6260 -23.3781 -23.0454 -20.4780 -12.3813  -2.8574  -2.5629
    -2.4101  -1.2441  -0.6559   0.8113   3.7574   5.8786   6.5437   7.0584
     7.5601   8.0722   9.8049  10.8114  12.0868  12.9312  14.7663  15.8315
    16.3828  16.7590

          k = 0.0625 0.4030 0.0000 (  5708 PWs)   bands (ev):

   -45.1892 -23.6540 -23.4250 -23.0743 -20.4711 -12.2025  -2.9574  -2.5021
    -2.4372  -1.7870  -0.6233   0.6284   3.6716   6.1227   6.7613   7.3629
     7.8155   8.6602  10.0598  11.0668  12.0719  12.7637  14.7022  15.3072
    15.9695  16.7485

          k = 0.0625 0.4762 0.0000 (  5709 PWs)   bands (ev):

   -45.1798 -23.7150 -23.4169 -23.0963 -20.4701 -12.0565  -3.0410  -2.5323
    -2.4452  -2.1532  -0.5684   0.4965   3.6228   6.3700   6.9447   7.4983
     8.0789   9.3704  10.1980  11.2315  12.2113  12.8312  13.6527  14.9433
    15.4330  16.0390

          k = 0.0625 0.5495 0.0000 (  5712 PWs)   bands (ev):

   -45.1747 -23.7553 -23.4036 -23.1082 -20.4710 -11.9738  -3.0951  -2.6210
    -2.4438  -2.2792  -0.5352   0.4277   3.6062   6.5508   6.9990   7.5388
     8.2636   9.9776  10.3310  11.3615  12.0756  12.6841  13.4839  14.4529
    15.1041  15.4466

          k = 0.1250 0.0733 0.0000 (  5663 PWs)   bands (ev):

   -45.2341 -23.7135 -23.0678 -22.9507 -20.5336 -12.8070  -2.9456  -2.4952
    -2.3422  -1.0020   0.7418   1.4641   3.8603   5.7116   6.1807   6.2859
     6.9987   7.1896   8.5540   9.6776  11.8514  13.7988  14.2405  15.1619
    15.5224  17.7459

          k = 0.1250 0.1465 0.0000 (  5670 PWs)   bands (ev):

   -45.2273 -23.6895 -23.1426 -22.9728 -20.5164 -12.7222  -2.8645  -2.5650
    -2.3577  -0.9590   0.3035   1.3053   3.8702   5.6814   6.3050   6.3503
     7.0963   7.3405   8.8702  10.0107  12.2343  13.4439  13.9654  15.2635
    16.0097  17.4063

          k = 0.1250 0.2198 0.0000 (  5692 PWs)   bands (ev):

   -45.2170 -23.6559 -23.2454 -23.0072 -20.4959 -12.5902  -2.7662  -2.6456
    -2.3841  -0.9198  -0.2402   1.0320   3.8715   5.6383   6.4219   6.6572
     7.2389   7.6032   9.3049  10.4247  12.8077  13.0288  13.5590  15.5827
    16.6702  16.9472

          k = 0.1250 0.2931 0.0000 (  5690 PWs)   bands (ev):

   -45.2047 -23.6260 -23.3490 -23.0483 -20.4787 -12.4257  -2.7930  -2.6055
    -2.4196  -1.0543  -0.6392   0.7232   3.8524   5.7101   6.5291   7.0313
     7.4672   7.9999   9.7546  10.8524  12.5631  13.0343  13.8432  15.6452
    16.4501  16.9161

          k = 0.1250 0.3663 0.0000 (  5703 PWs)   bands (ev):

   -45.1925 -23.6285 -23.4131 -23.0897 -20.4683 -12.2502  -2.8837  -2.5228
    -2.4617  -1.5231  -0.6531   0.4403   3.8242   5.9358   6.6505   7.2464
     7.7729   8.5983  10.1190  11.2466  12.3336  12.8118  14.6600  15.1008
    15.7375  16.7480

          k = 0.1250 0.4396 0.0000 (  5696 PWs)   bands (ev):

   -45.1821 -23.6746 -23.4183 -23.1248 -20.4642 -12.0915  -2.9616  -2.5467
    -2.4558  -1.9248  -0.6004   0.2178   3.8105   6.2611   6.7597   7.3807
     7.9592   9.3855  10.3573  11.5236  12.3160  12.8146  14.0985  14.6908
    15.5556  16.5691

          k = 0.1250 0.5129 0.0000 (  5713 PWs)   bands (ev):

   -45.1751 -23.7210 -23.4036 -23.1485 -20.4637 -11.9797  -3.0151  -2.6472
    -2.4378  -2.1293  -0.5571   0.0758   3.8143   6.5426   6.8736   7.4595
     8.0048  10.1671  10.5619  11.6329  12.3340  12.8396  13.4004  14.4251
    15.1545  15.8614

          k = 0.1250 0.5861 0.0000 (  5714 PWs)   bands (ev):

   -45.1727 -23.7388 -23.3965 -23.1568 -20.4640 -11.9392  -3.0350  -2.7010
    -2.4345  -2.1796  -0.5409   0.0269   3.8191   6.6274   6.9753   7.4560
     8.0116  10.3896  10.9117  11.7190  12.0168  12.6675  13.5139  14.2988
    15.1153  15.3186

          k = 0.1250 0.0000 0.0000 (  5658 PWs)   bands (ev):

   -45.2365 -23.7221 -23.0401 -22.9435 -20.5404 -12.8362  -2.9755  -2.4685
    -2.3373  -1.0194   0.9262   1.4976   3.8553   5.7023   6.1666   6.2874
     6.9398   7.1539   8.4390   9.5426  11.7239  13.9438  14.2889  15.0997
    15.4868  17.7488

          k = 0.1875 0.1099 0.0000 (  5672 PWs)   bands (ev):

   -45.2237 -23.6770 -23.1943 -22.9723 -20.5076 -12.6740  -2.8329  -2.6042
    -2.3476  -0.9474   0.0101   1.3029   3.8351   5.6972   6.3135   6.4376
     7.3122   7.3664   9.0286  10.1541  12.2244  13.4509  13.8688  15.5582
    16.1827  17.4893

          k = 0.1875 0.1832 0.0000 (  5689 PWs)   bands (ev):

   -45.2158 -23.6528 -23.2722 -22.9962 -20.4934 -12.5715  -2.7888  -2.6369
    -2.3672  -0.9394  -0.3842   1.1220   3.8133   5.7098   6.3957   6.6837
     7.3639   7.6258   9.3500  10.4468  12.3424  13.2604  13.8125  15.7530
    16.7633  17.0035

          k = 0.1875 0.2564 0.0000 (  5701 PWs)   bands (ev):

   -45.2054 -23.6280 -23.3522 -23.0389 -20.4785 -12.4316  -2.7967  -2.6066
    -2.4101  -1.0697  -0.6500   0.7751   3.8328   5.7141   6.5309   7.0405
     7.4841   7.9948   9.7421  10.8534  12.5761  13.0346  13.7699  15.6414
    16.4085  16.8830

          k = 0.1875 0.3297 0.0000 (  5695 PWs)   bands (ev):

   -45.1942 -23.6213 -23.4062 -23.0932 -20.4667 -12.2716  -2.8480  -2.5396
    -2.4667  -1.4086  -0.6725   0.3664   3.8898   5.8058   6.7039   7.1417
     7.7888   8.5788  10.1351  11.3240  12.6850  12.8775  14.0707  14.9251
    16.0251  16.5514

          k = 0.1875 0.4030 0.0000 (  5700 PWs)   bands (ev):

   -45.1838 -23.6463 -23.4165 -23.1482 -20.4595 -12.1147  -2.9038  -2.5593
    -2.4616  -1.7314  -0.6377  -0.0039   3.9642   6.0290   6.8224   7.1929
     7.9769   9.3893  10.4718  11.7800  12.5938  12.8686  14.1890  14.8052
    15.1180  16.1302

          k = 0.1875 0.4762 0.0000 (  5711 PWs)   bands (ev):

   -45.1758 -23.6818 -23.4033 -23.1927 -20.4563 -11.9878  -2.9498  -2.6445
    -2.4287  -1.9424  -0.6076  -0.2714   4.0353   6.3545   6.8105   7.3546
     7.9502  10.2531  10.7279  12.0575  12.5145  13.0147  13.6826  14.3177
    15.2179  15.9204

          k = 0.1875 0.5495 0.0000 (  5709 PWs)   bands (ev):

   -45.1715 -23.7040 -23.3915 -23.2177 -20.4553 -11.9165  -2.9763  -2.7104
    -2.4168  -2.0320  -0.6001  -0.4017   4.0804   6.6091   6.8281   7.4801
     7.8055  10.5871  11.3463  12.1060  12.3615  12.7729  13.5372  14.3894
    14.9720  15.5924

          k = 0.1875-0.0366 0.0000 (  5677 PWs)   bands (ev):

   -45.2279 -23.6910 -23.1436 -22.9660 -20.5163 -12.7279  -2.8668  -2.5696
    -2.3464  -0.9639   0.3077   1.3161   3.8659   5.6339   6.3329   6.3895
     7.1409   7.3153   8.8493  10.0026  12.2276  13.4478  13.9607  15.2784
    16.0509  17.3960

          k = 0.2500 0.1465 0.0000 (  5688 PWs)   bands (ev):

   -45.2113 -23.6423 -23.3257 -22.9973 -20.4864 -12.5079  -2.8286  -2.6083
    -2.3579  -1.0308  -0.5938   1.1276   3.7352   5.8142   6.4576   6.7855
     7.5371   7.7416   9.5089  10.5505  12.0635  13.0852  14.4095  16.0982
    16.6811  16.9859

          k = 0.2500 0.2198 0.0000 (  5700 PWs)   bands (ev):

   -45.2034 -23.6310 -23.3838 -23.0228 -20.4773 -12.3986  -2.8645  -2.5669
    -2.3849  -1.2764  -0.6748   0.9314   3.7125   5.8826   6.5409   7.0957
     7.5997   8.0548   9.7726  10.8154  12.0847  12.8956  14.6444  15.7289
    16.3532  16.7800

          k = 0.2500 0.2931 0.0000 (  5710 PWs)   bands (ev):

   -45.1940 -23.6324 -23.4170 -23.0730 -20.4675 -12.2639  -2.8890  -2.5191
    -2.4496  -1.5482  -0.6647   0.5271   3.7921   5.9413   6.6519   7.2641
     7.7923   8.5879  10.0989  11.2611  12.3396  12.8023  14.5715  15.0121
    15.6717  16.7329

          k = 0.2500 0.3663 0.0000 (  5716 PWs)   bands (ev):

   -45.1846 -23.6481 -23.4185 -23.1398 -20.4589 -12.1224  -2.9060  -2.5502
    -2.4637  -1.7424  -0.6425   0.0370   3.9499   6.0289   6.8250   7.1992
     7.9823   9.3840  10.4617  11.7939  12.5912  12.9017  14.1802  14.6827
    15.0604  16.1956

          k = 0.2500 0.4396 0.0000 (  5707 PWs)   bands (ev):

   -45.1767 -23.6643 -23.4040 -23.2087 -20.4527 -11.9965  -2.9290  -2.6328
    -2.4245  -1.8417  -0.6661  -0.3830   4.1326   6.1996   6.8610   7.2698
     7.9731  10.2644  10.7893  12.1379  12.6663  13.2536  13.9154  14.4131
    14.8968  15.4736

          k = 0.2500 0.5129 0.0000 (  5710 PWs)   bands (ev):

   -45.1713 -23.6722 -23.3897 -23.2618 -20.4491 -11.9090  -2.9651  -2.6669
    -2.3995  -1.8705  -0.8646  -0.5128   4.2774   6.4503   6.7700   7.4495
     7.8039  10.6735  11.3855  12.0821  12.9963  13.4197  13.6290  14.1826
    14.8791  15.4620

          k = 0.2500 0.5861 0.0000 (  5698 PWs)   bands (ev):

   -45.1695 -23.6738 -23.3840 -23.2821 -20.4480 -11.8776  -2.9843  -2.6702
    -2.3915  -1.8706  -0.9814  -0.5216   4.3324   6.6049   6.7310   7.4886
     7.7107  10.6561  12.0246  12.2971  12.3950  13.3368  13.8120  14.2820
    14.8908  15.5460

          k = 0.2500-0.0733 0.0000 (  5684 PWs)   bands (ev):

   -45.2166 -23.6542 -23.2685 -22.9942 -20.4928 -12.5785  -2.7891  -2.6373
    -2.3607  -0.9417  -0.3635   1.1064   3.8188   5.6865   6.3997   6.7193
     7.3908   7.6024   9.3315  10.4424  12.3532  13.2717  13.8484  15.7748
    16.6956  16.9864

          k = 0.2500 0.0000 0.0000 (  5696 PWs)   bands (ev):

   -45.2185 -23.6590 -23.2434 -22.9975 -20.4951 -12.6029  -2.7694  -2.6489
    -2.3674  -0.9288  -0.2248   1.0459   3.8653   5.6008   6.4408   6.7109
     7.2813   7.5779   9.2696  10.4155  12.8103  13.0640  13.5616  15.5785
    16.6323  16.9550

          k = 0.3125 0.1832 0.0000 (  5705 PWs)   bands (ev):

   -45.1989 -23.6395 -23.4162 -23.0220 -20.4741 -12.3303  -2.9273  -2.5311
    -2.3725  -1.5563  -0.6699   0.9655   3.6144   6.0091   6.7198   7.1795
     7.7301   8.2293   9.8522  10.8356  11.9352  12.7638  15.0185  15.4965
    16.6331  16.7132

          k = 0.3125 0.2564 0.0000 (  5710 PWs)   bands (ev):

   -45.1920 -23.6588 -23.4305 -23.0481 -20.4694 -12.2283  -2.9646  -2.5002
    -2.4101  -1.8112  -0.6444   0.7629   3.6239   6.1315   6.7511   7.4015
     7.8457   8.6363  10.0307  11.0861  12.0479  12.7169  14.5518  15.2396
    15.9579  16.6969

          k = 0.3125 0.3297 0.0000 (  5712 PWs)   bands (ev):

   -45.1844 -23.6780 -23.4235 -23.1034 -20.4625 -12.1138  -2.9675  -2.5255
    -2.4567  -1.9402  -0.6175   0.3226   3.7747   6.2647   6.7558   7.4052
     7.9703   9.3688  10.3363  11.5674  12.3022  12.7845  13.9879  14.6679
    15.4447  16.5181

          k = 0.3125 0.4030 0.0000 (  5714 PWs)   bands (ev):

   -45.1775 -23.6833 -23.4072 -23.1787 -20.4547 -12.0041  -2.9513  -2.6344
    -2.4288  -1.9491  -0.6136  -0.2120   4.0161   6.3469   6.8123   7.3667
     7.9566  10.2302  10.7129  12.1049  12.5404  13.0149  13.5740  14.3214
    15.1077  15.9897

          k = 0.3125 0.4762 0.0000 (  5702 PWs)   bands (ev):

   -45.1722 -23.6720 -23.3917 -23.2559 -20.4482 -11.9174  -2.9632  -2.6640
    -2.3989  -1.8725  -0.8413  -0.5147   4.2726   6.4413   6.7687   7.4552
     7.8093  10.6494  11.3808  12.1008  12.9656  13.4601  13.5906  14.2518
    14.8394  15.4339

          k = 0.3125 0.5495 0.0000 (  5687 PWs)   bands (ev):

   -45.1693 -23.6559 -23.3830 -23.3083 -20.4444 -11.8694  -2.9951  -2.6343
    -2.3767  -1.7220  -1.2422  -0.5343   4.4451   6.5737   6.6888   7.4053
     7.7771  10.6270  12.0197  12.2853  13.0351  13.2891  14.0038  14.2648
    14.9872  15.6102

          k = 0.3125-0.1099 0.0000 (  5705 PWs)   bands (ev):

   -45.2042 -23.6307 -23.3796 -23.0235 -20.4762 -12.4061  -2.8612  -2.5677
    -2.3805  -1.2546  -0.6731   0.9049   3.7260   5.8784   6.5442   7.1017
     7.6012   8.0455   9.7583  10.8123  12.0999  12.9046  14.7114  15.7408
    16.3514  16.7418

          k = 0.3125-0.0366 0.0000 (  5695 PWs)   bands (ev):

   -45.2071 -23.6294 -23.3452 -23.0363 -20.4768 -12.4463  -2.7928  -2.6088
    -2.3990  -1.0477  -0.6376   0.7488   3.8451   5.6951   6.5495   7.0604
     7.4937   7.9771   9.7111  10.8458  12.6120  13.0541  13.8409  15.6156
    16.3648  16.8658

          k = 0.3750 0.2198 0.0000 (  5699 PWs)   bands (ev):

   -45.1883 -23.6908 -23.4328 -23.0428 -20.4697 -12.1692  -3.0258  -2.4922
    -2.3880  -2.0484  -0.6201   0.8369   3.5260   6.2312   6.9636   7.4794
     7.9952   8.8029  10.0070  11.0423  12.0390  12.7040  13.9953  15.3724
    15.8770  16.1877

          k = 0.3750 0.2931 0.0000 (  5704 PWs)   bands (ev):

   -45.1833 -23.7171 -23.4242 -23.0679 -20.4673 -12.0902  -3.0496  -2.5149
    -2.4284  -2.1607  -0.5945   0.6369   3.5763   6.3834   6.9304   7.5435
     8.0804   9.3410  10.1768  11.2526  12.1563  12.7572  13.5434  14.9141
    15.3458  16.0763

          k = 0.3750 0.3663 0.0000 (  5697 PWs)   bands (ev):

   -45.1782 -23.7219 -23.4104 -23.1249 -20.4609 -12.0097  -3.0214  -2.6286
    -2.4338  -2.1267  -0.5793   0.1845   3.7807   6.5552   6.8537   7.4940
     8.0005  10.1235  10.5564  11.6975  12.2675  12.7657  13.3467  14.4032
    15.0615  15.8417

          k = 0.3750 0.4396 0.0000 (  5694 PWs)   bands (ev):

   -45.1739 -23.7029 -23.3969 -23.2018 -20.4526 -11.9403  -2.9756  -2.6988
    -2.4143  -2.0260  -0.5995  -0.3509   4.0642   6.6125   6.8053   7.5075
     7.8034  10.5297  11.3376  12.1390  12.3296  12.7879  13.4928  14.3562
    14.9356  15.5362

          k = 0.3750 0.5129 0.0000 (  5693 PWs)   bands (ev):

   -45.1710 -23.6705 -23.3875 -23.2750 -20.4459 -11.8934  -2.9796  -2.6626
    -2.3893  -1.8594  -0.9547  -0.5328   4.3326   6.6128   6.7006   7.4929
     7.7230  10.6083  12.0410  12.2370  12.3259  13.4696  13.8430  14.2827
    14.8562  15.4990

          k = 0.3750 0.5861 0.0000 (  5692 PWs)   bands (ev):

   -45.1700 -23.6523 -23.3842 -23.3077 -20.4433 -11.8769  -2.9926  -2.6289
    -2.3752  -1.6971  -1.2539  -0.5410   4.4512   6.5860   6.6672   7.3992
     7.7849  10.6030  12.0385  12.1594  13.1159  13.2807  14.1196  14.2177
    14.9616  15.5963

          k = 0.3750-0.1465 0.0000 (  5717 PWs)   bands (ev):

   -45.1927 -23.6554 -23.4294 -23.0499 -20.4682 -12.2350  -2.9604  -2.5014
    -2.4065  -1.7875  -0.6471   0.7362   3.6394   6.1363   6.7626   7.3907
     7.8377   8.6213  10.0164  11.0852  12.0552  12.7177  14.5696  15.2834
    15.9120  16.7388

          k = 0.3750-0.0733 0.0000 (  5710 PWs)   bands (ev):

   -45.1955 -23.6283 -23.4128 -23.0747 -20.4652 -12.2783  -2.8818  -2.5220
    -2.4394  -1.5019  -0.6692   0.4845   3.8153   5.9384   6.6613   7.2750
     7.7716   8.5654  10.0702  11.2526  12.3691  12.8151  14.6490  15.0275
    15.6976  16.6941

          k = 0.3750 0.0000 0.0000 (  5700 PWs)   bands (ev):

   -45.1965 -23.6191 -23.4013 -23.0893 -20.4638 -12.2934  -2.8414  -2.5405
    -2.4519  -1.3610  -0.6802   0.3451   3.9045   5.7966   6.7201   7.1616
     7.7733   8.5512  10.0927  11.3138  12.6944  12.9687  14.1088  14.8934
    16.0210  16.4778

          k = 0.4375 0.2564 0.0000 (  5681 PWs)   bands (ev):

   -45.1813 -23.7461 -23.4198 -23.0567 -20.4696 -12.0554  -3.1060  -2.5314
    -2.4000  -2.3021  -0.5763   0.7551   3.4824   6.4456   7.0392   7.6127
     8.2925   9.4308  10.1269  11.1832  12.0846  12.6645  13.3555  14.7915
    15.1579  15.7511

          k = 0.4375 0.3297 0.0000 (  5704 PWs)   bands (ev):

   -45.1786 -23.7550 -23.4123 -23.0790 -20.4674 -12.0130  -3.1046  -2.6013
    -2.4270  -2.2716  -0.5647   0.5669   3.5627   6.5622   7.0017   7.5833
     8.2387   9.9239  10.3323  11.3662  11.9567  12.6030  13.4409  14.3837
    15.0026  15.5684

          k = 0.4375 0.4030 0.0000 (  5693 PWs)   bands (ev):

   -45.1762 -23.7368 -23.4043 -23.1334 -20.4602 -11.9744  -3.0398  -2.6799
    -2.4280  -2.1652  -0.5657   0.1281   3.7913   6.6366   6.9706   7.4906
     7.9917  10.3168  10.9084  11.7769  11.9049  12.6227  13.4815  14.2338
    15.0527  15.3400

          k = 0.4375 0.4762 0.0000 (  5702 PWs)   bands (ev):

   -45.1743 -23.6991 -23.3975 -23.2033 -20.4517 -11.9453  -2.9735  -2.6920
    -2.4135  -2.0123  -0.5998  -0.3678   4.0726   6.6179   6.8062   7.5215
     7.7794  10.5157  11.2438  12.1586  12.3798  12.7938  13.4852  14.3627
    14.9540  15.5639

          k = 0.4375 0.5495 0.0000 (  5701 PWs)   bands (ev):

   -45.1733 -23.6641 -23.3932 -23.2577 -20.4461 -11.9297  -2.9596  -2.6508
    -2.3968  -1.8339  -0.8596  -0.5320   4.2881   6.4514   6.7491   7.4787
     7.7814  10.6197  11.2554  12.1223  12.9512  13.4974  13.6903  14.2088
    14.8631  15.4708

          k = 0.4375-0.1832 0.0000 (  5711 PWs)   bands (ev):

   -45.1837 -23.7135 -23.4245 -23.0695 -20.4664 -12.0950  -3.0455  -2.5143
    -2.4268  -2.1455  -0.5967   0.6178   3.5881   6.3821   6.9590   7.5274
     8.0755   9.3110  10.1574  11.2558  12.1609  12.7489  13.5574  14.9436
    15.3366  16.0824

          k = 0.4375-0.1099 0.0000 (  5707 PWs)   bands (ev):

   -45.1856 -23.6704 -23.4234 -23.1065 -20.4603 -12.1255  -2.9603  -2.5218
    -2.4524  -1.9025  -0.6223   0.2831   3.7974   6.2723   6.7627   7.4184
     7.9383   9.3290  10.2979  11.5645  12.3166  12.7768  14.0208  14.6869
    15.4892  16.5580

          k = 0.4375-0.0366 0.0000 (  5722 PWs)   bands (ev):

   -45.1866 -23.6390 -23.4177 -23.1414 -20.4558 -12.1420  -2.8976  -2.5398
    -2.4600  -1.6841  -0.6507  -0.0071   3.9753   6.0278   6.8154   7.2381
     7.9430   9.3386  10.4091  11.7790  12.5843  12.9659  14.1759  14.7786
    15.1115  16.1567

          k =-0.5000-0.2931 0.0000 (  5692 PWs)   bands (ev):

   -45.1788 -23.7675 -23.4129 -23.0615 -20.4701 -12.0141  -3.1407  -2.5828
    -2.4048  -2.3474  -0.5599   0.7271   3.4708   6.5566   7.0141   7.6478
     8.4224   9.7798  10.2025  11.3041  11.8038  12.5531  13.5219  14.2995
    14.9694  15.5765

          k =-0.5000-0.2198 0.0000 (  5697 PWs)   bands (ev):

   -45.1788 -23.7536 -23.4125 -23.0797 -20.4670 -12.0148  -3.1027  -2.6002
    -2.4266  -2.2673  -0.5654   0.5599   3.5671   6.5565   7.0227   7.5734
     8.2396   9.9007  10.3213  11.3657  11.9750  12.5991  13.4294  14.4027
    15.0228  15.5526

          k =-0.5000-0.1465 0.0000 (  5713 PWs)   bands (ev):

   -45.1788 -23.7168 -23.4111 -23.1271 -20.4596 -12.0163  -3.0163  -2.6225
    -2.4325  -2.1092  -0.5816   0.1613   3.7942   6.5492   6.8841   7.4932
     7.9791  10.0888  10.5000  11.6995  12.3020  12.7571  13.3486  14.4301
    15.0916  15.8484

          k =-0.5000-0.0733 0.0000 (  5710 PWs)   bands (ev):

   -45.1788 -23.6739 -23.4083 -23.1819 -20.4523 -12.0178  -2.9452  -2.6211
    -2.4267  -1.9078  -0.6175  -0.2529   4.0379   6.3577   6.7973   7.4051
     7.9112  10.1900  10.6261  12.0988  12.5309  13.0467  13.6261  14.3281
    15.1755  15.9967

          k =-0.5000-0.0000 0.0000 (  5716 PWs)   bands (ev):

   -45.1788 -23.6535 -23.4062 -23.2082 -20.4493 -12.0185  -2.9227  -2.6139
    -2.4222  -1.7870  -0.6729  -0.4170   4.1532   6.1994   6.8347   7.3250
     7.9288  10.2134  10.6873  12.1499  12.6165  13.3683  13.9414  14.4385
    14.9159  15.5018

     highest occupied, lowest unoccupied level (ev):     4.4512    5.6008

!    total energy              =    -571.23403196 Ry
     total all-electron energy =    -12610.611443 Ry
     estimated scf accuracy    <          6.6E-10 Ry

     The total energy is the sum of the following terms:
     one-electron contribution =    -279.61630969 Ry
     hartree contribution      =     148.45117865 Ry
     xc contribution           =     -36.37114698 Ry
     ewald contribution        =      -6.84106223 Ry
     one-center paw contrib.   =    -396.85669171 Ry

     convergence has been achieved in   6 iterations

     negative rho (up, down):  2.820E-05 0.000E+00

     Forces acting on atoms (cartesian axes, Ry/au):

     atom    1 type  1   force =     0.00000000   -0.00026881    0.00015262
     atom    2 type  2   force =     0.00000000   -0.00028361    0.00028901
     atom    3 type  3   force =     0.00000000    0.00055242   -0.00044163
     The non-local contrib.  to forces
     atom    1 type  1   force =     0.00000000   -0.00285771   -0.02410986
     atom    2 type  2   force =     0.00000000   -0.02056339   -1.02080245
     atom    3 type  3   force =     0.00000000   -0.00093204    0.21114511
     The ionic contribution  to forces
     atom    1 type  1   force =    -0.00000001   -0.15490889   -0.66944992
     atom    2 type  2   force =     0.00000001    0.11053750   25.03899958
     atom    3 type  3   force =     0.00000000    0.04437139  -24.36954966
     The local contribution  to forces
     atom    1 type  1   force =    -0.00000000    0.15736934    0.68961047
     atom    2 type  2   force =     0.00000027   -0.09032844  -24.02121556
     atom    3 type  3   force =    -0.00000000   -0.04275557   24.16041693
     The core correction contribution to forces
     atom    1 type  1   force =     0.00000000    0.00011925    0.00403505
     atom    2 type  2   force =     0.00000000    0.00006713    0.00330579
     atom    3 type  3   force =    -0.00000000   -0.00013718   -0.00242796
     The Hubbard contrib.    to forces
     atom    1 type  1   force =     0.00000000    0.00000000    0.00000000
     atom    2 type  2   force =     0.00000000    0.00000000    0.00000000
     atom    3 type  3   force =     0.00000000    0.00000000    0.00000000
     The SCF correction term to forces
     atom    1 type  1   force =    -0.00000000    0.00000548    0.00006319
     atom    2 type  2   force =    -0.00000000   -0.00000013   -0.00000205
     atom    3 type  3   force =     0.00000000    0.00000210   -0.00002974

     Total force =     0.000872     Total SCF correction =     0.000070
     Energy error            =      7.9E-06 Ry
     Gradient error          =      5.5E-04 Ry/Bohr

     number of scf cycles    =   5
     number of bfgs steps    =   4

     energy             old  =    -571.2340241086 Ry
     energy             new  =    -571.2340319609 Ry

     CASE: energy            _new < energy            _old

     new trust radius        =       0.0008828016 bohr
     new conv_thr            =            1.0E-10 Ry


ATOMIC_POSITIONS (angstrom)
Zr            0.0000000000        0.0177247842       10.1024724529
F            -0.0000000020        1.9221414865       11.4187160816
Br           -0.0000000020        1.9219414925        8.1969901786



     Writing config-only to output data dir ./tmp/ZrFBr.save/
     NEW-OLD atomic charge density approx. for the potential

     Check: negative core charge=   -0.000002

     negative rho (up, down):  2.815E-05 0.000E+00

     total cpu time spent up to now is       61.7 secs

     Self-consistent Calculation

     iteration #  1     ecut=    65.00 Ry     beta= 0.70
     Davidson diagonalization with overlap
     ethr =  1.00E-06,  avg # of iterations =  2.0

     Threshold (ethr) on eigenvalues was too large:
     Diagonalizing with lowered threshold

     Davidson diagonalization with overlap
     ethr =  4.36E-10,  avg # of iterations =  4.0

     negative rho (up, down):  2.814E-05 0.000E+00

     total cpu time spent up to now is       64.8 secs

     total energy              =    -571.23403267 Ry
     estimated scf accuracy    <       0.00000013 Ry

     iteration #  2     ecut=    65.00 Ry     beta= 0.70
     Davidson diagonalization with overlap
     ethr =  5.03E-10,  avg # of iterations =  2.0

     negative rho (up, down):  2.817E-05 0.000E+00

     total cpu time spent up to now is       66.2 secs

     total energy              =    -571.23403265 Ry
     estimated scf accuracy    <       0.00000041 Ry

     iteration #  3     ecut=    65.00 Ry     beta= 0.70
     Davidson diagonalization with overlap
     ethr =  5.03E-10,  avg # of iterations =  2.0

     negative rho (up, down):  2.818E-05 0.000E+00

     total cpu time spent up to now is       67.5 secs

     total energy              =    -571.23403273 Ry
     estimated scf accuracy    <       0.00000001 Ry

     iteration #  4     ecut=    65.00 Ry     beta= 0.70
     Davidson diagonalization with overlap
     ethr =  4.21E-11,  avg # of iterations =  2.0

     negative rho (up, down):  2.819E-05 0.000E+00

     total cpu time spent up to now is       68.8 secs

     total energy              =    -571.23403273 Ry
     estimated scf accuracy    <          1.2E-09 Ry

     iteration #  5     ecut=    65.00 Ry     beta= 0.70
     Davidson diagonalization with overlap
     ethr =  4.73E-12,  avg # of iterations =  2.0

     negative rho (up, down):  2.819E-05 0.000E+00

     total cpu time spent up to now is       70.2 secs

     total energy              =    -571.23403273 Ry
     estimated scf accuracy    <          2.5E-10 Ry

     iteration #  6     ecut=    65.00 Ry     beta= 0.70
     Davidson diagonalization with overlap
     ethr =  9.62E-13,  avg # of iterations =  2.0

     negative rho (up, down):  2.819E-05 0.000E+00

     total cpu time spent up to now is       71.5 secs

     End of self-consistent calculation

          k = 0.0000 0.0000 0.0000 (  5617 PWs)   bands (ev):

   -45.2448 -23.7490 -22.9501 -22.9272 -20.5645 -12.9212  -3.0748  -2.3649
    -2.3330  -1.0809   1.5390   1.6473   3.8100   5.8450   6.0302   6.0985
     6.9442   7.0222   8.0746   8.9919  11.2957  14.1861  14.7673  15.0470
    15.4402  17.4010

          k = 0.0000 0.0733 0.0000 (  5647 PWs)   bands (ev):

   -45.2422 -23.7395 -22.9614 -22.9556 -20.5555 -12.8906  -3.0387  -2.3734
    -2.3653  -1.0563   1.4081   1.4939   3.8332   5.8930   5.9531   6.1941
     6.9620   6.9967   8.2126   9.2187  11.4449  14.2542  14.6032  14.9091
    15.3316  17.6870

          k = 0.0000 0.1465 0.0000 (  5692 PWs)   bands (ev):

   -45.2347 -23.7127 -23.0550 -22.9714 -20.5332 -12.8016  -2.9421  -2.4754
    -2.3675  -0.9974   0.8089   1.3701   3.8742   5.8124   6.0464   6.2955
     7.0248   7.1327   8.5746   9.6944  11.8709  13.8554  14.2852  15.1887
    15.3305  17.7819

          k = 0.0000 0.2198 0.0000 (  5710 PWs)   bands (ev):

   -45.2236 -23.6745 -23.1856 -22.9949 -20.5073 -12.6627  -2.8274  -2.5898
    -2.3741  -0.9374   0.0621   1.1964   3.8663   5.7443   6.3177   6.3403
     7.3076   7.3372   9.0614  10.1690  12.2417  13.4908  13.9248  15.6000
    16.0151  17.4617

          k = 0.0000 0.2931 0.0000 (  5708 PWs)   bands (ev):

   -45.2104 -23.6379 -23.3207 -23.0224 -20.4868 -12.4890  -2.8211  -2.5998
    -2.3868  -1.0064  -0.5649   1.0072   3.7780   5.8224   6.4837   6.6972
     7.4882   7.7613   9.5493  10.5572  12.0654  13.1236  14.5044  16.1760
    16.8058  16.8363

          k = 0.0000 0.3663 0.0000 (  5708 PWs)   bands (ev):

   -45.1972 -23.6349 -23.4126 -23.0498 -20.4755 -12.3030  -2.9204  -2.5269
    -2.4045  -1.5325  -0.6481   0.8326   3.6603   5.9997   6.7406   7.1232
     7.6820   8.2580   9.8909  10.8285  11.9521  12.8088  15.1848  15.5920
    16.5294  16.7733

          k = 0.0000 0.4396 0.0000 (  5704 PWs)   bands (ev):

   -45.1859 -23.6893 -23.4270 -23.0728 -20.4723 -12.1340  -3.0183  -2.4945
    -2.4231  -2.0358  -0.5933   0.6945   3.5721   6.2169   6.9715   7.4367
     7.9702   8.8413  10.0383  11.0322  12.0822  12.7693  14.1289  15.4670
    16.0053  16.0234

          k = 0.0000 0.5129 0.0000 (  5718 PWs)   bands (ev):

   -45.1784 -23.7471 -23.4122 -23.0882 -20.4730 -12.0144  -3.0963  -2.5430
    -2.4373  -2.2954  -0.5457   0.6068   3.5287   6.4332   7.0292   7.5652
     8.3057   9.4789  10.1518  11.1849  12.1700  12.7658  13.4258  14.8740
    15.2833  15.5543

          k = 0.0000-0.5861 0.0000 (  5730 PWs)   bands (ev):

   -45.1757 -23.7692 -23.4045 -23.0935 -20.4739 -11.9709  -3.1299  -2.5979
    -2.4426  -2.3433  -0.5280   0.5768   3.5174   6.5490   6.9926   7.5980
     8.4528   9.8419  10.2044  11.3208  11.9284  12.6372  13.5798  14.3747
    15.0922  15.3705

          k = 0.0625 0.0366 0.0000 (  5641 PWs)   bands (ev):

   -45.2423 -23.7399 -22.9795 -22.9360 -20.5557 -12.8919  -3.0395  -2.3987
    -2.3381  -1.0577   1.3254   1.5852   3.8297   5.8001   6.0539   6.1922
     6.9101   7.0606   8.2056   9.2100  11.4395  14.2543  14.4455  15.1216
    15.3126  17.6245

          k = 0.0625 0.1099 0.0000 (  5653 PWs)   bands (ev):

   -45.2373 -23.7217 -23.0315 -22.9585 -20.5400 -12.8321  -2.9727  -2.4529
    -2.3565  -1.0160   0.9663   1.4428   3.8616   5.7863   6.0637   6.2900
     6.9301   7.1354   8.4566   9.5563  11.7362  14.0019  14.3083  15.0768
    15.3635  17.7552

          k = 0.0625 0.1832 0.0000 (  5690 PWs)   bands (ev):

   -45.2280 -23.6891 -23.1371 -22.9846 -20.5161 -12.7180  -2.8619  -2.5561
    -2.3701  -0.9556   0.3399   1.2478   3.8833   5.7032   6.2565   6.3582
     7.0989   7.3209   8.8825  10.0182  12.2467  13.4679  13.9883  15.2713
    15.9354  17.3784

          k = 0.0625 0.2564 0.0000 (  5702 PWs)   bands (ev):

   -45.2159 -23.6506 -23.2661 -23.0147 -20.4933 -12.5613  -2.7831  -2.6287
    -2.3867  -0.9273  -0.3444   1.0273   3.8456   5.7153   6.3937   6.6433
     7.3403   7.6248   9.3742  10.4532  12.3423  13.2922  13.8828  15.7915
    16.6676  16.9736

          k = 0.0625 0.3297 0.0000 (  5699 PWs)   bands (ev):

   -45.2026 -23.6267 -23.3791 -23.0464 -20.4778 -12.3807  -2.8569  -2.5623
    -2.4092  -1.2432  -0.6560   0.8124   3.7562   5.8769   6.5432   7.0576
     7.5586   8.0715   9.8037  10.8114  12.0868  12.9303  14.7667  15.8311
    16.3824  16.7590

          k = 0.0625 0.4030 0.0000 (  5708 PWs)   bands (ev):

   -45.1904 -23.6548 -23.4260 -23.0753 -20.4709 -12.2018  -2.9568  -2.5014
    -2.4363  -1.7863  -0.6233   0.6295   3.6705   6.1211   6.7607   7.3617
     7.8140   8.6593  10.0586  11.0668  12.0717  12.7631  14.7021  15.3072
    15.9692  16.7474

          k = 0.0625 0.4762 0.0000 (  5709 PWs)   bands (ev):

   -45.1810 -23.7158 -23.4179 -23.0973 -20.4699 -12.0558  -3.0404  -2.5315
    -2.4445  -2.1526  -0.5683   0.4976   3.6216   6.3683   6.9439   7.4968
     8.0774   9.3692  10.1974  11.2313  12.2109  12.8310  13.6528  14.9428
    15.4330  16.0381

          k = 0.0625 0.5495 0.0000 (  5712 PWs)   bands (ev):

   -45.1759 -23.7561 -23.4046 -23.1092 -20.4708 -11.9731  -3.0946  -2.6203
    -2.4431  -2.2786  -0.5351   0.4287   3.6050   6.5490   6.9982   7.5371
     8.2621   9.9764  10.3307  11.3608  12.0755  12.6838  13.4841  14.4522
    15.1039  15.4460

          k = 0.1250 0.0733 0.0000 (  5663 PWs)   bands (ev):

   -45.2354 -23.7143 -23.0688 -22.9518 -20.5334 -12.8065  -2.9449  -2.4944
    -2.3416  -1.0022   0.7430   1.4655   3.8589   5.7102   6.1791   6.2855
     6.9981   7.1890   8.5540   9.6777  11.8515  13.7982  14.2403  15.1606
    15.5223  17.7450

          k = 0.1250 0.1465 0.0000 (  5670 PWs)   bands (ev):

   -45.2285 -23.6903 -23.1435 -22.9738 -20.5162 -12.7217  -2.8638  -2.5643
    -2.3570  -0.9591   0.3046   1.3066   3.8690   5.6798   6.3036   6.3499
     7.0959   7.3396   8.8700  10.0108  12.2343  13.4434  13.9646  15.2635
    16.0093  17.4054

          k = 0.1250 0.2198 0.0000 (  5692 PWs)   bands (ev):

   -45.2182 -23.6567 -23.2463 -23.0082 -20.4957 -12.5896  -2.7655  -2.6451
    -2.3833  -0.9197  -0.2394   1.0332   3.8704   5.6366   6.4210   6.6566
     7.2382   7.6024   9.3044  10.4248  12.8075  13.0284  13.5582  15.5830
    16.6698  16.9463

          k = 0.1250 0.2931 0.0000 (  5690 PWs)   bands (ev):

   -45.2060 -23.6268 -23.3500 -23.0493 -20.4785 -12.4250  -2.7924  -2.6049
    -2.4188  -1.0534  -0.6392   0.7243   3.8514   5.7083   6.5284   7.0305
     7.4660   7.9992   9.7536  10.8525  12.5628  13.0335  13.8433  15.6447
    16.4500  16.9157

          k = 0.1250 0.3663 0.0000 (  5703 PWs)   bands (ev):

   -45.1937 -23.6292 -23.4141 -23.0907 -20.4681 -12.2495  -2.8832  -2.5221
    -2.4609  -1.5223  -0.6531   0.4413   3.8232   5.9341   6.6498   7.2452
     7.7715   8.5976  10.1177  11.2467  12.3335  12.8113  14.6601  15.1000
    15.7372  16.7480

          k = 0.1250 0.4396 0.0000 (  5696 PWs)   bands (ev):

   -45.1833 -23.6753 -23.4193 -23.1258 -20.4640 -12.0908  -2.9611  -2.5458
    -2.4552  -1.9241  -0.6003   0.2187   3.8095   6.2594   6.7589   7.3793
     7.9576   9.3849  10.3561  11.5237  12.3156  12.8144  14.0982  14.6903
    15.5557  16.5680

          k = 0.1250 0.5129 0.0000 (  5713 PWs)   bands (ev):

   -45.1764 -23.7217 -23.4047 -23.1495 -20.4636 -11.9789  -3.0145  -2.6462
    -2.4372  -2.1287  -0.5570   0.0767   3.8132   6.5408   6.8729   7.4580
     8.0030  10.1664  10.5612  11.6327  12.3334  12.8394  13.4007  14.4244
    15.1544  15.8606

          k = 0.1250 0.5861 0.0000 (  5714 PWs)   bands (ev):

   -45.1739 -23.7395 -23.3975 -23.1578 -20.4638 -11.9384  -3.0345  -2.7001
    -2.4339  -2.1791  -0.5408   0.0278   3.8180   6.6255   6.9747   7.4544
     8.0098  10.3891  10.9109  11.7183  12.0170  12.6668  13.5143  14.2981
    15.1149  15.3182

          k = 0.1250 0.0000 0.0000 (  5658 PWs)   bands (ev):

   -45.2378 -23.7229 -23.0411 -22.9446 -20.5402 -12.8357  -2.9748  -2.4676
    -2.3368  -1.0196   0.9275   1.4991   3.8538   5.7010   6.1650   6.2871
     6.9390   7.1535   8.4391   9.5427  11.7241  13.9431  14.2892  15.0979
    15.4867  17.7478

          k = 0.1875 0.1099 0.0000 (  5672 PWs)   bands (ev):

   -45.2249 -23.6778 -23.1952 -22.9734 -20.5074 -12.6734  -2.8323  -2.6035
    -2.3471  -0.9475   0.0111   1.3043   3.8340   5.6956   6.3127   6.4364
     7.3116   7.3656   9.0283  10.1542  12.2240  13.4502  13.8686  15.5581
    16.1826  17.4875

          k = 0.1875 0.1832 0.0000 (  5689 PWs)   bands (ev):

   -45.2170 -23.6536 -23.2731 -22.9972 -20.4933 -12.5710  -2.7881  -2.6363
    -2.3665  -0.9392  -0.3836   1.1234   3.8124   5.7081   6.3946   6.6828
     7.3633   7.6250   9.3494  10.4469  12.3420  13.2593  13.8128  15.7532
    16.7631  17.0026

          k = 0.1875 0.2564 0.0000 (  5701 PWs)   bands (ev):

   -45.2067 -23.6287 -23.3531 -23.0400 -20.4784 -12.4310  -2.7961  -2.6060
    -2.4094  -1.0688  -0.6500   0.7763   3.8320   5.7123   6.5298   7.0397
     7.4830   7.9941   9.7412  10.8535  12.5757  13.0336  13.7700  15.6410
    16.4086  16.8826

          k = 0.1875 0.3297 0.0000 (  5695 PWs)   bands (ev):

   -45.1954 -23.6220 -23.4072 -23.0942 -20.4666 -12.2709  -2.8474  -2.5389
    -2.4660  -1.4077  -0.6726   0.3674   3.8890   5.8040   6.7028   7.1406
     7.7875   8.5783  10.1338  11.3242  12.6845  12.8773  14.0706  14.9241
    16.0249  16.5515

          k = 0.1875 0.4030 0.0000 (  5700 PWs)   bands (ev):

   -45.1850 -23.6471 -23.4175 -23.1492 -20.4594 -12.1140  -2.9033  -2.5584
    -2.4610  -1.7307  -0.6376  -0.0031   3.9634   6.0273   6.8213   7.1915
     7.9754   9.3889  10.4704  11.7804  12.5934  12.8685  14.1881  14.8050
    15.1180  16.1302

          k = 0.1875 0.4762 0.0000 (  5711 PWs)   bands (ev):

   -45.1771 -23.6825 -23.4044 -23.1937 -20.4562 -11.9871  -2.9493  -2.6435
    -2.4282  -1.9419  -0.6074  -0.2707   4.0344   6.3529   6.8093   7.3532
     7.9484  10.2529  10.7268  12.0578  12.5138  13.0145  13.6823  14.3171
    15.2179  15.9205

          k = 0.1875 0.5495 0.0000 (  5709 PWs)   bands (ev):

   -45.1728 -23.7047 -23.3925 -23.2187 -20.4552 -11.9158  -2.9759  -2.7094
    -2.4162  -2.0315  -0.5997  -0.4011   4.0794   6.6073   6.8273   7.4786
     7.8034  10.5867  11.3456  12.1062  12.3608  12.7723  13.5375  14.3887
    14.9717  15.5920

          k = 0.1875-0.0366 0.0000 (  5677 PWs)   bands (ev):

   -45.2292 -23.6918 -23.1445 -22.9671 -20.5161 -12.7273  -2.8662  -2.5688
    -2.3459  -0.9640   0.3087   1.3175   3.8648   5.6324   6.3321   6.3881
     7.1402   7.3148   8.8492  10.0027  12.2275  13.4471  13.9600  15.2782
    16.0510  17.3951

          k = 0.2500 0.1465 0.0000 (  5688 PWs)   bands (ev):

   -45.2125 -23.6431 -23.3266 -22.9984 -20.4863 -12.5072  -2.8279  -2.6078
    -2.3574  -1.0301  -0.5936   1.1290   3.7345   5.8127   6.4565   6.7843
     7.5362   7.7410   9.5082  10.5505  12.0631  13.0840  14.4101  16.0980
    16.6809  16.9861

          k = 0.2500 0.2198 0.0000 (  5700 PWs)   bands (ev):

   -45.2046 -23.6318 -23.3847 -23.0239 -20.4772 -12.3980  -2.8638  -2.5664
    -2.3843  -1.2755  -0.6749   0.9327   3.7118   5.8811   6.5395   7.0947
     7.5987   8.0541   9.7716  10.8154  12.0844  12.8945  14.6448  15.7285
    16.3532  16.7796

          k = 0.2500 0.2931 0.0000 (  5710 PWs)   bands (ev):

   -45.1952 -23.6331 -23.4180 -23.0741 -20.4674 -12.2633  -2.8884  -2.5186
    -2.4489  -1.5473  -0.6647   0.5282   3.7915   5.9397   6.6506   7.2630
     7.7911   8.5874  10.0977  11.2612  12.3393  12.8015  14.5716  15.0115
    15.6715  16.7326

          k = 0.2500 0.3663 0.0000 (  5716 PWs)   bands (ev):

   -45.1859 -23.6488 -23.4196 -23.1408 -20.4588 -12.1217  -2.9054  -2.5495
    -2.4631  -1.7417  -0.6423   0.0378   3.9492   6.0273   6.8235   7.1981
     7.9809   9.3838  10.4604  11.7943  12.5909  12.9015  14.1793  14.6824
    15.0603  16.1955

          k = 0.2500 0.4396 0.0000 (  5707 PWs)   bands (ev):

   -45.1779 -23.6650 -23.4050 -23.2097 -20.4526 -11.9957  -2.9285  -2.6320
    -2.4239  -1.8412  -0.6657  -0.3825   4.1319   6.1981   6.8594   7.2686
     7.9713  10.2644  10.7880  12.1382  12.6660  13.2533  13.9146  14.4130
    14.8966  15.4738

          k = 0.2500 0.5129 0.0000 (  5710 PWs)   bands (ev):

   -45.1726 -23.6728 -23.3907 -23.2628 -20.4490 -11.9082  -2.9645  -2.6661
    -2.3990  -1.8699  -0.8639  -0.5126   4.2766   6.4489   6.7686   7.4482
     7.8018  10.6731  11.3851  12.0817  12.9962  13.4192  13.6291  14.1821
    14.8785  15.4625

          k = 0.2500 0.5861 0.0000 (  5698 PWs)   bands (ev):

   -45.1707 -23.6745 -23.3850 -23.2831 -20.4479 -11.8768  -2.9837  -2.6694
    -2.3909  -1.8701  -0.9807  -0.5214   4.3315   6.6032   6.7302   7.4871
     7.7084  10.6557  12.0238  12.2970  12.3950  13.3364  13.8121  14.2814
    14.8905  15.5449

          k = 0.2500-0.0733 0.0000 (  5684 PWs)   bands (ev):

   -45.2178 -23.6550 -23.2694 -22.9953 -20.4927 -12.5780  -2.7884  -2.6366
    -2.3603  -0.9415  -0.3628   1.1078   3.8180   5.6850   6.3990   6.7178
     7.3900   7.6019   9.3309  10.4425  12.3528  13.2706  13.8487  15.7749
    16.6954  16.9862

          k = 0.2500 0.0000 0.0000 (  5696 PWs)   bands (ev):

   -45.2197 -23.6598 -23.2443 -22.9986 -20.4949 -12.6024  -2.7687  -2.6482
    -2.3669  -0.9287  -0.2240   1.0473   3.8646   5.5992   6.4401   6.7094
     7.2805   7.5773   9.2690  10.4157  12.8101  13.0634  13.5608  15.5787
    16.6318  16.9551

          k = 0.3125 0.1832 0.0000 (  5705 PWs)   bands (ev):

   -45.2001 -23.6401 -23.4171 -23.0231 -20.4740 -12.3296  -2.9266  -2.5306
    -2.3720  -1.5554  -0.6700   0.9668   3.6138   6.0078   6.7186   7.1783
     7.7290   8.2285   9.8510  10.8356  11.9348  12.7628  15.0185  15.4968
    16.6323  16.7125

          k = 0.3125 0.2564 0.0000 (  5710 PWs)   bands (ev):

   -45.1932 -23.6594 -23.4315 -23.0491 -20.4693 -12.2276  -2.9640  -2.4998
    -2.4096  -1.8104  -0.6444   0.7641   3.6233   6.1302   6.7497   7.4004
     7.8444   8.6356  10.0296  11.0861  12.0475  12.7162  14.5517  15.2397
    15.9573  16.6960

          k = 0.3125 0.3297 0.0000 (  5712 PWs)   bands (ev):

   -45.1857 -23.6786 -23.4245 -23.1045 -20.4624 -12.1131  -2.9669  -2.5248
    -2.4563  -1.9395  -0.6174   0.3236   3.7742   6.2633   6.7543   7.4041
     7.9688   9.3684  10.3352  11.5675  12.3018  12.7841  13.9877  14.6674
    15.4444  16.5173

          k = 0.3125 0.4030 0.0000 (  5714 PWs)   bands (ev):

   -45.1787 -23.6839 -23.4083 -23.1797 -20.4546 -12.0033  -2.9508  -2.6337
    -2.4284  -1.9485  -0.6134  -0.2113   4.0155   6.3455   6.8106   7.3655
     7.9548  10.2301  10.7117  12.1052  12.5398  13.0146  13.5737  14.3207
    15.1074  15.9896

          k = 0.3125 0.4762 0.0000 (  5702 PWs)   bands (ev):

   -45.1734 -23.6726 -23.3928 -23.2569 -20.4480 -11.9166  -2.9626  -2.6634
    -2.3984  -1.8719  -0.8405  -0.5145   4.2719   6.4400   6.7672   7.4540
     7.8072  10.6488  11.3805  12.1005  12.9655  13.4601  13.5899  14.2513
    14.8390  15.4341

          k = 0.3125 0.5495 0.0000 (  5687 PWs)   bands (ev):

   -45.1705 -23.6565 -23.3840 -23.3093 -20.4443 -11.8687  -2.9945  -2.6337
    -2.3762  -1.7214  -1.2416  -0.5341   4.4444   6.5725   6.6876   7.4036
     7.7749  10.6264  12.0191  12.2852  13.0352  13.2892  14.0032  14.2642
    14.9866  15.6102

          k = 0.3125-0.1099 0.0000 (  5705 PWs)   bands (ev):

   -45.2054 -23.6315 -23.3804 -23.0246 -20.4761 -12.4054  -2.8606  -2.5672
    -2.3800  -1.2537  -0.6733   0.9062   3.7254   5.8769   6.5433   7.1004
     7.6003   8.0447   9.7572  10.8124  12.0996  12.9035  14.7118  15.7404
    16.3510  16.7417

          k = 0.3125-0.0366 0.0000 (  5695 PWs)   bands (ev):

   -45.2083 -23.6302 -23.3460 -23.0374 -20.4767 -12.4456  -2.7921  -2.6083
    -2.3985  -1.0469  -0.6376   0.7500   3.8446   5.6934   6.5487   7.0593
     7.4927   7.9764   9.7100  10.8460  12.6116  13.0532  13.8410  15.6151
    16.3648  16.8654

          k = 0.3750 0.2198 0.0000 (  5699 PWs)   bands (ev):

   -45.1896 -23.6914 -23.4338 -23.0439 -20.4696 -12.1685  -3.0252  -2.4918
    -2.3875  -2.0477  -0.6201   0.8382   3.5254   6.2298   6.9624   7.4781
     7.9943   8.8017  10.0061  11.0421  12.0384  12.7035  13.9952  15.3725
    15.8761  16.1871

          k = 0.3750 0.2931 0.0000 (  5704 PWs)   bands (ev):

   -45.1845 -23.7177 -23.4252 -23.0689 -20.4672 -12.0895  -3.0490  -2.5144
    -2.4279  -2.1601  -0.5944   0.6381   3.5757   6.3820   6.9291   7.5424
     8.0790   9.3402  10.1761  11.2522  12.1557  12.7569  13.5433  14.9138
    15.3451  16.0758

          k = 0.3750 0.3663 0.0000 (  5697 PWs)   bands (ev):

   -45.1794 -23.7225 -23.4115 -23.1259 -20.4608 -12.0090  -3.0208  -2.6279
    -2.4334  -2.1262  -0.5791   0.1855   3.7802   6.5537   6.8525   7.4928
     7.9988  10.1230  10.5555  11.6973  12.2668  12.7656  13.3465  14.4027
    15.0610  15.8413

          k = 0.3750 0.4396 0.0000 (  5694 PWs)   bands (ev):

   -45.1751 -23.7035 -23.3980 -23.2028 -20.4525 -11.9396  -2.9750  -2.6981
    -2.4139  -2.0255  -0.5991  -0.3503   4.0637   6.6111   6.8041   7.5063
     7.8014  10.5290  11.3370  12.1389  12.3294  12.7874  13.4924  14.3559
    14.9350  15.5361

          k = 0.3750 0.5129 0.0000 (  5693 PWs)   bands (ev):

   -45.1722 -23.6710 -23.3886 -23.2760 -20.4458 -11.8927  -2.9790  -2.6621
    -2.3888  -1.8588  -0.9540  -0.5327   4.3320   6.6118   6.6992   7.4916
     7.7208  10.6075  12.0405  12.2369  12.3259  13.4693  13.8426  14.2823
    14.8560  15.4987

          k = 0.3750 0.5861 0.0000 (  5692 PWs)   bands (ev):

   -45.1712 -23.6528 -23.3853 -23.3088 -20.4432 -11.8761  -2.9919  -2.6284
    -2.3748  -1.6963  -1.2533  -0.5408   4.4507   6.5853   6.6655   7.3977
     7.7827  10.6022  12.0380  12.1593  13.1156  13.2810  14.1187  14.2172
    14.9611  15.5968

          k = 0.3750-0.1465 0.0000 (  5717 PWs)   bands (ev):

   -45.1939 -23.6560 -23.4304 -23.0509 -20.4681 -12.2344  -2.9597  -2.5009
    -2.4060  -1.7867  -0.6471   0.7375   3.6389   6.1349   6.7616   7.3893
     7.8368   8.6203  10.0152  11.0852  12.0548  12.7170  14.5694  15.2835
    15.9117  16.7377

          k = 0.3750-0.0733 0.0000 (  5710 PWs)   bands (ev):

   -45.1968 -23.6290 -23.4137 -23.0758 -20.4652 -12.2777  -2.8812  -2.5215
    -2.4390  -1.5009  -0.6693   0.4857   3.8149   5.9368   6.6604   7.2739
     7.7706   8.5646  10.0686  11.2528  12.3688  12.8143  14.6491  15.0268
    15.6974  16.6937

          k = 0.3750 0.0000 0.0000 (  5700 PWs)   bands (ev):

   -45.1978 -23.6198 -23.4022 -23.0904 -20.4637 -12.2928  -2.8408  -2.5399
    -2.4515  -1.3600  -0.6803   0.3461   3.9041   5.7950   6.7190   7.1608
     7.7722   8.5504  10.0911  11.3141  12.6939  12.9686  14.1086  14.8925
    16.0206  16.4780

          k = 0.4375 0.2564 0.0000 (  5681 PWs)   bands (ev):

   -45.1825 -23.7467 -23.4209 -23.0577 -20.4695 -12.0547  -3.1054  -2.5310
    -2.3995  -2.3016  -0.5762   0.7563   3.4818   6.4441   7.0381   7.6112
     8.2916   9.4292  10.1266  11.1825  12.0840  12.6643  13.3553  14.7913
    15.1573  15.7504

          k = 0.4375 0.3297 0.0000 (  5704 PWs)   bands (ev):

   -45.1799 -23.7555 -23.4133 -23.0801 -20.4673 -12.0123  -3.1040  -2.6008
    -2.4266  -2.2711  -0.5646   0.5680   3.5621   6.5605   7.0008   7.5820
     8.2374   9.9227  10.3319  11.3655  11.9565  12.6024  13.4409  14.3833
    15.0021  15.5679

          k = 0.4375 0.4030 0.0000 (  5693 PWs)   bands (ev):

   -45.1774 -23.7374 -23.4053 -23.1344 -20.4601 -11.9737  -3.0393  -2.6793
    -2.4276  -2.1648  -0.5656   0.1291   3.7907   6.6350   6.9698   7.4892
     7.9902  10.3160  10.9075  11.7765  11.9050  12.6218  13.4814  14.2335
    15.0522  15.3395

          k = 0.4375 0.4762 0.0000 (  5702 PWs)   bands (ev):

   -45.1755 -23.6996 -23.3986 -23.2043 -20.4516 -11.9445  -2.9730  -2.6914
    -2.4130  -2.0117  -0.5994  -0.3673   4.0720   6.6165   6.8052   7.5202
     7.7775  10.5149  11.2430  12.1584  12.3795  12.7933  13.4848  14.3626
    14.9539  15.5633

          k = 0.4375 0.5495 0.0000 (  5701 PWs)   bands (ev):

   -45.1745 -23.6646 -23.3943 -23.2587 -20.4460 -11.9290  -2.9590  -2.6503
    -2.3963  -1.8333  -0.8588  -0.5319   4.2876   6.4503   6.7475   7.4778
     7.7792  10.6188  11.2548  12.1218  12.9511  13.4973  13.6895  14.2086
    14.8628  15.4713

          k = 0.4375-0.1832 0.0000 (  5711 PWs)   bands (ev):

   -45.1849 -23.7141 -23.4255 -23.0706 -20.4663 -12.0943  -3.0450  -2.5139
    -2.4263  -2.1448  -0.5966   0.6189   3.5875   6.3807   6.9580   7.5259
     8.0747   9.3097  10.1566  11.2555  12.1601  12.7487  13.5571  14.9434
    15.3364  16.0815

          k = 0.4375-0.1099 0.0000 (  5707 PWs)   bands (ev):

   -45.1868 -23.6709 -23.4244 -23.1076 -20.4602 -12.1248  -2.9597  -2.5214
    -2.4520  -1.9018  -0.6223   0.2842   3.7970   6.2708   6.7616   7.4171
     7.9373   9.3282  10.2964  11.5646  12.3160  12.7764  14.0204  14.6866
    15.4892  16.5566

          k = 0.4375-0.0366 0.0000 (  5722 PWs)   bands (ev):

   -45.1878 -23.6396 -23.4187 -23.1425 -20.4557 -12.1414  -2.8971  -2.5393
    -2.4596  -1.6833  -0.6507  -0.0062   3.9749   6.0263   6.8140   7.2374
     7.9418   9.3379  10.4072  11.7793  12.5839  12.9657  14.1751  14.7783
    15.1114  16.1567

          k =-0.5000-0.2931 0.0000 (  5692 PWs)   bands (ev):

   -45.1800 -23.7680 -23.4139 -23.0626 -20.4700 -12.0134  -3.1401  -2.5824
    -2.4043  -2.3469  -0.5598   0.7283   3.4702   6.5549   7.0132   7.6464
     8.4216   9.7780  10.2022  11.3032  11.8038  12.5523  13.5220  14.2988
    14.9692  15.5759

          k =-0.5000-0.2198 0.0000 (  5697 PWs)   bands (ev):

   -45.1800 -23.7541 -23.4136 -23.0807 -20.4669 -12.0140  -3.1021  -2.5997
    -2.4262  -2.2668  -0.5653   0.5611   3.5665   6.5548   7.0218   7.5719
     8.2387   9.8992  10.3209  11.3650  11.9747  12.5984  13.4293  14.4023
    15.0226  15.5518

          k =-0.5000-0.1465 0.0000 (  5713 PWs)   bands (ev):

   -45.1800 -23.7173 -23.4122 -23.1281 -20.4595 -12.0156  -3.0158  -2.6219
    -2.4321  -2.1087  -0.5815   0.1623   3.7937   6.5477   6.8832   7.4917
     7.9779  10.0879  10.4990  11.6993  12.3010  12.7569  13.3483  14.4299
    15.0916  15.8474

          k =-0.5000-0.0733 0.0000 (  5710 PWs)   bands (ev):

   -45.1800 -23.6744 -23.4093 -23.1830 -20.4522 -12.0171  -2.9447  -2.6206
    -2.4262  -1.9072  -0.6173  -0.2522   4.0374   6.3564   6.7959   7.4041
     7.9096  10.1896  10.6244  12.0987  12.5304  13.0463  13.6258  14.3279
    15.1756  15.9965

          k =-0.5000-0.0000 0.0000 (  5716 PWs)   bands (ev):

   -45.1800 -23.6540 -23.4072 -23.2093 -20.4492 -12.0178  -2.9221  -2.6134
    -2.4217  -1.7863  -0.6724  -0.4166   4.1528   6.1981   6.8331   7.3243
     7.9271  10.2132  10.6854  12.1498  12.6163  13.3679  13.9408  14.4383
    14.9156  15.5022

     highest occupied, lowest unoccupied level (ev):     4.4507    5.5992

!    total energy              =    -571.23403273 Ry
     total all-electron energy =    -12610.611444 Ry
     estimated scf accuracy    <          1.6E-11 Ry

     The total energy is the sum of the following terms:
     one-electron contribution =    -279.54630658 Ry
     hartree contribution      =     148.41580191 Ry
     xc contribution           =     -36.37076739 Ry
     ewald contribution        =      -6.87608824 Ry
     one-center paw contrib.   =    -396.85667243 Ry

     convergence has been achieved in   6 iterations

     negative rho (up, down):  2.819E-05 0.000E+00

     Forces acting on atoms (cartesian axes, Ry/au):

     atom    1 type  1   force =     0.00000000   -0.00027709    0.00007373
     atom    2 type  2   force =     0.00000000   -0.00024291    0.00019932
     atom    3 type  3   force =     0.00000000    0.00051999   -0.00027305
     The non-local contrib.  to forces
     atom    1 type  1   force =     0.00000000   -0.00288014   -0.02408082
     atom    2 type  2   force =     0.00000000   -0.02073795   -1.02107605
     atom    3 type  3   force =     0.00000000   -0.00094603    0.21121485
     The ionic contribution  to forces
     atom    1 type  1   force =    -0.00000001   -0.15614958   -0.67175234
     atom    2 type  2   force =     0.00000001    0.11194265   25.03668772
     atom    3 type  3   force =     0.00000000    0.04420693  -24.36493538
     The local contribution  to forces
     atom    1 type  1   force =    -0.00000000    0.15863371    0.69187217
     atom    2 type  2   force =     0.00000027   -0.09151445  -24.01871736
     atom    3 type  3   force =    -0.00000000   -0.04260500   24.15588709
     The core correction contribution to forces
     atom    1 type  1   force =     0.00000000    0.00011906    0.00403233
     atom    2 type  2   force =     0.00000000    0.00006744    0.00330713
     atom    3 type  3   force =    -0.00000000   -0.00013544   -0.00244058
     The Hubbard contrib.    to forces
     atom    1 type  1   force =     0.00000000    0.00000000    0.00000000
     atom    2 type  2   force =     0.00000000    0.00000000    0.00000000
     atom    3 type  3   force =     0.00000000    0.00000000    0.00000000
     The SCF correction term to forces
     atom    1 type  1   force =    -0.00000000    0.00000009    0.00000083
     atom    2 type  2   force =    -0.00000000   -0.00000037   -0.00000366
     atom    3 type  3   force =     0.00000000   -0.00000025   -0.00000057

     Total force =     0.000725     Total SCF correction =     0.000004
     Energy error            =      7.7E-07 Ry
     Gradient error          =      5.2E-04 Ry/Bohr

     number of scf cycles    =   6
     number of bfgs steps    =   5

     energy             old  =    -571.2340319609 Ry
     energy             new  =    -571.2340327311 Ry

     CASE: energy            _new < energy            _old

     new trust radius        =       0.0009710818 bohr
     new conv_thr            =            1.0E-10 Ry


ATOMIC_POSITIONS (angstrom)
Zr           -0.0000000000        0.0176299143       10.1025440138
F            -0.0000000020        1.9218614499       11.4189959633
Br           -0.0000000020        1.9223163991        8.1966387359



     Writing config-only to output data dir ./tmp/ZrFBr.save/
     NEW-OLD atomic charge density approx. for the potential

     Check: negative core charge=   -0.000002

     negative rho (up, down):  2.814E-05 0.000E+00

     total cpu time spent up to now is       71.9 secs

     Self-consistent Calculation

     iteration #  1     ecut=    65.00 Ry     beta= 0.70
     Davidson diagonalization with overlap
     ethr =  1.00E-06,  avg # of iterations =  2.0

     Threshold (ethr) on eigenvalues was too large:
     Diagonalizing with lowered threshold

     Davidson diagonalization with overlap
     ethr =  3.48E-10,  avg # of iterations =  4.0

     negative rho (up, down):  2.814E-05 0.000E+00

     total cpu time spent up to now is       75.0 secs

     total energy              =    -571.23403341 Ry
     estimated scf accuracy    <       0.00000010 Ry

     iteration #  2     ecut=    65.00 Ry     beta= 0.70
     Davidson diagonalization with overlap
     ethr =  3.80E-10,  avg # of iterations =  2.0

     negative rho (up, down):  2.817E-05 0.000E+00

     total cpu time spent up to now is       76.4 secs

     total energy              =    -571.23403339 Ry
     estimated scf accuracy    <       0.00000030 Ry

     iteration #  3     ecut=    65.00 Ry     beta= 0.70
     Davidson diagonalization with overlap
     ethr =  3.80E-10,  avg # of iterations =  2.0

     negative rho (up, down):  2.818E-05 0.000E+00

     total cpu time spent up to now is       77.8 secs

     total energy              =    -571.23403345 Ry
     estimated scf accuracy    <          8.7E-09 Ry

     iteration #  4     ecut=    65.00 Ry     beta= 0.70
     Davidson diagonalization with overlap
     ethr =  3.34E-11,  avg # of iterations =  2.0

     negative rho (up, down):  2.818E-05 0.000E+00

     total cpu time spent up to now is       79.1 secs

     total energy              =    -571.23403345 Ry
     estimated scf accuracy    <          1.6E-09 Ry

     iteration #  5     ecut=    65.00 Ry     beta= 0.70
     Davidson diagonalization with overlap
     ethr =  5.97E-12,  avg # of iterations =  2.0

     negative rho (up, down):  2.819E-05 0.000E+00

     total cpu time spent up to now is       80.4 secs

     total energy              =    -571.23403345 Ry
     estimated scf accuracy    <          1.9E-10 Ry

     iteration #  6     ecut=    65.00 Ry     beta= 0.70
     Davidson diagonalization with overlap
     ethr =  7.31E-13,  avg # of iterations =  2.0

     negative rho (up, down):  2.819E-05 0.000E+00

     total cpu time spent up to now is       81.8 secs

     End of self-consistent calculation

          k = 0.0000 0.0000 0.0000 (  5617 PWs)   bands (ev):

   -45.2458 -23.7496 -22.9509 -22.9282 -20.5643 -12.9208  -3.0743  -2.3643
    -2.3325  -1.0811   1.5399   1.6488   3.8085   5.8436   6.0292   6.0982
     6.9440   7.0214   8.0749   8.9920  11.2958  14.1870  14.7667  15.0469
    15.4371  17.4004

          k = 0.0000 0.0733 0.0000 (  5647 PWs)   bands (ev):

   -45.2432 -23.7401 -22.9623 -22.9565 -20.5554 -12.8902  -3.0382  -2.3730
    -2.3646  -1.0565   1.4096   1.4948   3.8318   5.8917   5.9520   6.1937
     6.9614   6.9964   8.2128   9.2188  11.4450  14.2550  14.6027  14.9086
    15.3292  17.6864

          k = 0.0000 0.1465 0.0000 (  5692 PWs)   bands (ev):

   -45.2358 -23.7134 -23.0559 -22.9723 -20.5330 -12.8012  -2.9416  -2.4750
    -2.3668  -0.9975   0.8101   1.3710   3.8729   5.8111   6.0452   6.2951
     7.0245   7.1322   8.5745   9.6943  11.8711  13.8550  14.2851  15.1879
    15.3301  17.7813

          k = 0.0000 0.2198 0.0000 (  5710 PWs)   bands (ev):

   -45.2246 -23.6752 -23.1864 -22.9958 -20.5072 -12.6622  -2.8269  -2.5894
    -2.3734  -0.9373   0.0629   1.1973   3.8652   5.7428   6.3167   6.3400
     7.3068   7.3368   9.0610  10.1688  12.2416  13.4903  13.9246  15.6000
    16.0149  17.4611

          k = 0.0000 0.2931 0.0000 (  5708 PWs)   bands (ev):

   -45.2114 -23.6386 -23.3215 -23.0233 -20.4867 -12.4885  -2.8206  -2.5995
    -2.3862  -1.0056  -0.5648   1.0081   3.7772   5.8208   6.4833   6.6963
     7.4872   7.7608   9.5484  10.5569  12.0653  13.1233  14.5048  16.1760
    16.8056  16.8364

          k = 0.0000 0.3663 0.0000 (  5708 PWs)   bands (ev):

   -45.1982 -23.6356 -23.4134 -23.0507 -20.4754 -12.3025  -2.9200  -2.5265
    -2.4039  -1.5318  -0.6481   0.8334   3.6597   5.9980   6.7401   7.1223
     7.6808   8.2571   9.8897  10.8282  11.9522  12.8087  15.1844  15.5930
    16.5290  16.7726

          k = 0.0000 0.4396 0.0000 (  5704 PWs)   bands (ev):

   -45.1870 -23.6899 -23.4279 -23.0737 -20.4722 -12.1334  -3.0178  -2.4941
    -2.4225  -2.0352  -0.5932   0.6953   3.5714   6.2152   6.9707   7.4357
     7.9691   8.8401  10.0375  11.0317  12.0821  12.7694  14.1288  15.4672
    16.0050  16.0227

          k = 0.0000 0.5129 0.0000 (  5718 PWs)   bands (ev):

   -45.1794 -23.7476 -23.4130 -23.0890 -20.4730 -12.0137  -3.0958  -2.5426
    -2.4367  -2.2950  -0.5455   0.6075   3.5281   6.4313   7.0283   7.5640
     8.3048   9.4773  10.1516  11.1844  12.1698  12.7659  13.4259  14.8738
    15.2830  15.5541

          k = 0.0000-0.5861 0.0000 (  5730 PWs)   bands (ev):

   -45.1768 -23.7698 -23.4054 -23.0944 -20.4738 -11.9703  -3.1294  -2.5976
    -2.4420  -2.3430  -0.5278   0.5775   3.5168   6.5469   6.9918   7.5966
     8.4520   9.8402  10.2044  11.3202  11.9285  12.6372  13.5798  14.3742
    15.0921  15.3703

          k = 0.0625 0.0366 0.0000 (  5641 PWs)   bands (ev):

   -45.2433 -23.7405 -22.9803 -22.9369 -20.5555 -12.8915  -3.0390  -2.3980
    -2.3377  -1.0579   1.3264   1.5866   3.8282   5.7988   6.0529   6.1919
     6.9098   7.0599   8.2058   9.2101  11.4396  14.2551  14.4450  15.1213
    15.3100  17.6241

          k = 0.0625 0.1099 0.0000 (  5653 PWs)   bands (ev):

   -45.2383 -23.7224 -23.0324 -22.9594 -20.5399 -12.8316  -2.9722  -2.4524
    -2.3560  -1.0162   0.9674   1.4439   3.8603   5.7850   6.0625   6.2896
     6.9297   7.1348   8.4566   9.5563  11.7364  14.0014  14.3086  15.0756
    15.3627  17.7547

          k = 0.0625 0.1832 0.0000 (  5690 PWs)   bands (ev):

   -45.2291 -23.6898 -23.1380 -22.9855 -20.5160 -12.7175  -2.8614  -2.5557
    -2.3695  -0.9556   0.3409   1.2487   3.8822   5.7017   6.2553   6.3579
     7.0986   7.3202   8.8822  10.0181  12.2468  13.4674  13.9877  15.2714
    15.9350  17.3777

          k = 0.0625 0.2564 0.0000 (  5702 PWs)   bands (ev):

   -45.2169 -23.6512 -23.2669 -23.0156 -20.4932 -12.5608  -2.7826  -2.6283
    -2.3860  -0.9270  -0.3439   1.0282   3.8447   5.7137   6.3931   6.6427
     7.3396   7.6242   9.3735  10.4530  12.3421  13.2917  13.8829  15.7917
    16.6673  16.9729

          k = 0.0625 0.3297 0.0000 (  5699 PWs)   bands (ev):

   -45.2037 -23.6274 -23.3799 -23.0473 -20.4777 -12.3801  -2.8564  -2.5619
    -2.4086  -1.2423  -0.6562   0.8132   3.7555   5.8752   6.5426   7.0569
     7.5574   8.0708   9.8026  10.8111  12.0867  12.9301  14.7670  15.8308
    16.3821  16.7590

          k = 0.0625 0.4030 0.0000 (  5708 PWs)   bands (ev):

   -45.1914 -23.6554 -23.4268 -23.0762 -20.4708 -12.2012  -2.9564  -2.5010
    -2.4357  -1.7856  -0.6233   0.6302   3.6698   6.1194   6.7600   7.3608
     7.8128   8.6584  10.0574  11.0665  12.0717  12.7631  14.7018  15.3074
    15.9690  16.7468

          k = 0.0625 0.4762 0.0000 (  5709 PWs)   bands (ev):

   -45.1820 -23.7163 -23.4187 -23.0982 -20.4698 -12.0552  -3.0399  -2.5310
    -2.4440  -2.1522  -0.5681   0.4983   3.6210   6.3665   6.9431   7.4956
     8.0763   9.3681  10.1968  11.2308  12.2107  12.8310  13.6528  14.9425
    15.4328  16.0377

          k = 0.0625 0.5495 0.0000 (  5712 PWs)   bands (ev):

   -45.1769 -23.7566 -23.4055 -23.1101 -20.4708 -11.9724  -3.0941  -2.6198
    -2.4426  -2.2783  -0.5348   0.4294   3.6044   6.5469   6.9974   7.5359
     8.2610   9.9749  10.3306  11.3602  12.0754  12.6838  13.4842  14.4517
    15.1037  15.4457

          k = 0.1250 0.0733 0.0000 (  5663 PWs)   bands (ev):

   -45.2364 -23.7149 -23.0696 -22.9527 -20.5333 -12.8061  -2.9445  -2.4938
    -2.3411  -1.0024   0.7439   1.4669   3.8577   5.7089   6.1780   6.2852
     6.9976   7.1883   8.5540   9.6779  11.8516  13.7977  14.2402  15.1593
    15.5221  17.7443

          k = 0.1250 0.1465 0.0000 (  5670 PWs)   bands (ev):

   -45.2295 -23.6909 -23.1444 -22.9747 -20.5162 -12.7212  -2.8633  -2.5639
    -2.3565  -0.9592   0.3055   1.3077   3.8679   5.6784   6.3023   6.3497
     7.0956   7.3388   8.8698  10.0108  12.2343  13.4429  13.9640  15.2635
    16.0089  17.4048

          k = 0.1250 0.2198 0.0000 (  5692 PWs)   bands (ev):

   -45.2192 -23.6573 -23.2471 -23.0091 -20.4956 -12.5891  -2.7650  -2.6447
    -2.3828  -0.9195  -0.2388   1.0341   3.8696   5.6351   6.4200   6.6560
     7.2377   7.6016   9.3038  10.4248  12.8073  13.0281  13.5576  15.5834
    16.6695  16.9457

          k = 0.1250 0.2931 0.0000 (  5690 PWs)   bands (ev):

   -45.2070 -23.6275 -23.3507 -23.0502 -20.4785 -12.4245  -2.7920  -2.6044
    -2.4182  -1.0525  -0.6393   0.7251   3.8507   5.7067   6.5274   7.0299
     7.4650   7.9986   9.7526  10.8525  12.5625  13.0333  13.8433  15.6443
    16.4500  16.9155

          k = 0.1250 0.3663 0.0000 (  5703 PWs)   bands (ev):

   -45.1948 -23.6298 -23.4149 -23.0915 -20.4681 -12.2490  -2.8828  -2.5216
    -2.4604  -1.5215  -0.6531   0.4421   3.8226   5.9325   6.6489   7.2443
     7.7705   8.5970  10.1165  11.2467  12.3334  12.8112  14.6603  15.0993
    15.7371  16.7480

          k = 0.1250 0.4396 0.0000 (  5696 PWs)   bands (ev):

   -45.1844 -23.6759 -23.4202 -23.1267 -20.4640 -12.0902  -2.9607  -2.5452
    -2.4548  -1.9236  -0.6002   0.2194   3.8088   6.2577   6.7580   7.3782
     7.9563   9.3843  10.3551  11.5236  12.3154  12.8144  14.0980  14.6899
    15.5558  16.5675

          k = 0.1250 0.5129 0.0000 (  5713 PWs)   bands (ev):

   -45.1774 -23.7223 -23.4055 -23.1503 -20.4635 -11.9783  -3.0141  -2.6455
    -2.4369  -2.1284  -0.5568   0.0774   3.8126   6.5389   6.8722   7.4568
     8.0016  10.1657  10.5607  11.6325  12.3329  12.8393  13.4008  14.4239
    15.1543  15.8602

          k = 0.1250 0.5861 0.0000 (  5714 PWs)   bands (ev):

   -45.1750 -23.7401 -23.3984 -23.1587 -20.4638 -11.9378  -3.0341  -2.6994
    -2.4335  -2.1788  -0.5405   0.0285   3.8173   6.6234   6.9742   7.4531
     8.0083  10.3884  10.9104  11.7177  12.0172  12.6664  13.5147  14.2975
    15.1144  15.3182

          k = 0.1250 0.0000 0.0000 (  5658 PWs)   bands (ev):

   -45.2388 -23.7235 -23.0420 -22.9455 -20.5401 -12.8353  -2.9743  -2.4669
    -2.3364  -1.0198   0.9284   1.5006   3.8525   5.6997   6.1639   6.2867
     6.9386   7.1527   8.4392   9.5429  11.7241  13.9425  14.2895  15.0962
    15.4865  17.7469

          k = 0.1875 0.1099 0.0000 (  5672 PWs)   bands (ev):

   -45.2259 -23.6785 -23.1960 -22.9743 -20.5074 -12.6730  -2.8318  -2.6030
    -2.3466  -0.9475   0.0118   1.3056   3.8331   5.6943   6.3120   6.4355
     7.3113   7.3647   9.0281  10.1544  12.2237  13.4495  13.8683  15.5579
    16.1826  17.4863

          k = 0.1875 0.1832 0.0000 (  5689 PWs)   bands (ev):

   -45.2180 -23.6543 -23.2739 -22.9981 -20.4932 -12.5705  -2.7876  -2.6359
    -2.3661  -0.9390  -0.3830   1.1245   3.8116   5.7067   6.3937   6.6820
     7.3628   7.6242   9.3489  10.4470  12.3416  13.2582  13.8130  15.7535
    16.7630  17.0019

          k = 0.1875 0.2564 0.0000 (  5701 PWs)   bands (ev):

   -45.2077 -23.6294 -23.3539 -23.0408 -20.4784 -12.4305  -2.7956  -2.6055
    -2.4089  -1.0681  -0.6500   0.7772   3.8314   5.7108   6.5287   7.0391
     7.4822   7.9934   9.7404  10.8536  12.5756  13.0327  13.7702  15.6408
    16.4088  16.8823

          k = 0.1875 0.3297 0.0000 (  5695 PWs)   bands (ev):

   -45.1965 -23.6227 -23.4080 -23.0951 -20.4665 -12.2704  -2.8470  -2.5385
    -2.4655  -1.4070  -0.6726   0.3682   3.8885   5.8025   6.7017   7.1398
     7.7865   8.5778  10.1327  11.3243  12.6841  12.8772  14.0705  14.9234
    16.0247  16.5516

          k = 0.1875 0.4030 0.0000 (  5700 PWs)   bands (ev):

   -45.1861 -23.6476 -23.4184 -23.1500 -20.4593 -12.1134  -2.9029  -2.5578
    -2.4606  -1.7301  -0.6375  -0.0024   3.9628   6.0258   6.8201   7.1906
     7.9741   9.3886  10.4692  11.7806  12.5931  12.8685  14.1874  14.8047
    15.1181  16.1303

          k = 0.1875 0.4762 0.0000 (  5711 PWs)   bands (ev):

   -45.1781 -23.6831 -23.4052 -23.1945 -20.4561 -11.9865  -2.9489  -2.6428
    -2.4278  -1.9415  -0.6071  -0.2701   4.0338   6.3515   6.8080   7.3522
     7.9468  10.2527  10.7258  12.0581  12.5131  13.0144  13.6821  14.3166
    15.2179  15.9205

          k = 0.1875 0.5495 0.0000 (  5709 PWs)   bands (ev):

   -45.1738 -23.7053 -23.3934 -23.2195 -20.4552 -11.9151  -2.9755  -2.7087
    -2.4159  -2.0313  -0.5993  -0.4006   4.0787   6.6055   6.8266   7.4774
     7.8017  10.5864  11.3451  12.1064  12.3602  12.7719  13.5378  14.3880
    14.9715  15.5919

          k = 0.1875-0.0366 0.0000 (  5677 PWs)   bands (ev):

   -45.2302 -23.6925 -23.1453 -22.9680 -20.5160 -12.7269  -2.8657  -2.5682
    -2.3454  -0.9642   0.3095   1.3189   3.8637   5.6312   6.3316   6.3871
     7.1395   7.3141   8.8492  10.0029  12.2274  13.4466  13.9592  15.2778
    16.0511  17.3942

          k = 0.2500 0.1465 0.0000 (  5688 PWs)   bands (ev):

   -45.2136 -23.6437 -23.3273 -22.9993 -20.4862 -12.5068  -2.8274  -2.6074
    -2.3570  -1.0296  -0.5935   1.1302   3.7337   5.8115   6.4557   6.7834
     7.5353   7.7405   9.5076  10.5506  12.0627  13.0828  14.4106  16.0978
    16.6807  16.9862

          k = 0.2500 0.2198 0.0000 (  5700 PWs)   bands (ev):

   -45.2056 -23.6324 -23.3855 -23.0247 -20.4772 -12.3974  -2.8633  -2.5660
    -2.3839  -1.2748  -0.6750   0.9338   3.7111   5.8799   6.5384   7.0940
     7.5978   8.0534   9.7709  10.8155  12.0842  12.8933  14.6451  15.7282
    16.3533  16.7793

          k = 0.2500 0.2931 0.0000 (  5710 PWs)   bands (ev):

   -45.1963 -23.6337 -23.4188 -23.0749 -20.4674 -12.2627  -2.8879  -2.5182
    -2.4485  -1.5466  -0.6648   0.5291   3.7909   5.9384   6.6494   7.2622
     7.7900   8.5869  10.0968  11.2613  12.3393  12.8006  14.5715  15.0111
    15.6713  16.7324

          k = 0.2500 0.3663 0.0000 (  5716 PWs)   bands (ev):

   -45.1869 -23.6494 -23.4204 -23.1417 -20.4588 -12.1211  -2.9050  -2.5490
    -2.4627  -1.7411  -0.6422   0.0385   3.9487   6.0259   6.8222   7.1971
     7.9797   9.3835  10.4593  11.7945  12.5907  12.9011  14.1786  14.6824
    15.0602  16.1955

          k = 0.2500 0.4396 0.0000 (  5707 PWs)   bands (ev):

   -45.1789 -23.6655 -23.4059 -23.2105 -20.4526 -11.9951  -2.9281  -2.6314
    -2.4235  -1.8407  -0.6653  -0.3821   4.1314   6.1968   6.8580   7.2676
     7.9698  10.2644  10.7870  12.1384  12.6656  13.2529  13.9139  14.4129
    14.8964  15.4741

          k = 0.2500 0.5129 0.0000 (  5710 PWs)   bands (ev):

   -45.1736 -23.6734 -23.3916 -23.2636 -20.4490 -11.9076  -2.9641  -2.6655
    -2.3986  -1.8696  -0.8633  -0.5124   4.2760   6.4476   6.7673   7.4472
     7.7999  10.6728  11.3848  12.0814  12.9960  13.4186  13.6291  14.1816
    14.8780  15.4629

          k = 0.2500 0.5861 0.0000 (  5698 PWs)   bands (ev):

   -45.1717 -23.6750 -23.3859 -23.2839 -20.4479 -11.8762  -2.9833  -2.6689
    -2.3906  -1.8698  -0.9801  -0.5211   4.3309   6.6016   6.7295   7.4859
     7.7064  10.6554  12.0231  12.2971  12.3948  13.3359  13.8123  14.2807
    14.8904  15.5439

          k = 0.2500-0.0733 0.0000 (  5684 PWs)   bands (ev):

   -45.2188 -23.6557 -23.2701 -22.9962 -20.4926 -12.5775  -2.7879  -2.6362
    -2.3598  -0.9415  -0.3623   1.1091   3.8172   5.6837   6.3985   6.7166
     7.3890   7.6015   9.3306  10.4427  12.3523  13.2695  13.8488  15.7747
    16.6953  16.9858

          k = 0.2500 0.0000 0.0000 (  5696 PWs)   bands (ev):

   -45.2207 -23.6604 -23.2450 -22.9995 -20.4949 -12.6019  -2.7683  -2.6477
    -2.3665  -0.9288  -0.2234   1.0487   3.8637   5.5979   6.4397   6.7081
     7.2796   7.5769   9.2688  10.4160  12.8097  13.0629  13.5600  15.5786
    16.6315  16.9550

          k = 0.3125 0.1832 0.0000 (  5705 PWs)   bands (ev):

   -45.2012 -23.6408 -23.4179 -23.0240 -20.4739 -12.3291  -2.9262  -2.5302
    -2.3716  -1.5547  -0.6702   0.9680   3.6131   6.0068   6.7176   7.1774
     7.7280   8.2279   9.8502  10.8357  11.9345  12.7617  15.0187  15.4968
    16.6317  16.7118

          k = 0.3125 0.2564 0.0000 (  5710 PWs)   bands (ev):

   -45.1942 -23.6600 -23.4324 -23.0500 -20.4693 -12.2270  -2.9635  -2.4994
    -2.4091  -1.8097  -0.6445   0.7651   3.6227   6.1291   6.7484   7.3997
     7.8432   8.6350  10.0288  11.0861  12.0472  12.7153  14.5516  15.2396
    15.9567  16.6953

          k = 0.3125 0.3297 0.0000 (  5712 PWs)   bands (ev):

   -45.1867 -23.6791 -23.4254 -23.1053 -20.4623 -12.1125  -2.9665  -2.5244
    -2.4559  -1.9389  -0.6174   0.3245   3.7736   6.2622   6.7530   7.4031
     7.9676   9.3680  10.3344  11.5675  12.3015  12.7835  13.9875  14.6670
    15.4440  16.5166

          k = 0.3125 0.4030 0.0000 (  5714 PWs)   bands (ev):

   -45.1797 -23.6845 -23.4092 -23.1806 -20.4546 -12.0027  -2.9504  -2.6332
    -2.4280  -1.9481  -0.6131  -0.2107   4.0149   6.3444   6.8093   7.3645
     7.9534  10.2300  10.7108  12.1052  12.5393  13.0142  13.5734  14.3203
    15.1072  15.9894

          k = 0.3125 0.4762 0.0000 (  5702 PWs)   bands (ev):

   -45.1744 -23.6731 -23.3937 -23.2578 -20.4480 -11.9160  -2.9622  -2.6629
    -2.3981  -1.8715  -0.8399  -0.5144   4.2714   6.4389   6.7659   7.4529
     7.8054  10.6485  11.3802  12.1000  12.9654  13.4601  13.5892  14.2509
    14.8387  15.4343

          k = 0.3125 0.5495 0.0000 (  5687 PWs)   bands (ev):

   -45.1715 -23.6570 -23.3850 -23.3102 -20.4443 -11.8681  -2.9940  -2.6333
    -2.3759  -1.7208  -1.2412  -0.5339   4.4438   6.5714   6.6866   7.4023
     7.7730  10.6259  12.0186  12.2852  13.0352  13.2893  14.0025  14.2636
    14.9863  15.6102

          k = 0.3125-0.1099 0.0000 (  5705 PWs)   bands (ev):

   -45.2065 -23.6321 -23.3812 -23.0255 -20.4761 -12.4049  -2.8601  -2.5668
    -2.3796  -1.2530  -0.6734   0.9074   3.7247   5.8757   6.5427   7.0992
     7.5993   8.0443   9.7564  10.8126  12.0992  12.9024  14.7123  15.7399
    16.3505  16.7416

          k = 0.3125-0.0366 0.0000 (  5695 PWs)   bands (ev):

   -45.2093 -23.6308 -23.3468 -23.0383 -20.4767 -12.4451  -2.7916  -2.6078
    -2.3982  -1.0463  -0.6375   0.7512   3.8440   5.6921   6.5483   7.0581
     7.4916   7.9760   9.7093  10.8463  12.6111  13.0522  13.8411  15.6145
    16.3648  16.8649

          k = 0.3750 0.2198 0.0000 (  5699 PWs)   bands (ev):

   -45.1906 -23.6919 -23.4346 -23.0448 -20.4696 -12.1680  -3.0248  -2.4915
    -2.3871  -2.0470  -0.6202   0.8393   3.5248   6.2289   6.9615   7.4770
     7.9933   8.8008  10.0054  11.0420  12.0378  12.7028  13.9951  15.3725
    15.8753  16.1864

          k = 0.3750 0.2931 0.0000 (  5704 PWs)   bands (ev):

   -45.1855 -23.7182 -23.4261 -23.0698 -20.4672 -12.0889  -3.0486  -2.5140
    -2.4276  -2.1595  -0.5945   0.6391   3.5750   6.3810   6.9279   7.5415
     8.0777   9.3394  10.1756  11.2518  12.1551  12.7566  13.5431  14.9135
    15.3445  16.0754

          k = 0.3750 0.3663 0.0000 (  5697 PWs)   bands (ev):

   -45.1804 -23.7230 -23.4124 -23.1268 -20.4608 -12.0084  -3.0204  -2.6274
    -2.4331  -2.1257  -0.5790   0.1864   3.7795   6.5528   6.8512   7.4919
     7.9974  10.1226  10.5548  11.6971  12.2662  12.7653  13.3462  14.4023
    15.0606  15.8410

          k = 0.3750 0.4396 0.0000 (  5694 PWs)   bands (ev):

   -45.1761 -23.7040 -23.3989 -23.2036 -20.4525 -11.9390  -2.9746  -2.6976
    -2.4136  -2.0251  -0.5987  -0.3498   4.0631   6.6101   6.8030   7.5052
     7.7998  10.5285  11.3365  12.1386  12.3292  12.7869  13.4921  14.3558
    14.9345  15.5358

          k = 0.3750 0.5129 0.0000 (  5693 PWs)   bands (ev):

   -45.1732 -23.6715 -23.3895 -23.2769 -20.4458 -11.8920  -2.9786  -2.6616
    -2.3885  -1.8583  -0.9533  -0.5326   4.3315   6.6109   6.6980   7.4904
     7.7189  10.6067  12.0400  12.2367  12.3259  13.4690  13.8422  14.2821
    14.8559  15.4986

          k = 0.3750 0.5861 0.0000 (  5692 PWs)   bands (ev):

   -45.1722 -23.6533 -23.3862 -23.3096 -20.4432 -11.8755  -2.9915  -2.6280
    -2.3744  -1.6957  -1.2528  -0.5407   4.4502   6.5846   6.6641   7.3964
     7.7809  10.6013  12.0377  12.1593  13.1153  13.2813  14.1181  14.2172
    14.9605  15.5974

          k = 0.3750-0.1465 0.0000 (  5717 PWs)   bands (ev):

   -45.1949 -23.6565 -23.4312 -23.0518 -20.4681 -12.2338  -2.9593  -2.5006
    -2.4056  -1.7861  -0.6473   0.7386   3.6382   6.1338   6.7610   7.3880
     7.8361   8.6196  10.0141  11.0855  12.0543  12.7161  14.5693  15.2834
    15.9115  16.7366

          k = 0.3750-0.0733 0.0000 (  5710 PWs)   bands (ev):

   -45.1978 -23.6296 -23.4145 -23.0767 -20.4651 -12.2771  -2.8808  -2.5211
    -2.4387  -1.5003  -0.6695   0.4867   3.8143   5.9355   6.6597   7.2728
     7.7696   8.5641  10.0674  11.2532  12.3684  12.8135  14.6493  15.0262
    15.6971  16.6934

          k = 0.3750 0.0000 0.0000 (  5700 PWs)   bands (ev):

   -45.1988 -23.6204 -23.4029 -23.0913 -20.4637 -12.2922  -2.8404  -2.5395
    -2.4511  -1.3593  -0.6804   0.3471   3.9036   5.7936   6.7184   7.1598
     7.7711   8.5499  10.0899  11.3145  12.6932  12.9684  14.1085  14.8916
    16.0201  16.4780

          k = 0.4375 0.2564 0.0000 (  5681 PWs)   bands (ev):

   -45.1835 -23.7472 -23.4218 -23.0586 -20.4695 -12.0541  -3.1050  -2.5307
    -2.3991  -2.3010  -0.5762   0.7575   3.4811   6.4430   7.0373   7.6100
     8.2908   9.4281  10.1263  11.1819  12.0834  12.6641  13.3551  14.7910
    15.1568  15.7497

          k = 0.4375 0.3297 0.0000 (  5704 PWs)   bands (ev):

   -45.1809 -23.7560 -23.4142 -23.0810 -20.4672 -12.0117  -3.1036  -2.6004
    -2.4263  -2.2706  -0.5646   0.5690   3.5615   6.5595   6.9998   7.5809
     8.2363   9.9219  10.3314  11.3649  11.9563  12.6018  13.4408  14.3829
    15.0016  15.5675

          k = 0.4375 0.4030 0.0000 (  5693 PWs)   bands (ev):

   -45.1784 -23.7378 -23.4062 -23.1353 -20.4601 -11.9731  -3.0389  -2.6788
    -2.4273  -2.1643  -0.5655   0.1300   3.7901   6.6338   6.9691   7.4879
     7.9889  10.3154  10.9066  11.7761  11.9051  12.6210  13.4814  14.2333
    15.0519  15.3389

          k = 0.4375 0.4762 0.0000 (  5702 PWs)   bands (ev):

   -45.1766 -23.7001 -23.3995 -23.2052 -20.4516 -11.9439  -2.9726  -2.6909
    -2.4127  -2.0113  -0.5991  -0.3668   4.0715   6.6154   6.8043   7.5191
     7.7760  10.5142  11.2423  12.1583  12.3792  12.7929  13.4845  14.3624
    14.9537  15.5627

          k = 0.4375 0.5495 0.0000 (  5701 PWs)   bands (ev):

   -45.1756 -23.6651 -23.3952 -23.2596 -20.4460 -11.9284  -2.9586  -2.6499
    -2.3960  -1.8327  -0.8581  -0.5319   4.2871   6.4494   6.7462   7.4771
     7.7774  10.6178  11.2543  12.1215  12.9510  13.4972  13.6891  14.2086
    14.8623  15.4718

          k = 0.4375-0.1832 0.0000 (  5711 PWs)   bands (ev):

   -45.1860 -23.7146 -23.4264 -23.0715 -20.4663 -12.0937  -3.0445  -2.5135
    -2.4260  -2.1443  -0.5967   0.6200   3.5868   6.3796   6.9574   7.5245
     8.0740   9.3088  10.1558  11.2554  12.1594  12.7483  13.5570  14.9431
    15.3362  16.0804

          k = 0.4375-0.1099 0.0000 (  5707 PWs)   bands (ev):

   -45.1879 -23.6715 -23.4253 -23.1085 -20.4602 -12.1242  -2.9593  -2.5209
    -2.4516  -1.9012  -0.6223   0.2851   3.7964   6.2697   6.7609   7.4160
     7.9363   9.3276  10.2951  11.5650  12.3153  12.7759  14.0202  14.6863
    15.4892  16.5552

          k = 0.4375-0.0366 0.0000 (  5722 PWs)   bands (ev):

   -45.1889 -23.6401 -23.4195 -23.1434 -20.4557 -12.1408  -2.8967  -2.5389
    -2.4592  -1.6826  -0.6507  -0.0054   3.9745   6.0250   6.8130   7.2366
     7.9406   9.3375  10.4056  11.7797  12.5834  12.9655  14.1745  14.7780
    15.1111  16.1566

          k =-0.5000-0.2931 0.0000 (  5692 PWs)   bands (ev):

   -45.1810 -23.7685 -23.4148 -23.0635 -20.4700 -12.0128  -3.1397  -2.5820
    -2.4039  -2.3465  -0.5598   0.7294   3.4695   6.5538   7.0123   7.6452
     8.4208   9.7768  10.2019  11.3024  11.8039  12.5515  13.5222  14.2980
    14.9689  15.5752

          k =-0.5000-0.2198 0.0000 (  5697 PWs)   bands (ev):

   -45.1810 -23.7546 -23.4144 -23.0816 -20.4669 -12.0134  -3.1017  -2.5993
    -2.4259  -2.2663  -0.5653   0.5621   3.5658   6.5537   7.0212   7.5706
     8.2378   9.8982  10.3204  11.3644  11.9745  12.5978  13.4293  14.4018
    15.0226  15.5509

          k =-0.5000-0.1465 0.0000 (  5713 PWs)   bands (ev):

   -45.1811 -23.7178 -23.4130 -23.1290 -20.4595 -12.0150  -3.0154  -2.6214
    -2.4318  -2.1082  -0.5815   0.1632   3.7930   6.5465   6.8826   7.4904
     7.9769  10.0873  10.4980  11.6993  12.3002  12.7567  13.3481  14.4296
    15.0916  15.8464

          k =-0.5000-0.0733 0.0000 (  5710 PWs)   bands (ev):

   -45.1811 -23.6749 -23.4102 -23.1839 -20.4522 -12.0165  -2.9443  -2.6201
    -2.4259  -1.9067  -0.6172  -0.2515   4.0369   6.3553   6.7949   7.4033
     7.9083  10.1894  10.6228  12.0989  12.5300  13.0460  13.6255  14.3276
    15.1755  15.9964

          k =-0.5000-0.0000 0.0000 (  5716 PWs)   bands (ev):

   -45.1811 -23.6545 -23.4081 -23.2102 -20.4492 -12.0172  -2.9217  -2.6131
    -2.4214  -1.7857  -0.6720  -0.4162   4.1524   6.1970   6.8318   7.3237
     7.9257  10.2130  10.6837  12.1499  12.6162  13.3678  13.9403  14.4381
    14.9152  15.5024

     highest occupied, lowest unoccupied level (ev):     4.4502    5.5979

!    total energy              =    -571.23403345 Ry
     total all-electron energy =    -12610.611445 Ry
     estimated scf accuracy    <          1.1E-11 Ry

     The total energy is the sum of the following terms:
     one-electron contribution =    -279.48778982 Ry
     hartree contribution      =     148.38629052 Ry
     xc contribution           =     -36.37045956 Ry
     ewald contribution        =      -6.90541853 Ry
     one-center paw contrib.   =    -396.85665606 Ry

     convergence has been achieved in   6 iterations

     negative rho (up, down):  2.819E-05 0.000E+00

     Forces acting on atoms (cartesian axes, Ry/au):

     atom    1 type  1   force =     0.00000000   -0.00020995   -0.00000867
     atom    2 type  2   force =     0.00000000   -0.00021885    0.00013062
     atom    3 type  3   force =     0.00000000    0.00042879   -0.00012195
     The non-local contrib.  to forces
     atom    1 type  1   force =     0.00000000   -0.00285814   -0.02405727
     atom    2 type  2   force =     0.00000000   -0.02081501   -1.02129452
     atom    3 type  3   force =     0.00000000   -0.00098804    0.21127539
     The ionic contribution  to forces
     atom    1 type  1   force =    -0.00000001   -0.15620202   -0.67369478
     atom    2 type  2   force =     0.00000001    0.11259913   25.03472191
     atom    3 type  3   force =     0.00000000    0.04360288  -24.36102713
     The local contribution  to forces
     atom    1 type  1   force =    -0.00000000    0.15873298    0.69370729
     atom    2 type  2   force =     0.00000027   -0.09206941  -24.01660534
     atom    3 type  3   force =    -0.00000000   -0.04205470   24.15208109
     The core correction contribution to forces
     atom    1 type  1   force =     0.00000000    0.00011871    0.00402910
     atom    2 type  2   force =     0.00000000    0.00006755    0.00330824
     atom    3 type  3   force =    -0.00000000   -0.00013016   -0.00245071
     The Hubbard contrib.    to forces
     atom    1 type  1   force =     0.00000000    0.00000000    0.00000000
     atom    2 type  2   force =     0.00000000    0.00000000    0.00000000
     atom    3 type  3   force =     0.00000000    0.00000000    0.00000000
     The SCF correction term to forces
     atom    1 type  1   force =    -0.00000000   -0.00000081    0.00000528
     atom    2 type  2   force =    -0.00000000   -0.00000045   -0.00000137
     atom    3 type  3   force =     0.00000000   -0.00000052   -0.00000229

     Total force =     0.000555     Total SCF correction =     0.000006
     Energy error            =      7.2E-07 Ry
     Gradient error          =      4.3E-04 Ry/Bohr

     number of scf cycles    =   7
     number of bfgs steps    =   6

     energy             old  =    -571.2340327311 Ry
     energy             new  =    -571.2340334543 Ry

     CASE: energy            _new < energy            _old

     new trust radius        =       0.0014566227 bohr
     new conv_thr            =            1.0E-10 Ry


ATOMIC_POSITIONS (angstrom)
Zr           -0.0000000000        0.0174041011       10.1025973188
F            -0.0000000020        1.9214349981       11.4193533904
Br           -0.0000000020        1.9229686640        8.1962280038



     Writing config-only to output data dir ./tmp/ZrFBr.save/
     NEW-OLD atomic charge density approx. for the potential

     Check: negative core charge=   -0.000002

     negative rho (up, down):  2.814E-05 0.000E+00

     total cpu time spent up to now is       82.2 secs

     Self-consistent Calculation

     iteration #  1     ecut=    65.00 Ry     beta= 0.70
     Davidson diagonalization with overlap
     ethr =  1.00E-06,  avg # of iterations =  2.0

     Threshold (ethr) on eigenvalues was too large:
     Diagonalizing with lowered threshold

     Davidson diagonalization with overlap
     ethr =  5.97E-10,  avg # of iterations =  4.0

     negative rho (up, down):  2.813E-05 0.000E+00

     total cpu time spent up to now is       85.4 secs

     total energy              =    -571.23403412 Ry
     estimated scf accuracy    <       0.00000016 Ry

     iteration #  2     ecut=    65.00 Ry     beta= 0.70
     Davidson diagonalization with overlap
     ethr =  6.30E-10,  avg # of iterations =  2.0

     negative rho (up, down):  2.816E-05 0.000E+00

     total cpu time spent up to now is       86.8 secs

     total energy              =    -571.23403410 Ry
     estimated scf accuracy    <       0.00000040 Ry

     iteration #  3     ecut=    65.00 Ry     beta= 0.70
     Davidson diagonalization with overlap
     ethr =  6.30E-10,  avg # of iterations =  2.0

     negative rho (up, down):  2.818E-05 0.000E+00

     total cpu time spent up to now is       88.1 secs

     total energy              =    -571.23403418 Ry
     estimated scf accuracy    <       0.00000002 Ry

     iteration #  4     ecut=    65.00 Ry     beta= 0.70
     Davidson diagonalization with overlap
     ethr =  8.58E-11,  avg # of iterations =  2.0

     negative rho (up, down):  2.818E-05 0.000E+00

     total cpu time spent up to now is       89.4 secs

     total energy              =    -571.23403418 Ry
     estimated scf accuracy    <          3.1E-09 Ry

     iteration #  5     ecut=    65.00 Ry     beta= 0.70
     Davidson diagonalization with overlap
     ethr =  1.18E-11,  avg # of iterations =  2.0

     negative rho (up, down):  2.818E-05 0.000E+00

     total cpu time spent up to now is       90.8 secs

     total energy              =    -571.23403418 Ry
     estimated scf accuracy    <          3.6E-10 Ry

     iteration #  6     ecut=    65.00 Ry     beta= 0.70
     Davidson diagonalization with overlap
     ethr =  1.40E-12,  avg # of iterations =  2.0

     negative rho (up, down):  2.818E-05 0.000E+00

     total cpu time spent up to now is       92.1 secs

     End of self-consistent calculation

          k = 0.0000 0.0000 0.0000 (  5617 PWs)   bands (ev):

   -45.2471 -23.7504 -22.9521 -22.9293 -20.5640 -12.9205  -3.0737  -2.3632
    -2.3317  -1.0814   1.5406   1.6506   3.8066   5.8417   6.0280   6.0978
     6.9441   7.0201   8.0751   8.9921  11.2960  14.1881  14.7659  15.0466
    15.4336  17.3995

          k = 0.0000 0.0733 0.0000 (  5647 PWs)   bands (ev):

   -45.2445 -23.7409 -22.9634 -22.9577 -20.5551 -12.8899  -3.0375  -2.3722
    -2.3636  -1.0568   1.4112   1.4955   3.8300   5.8898   5.9507   6.1933
     6.9603   6.9964   8.2129   9.2188  11.4452  14.2560  14.6019  14.9079
    15.3266  17.6855

          k = 0.0000 0.1465 0.0000 (  5692 PWs)   bands (ev):

   -45.2371 -23.7142 -23.0570 -22.9734 -20.5328 -12.8008  -2.9409  -2.4742
    -2.3658  -0.9977   0.8114   1.3716   3.8714   5.8095   6.0436   6.2946
     7.0240   7.1317   8.5744   9.6941  11.8713  13.8544  14.2848  15.1871
    15.3296  17.7804

          k = 0.0000 0.2198 0.0000 (  5710 PWs)   bands (ev):

   -45.2259 -23.6760 -23.1874 -22.9969 -20.5070 -12.6618  -2.8261  -2.5887
    -2.3725  -0.9372   0.0638   1.1979   3.8640   5.7409   6.3153   6.3395
     7.3060   7.3363   9.0604  10.1685  12.2415  13.4899  13.9243  15.6002
    16.0146  17.4603

          k = 0.0000 0.2931 0.0000 (  5708 PWs)   bands (ev):

   -45.2127 -23.6394 -23.3224 -23.0244 -20.4865 -12.4881  -2.8199  -2.5989
    -2.3852  -1.0048  -0.5649   1.0086   3.7763   5.8187   6.4828   6.6951
     7.4859   7.7601   9.5472  10.5563  12.0652  13.1232  14.5051  16.1761
    16.8054  16.8363

          k = 0.0000 0.3663 0.0000 (  5708 PWs)   bands (ev):

   -45.1995 -23.6363 -23.4144 -23.0518 -20.4752 -12.3020  -2.9193  -2.5260
    -2.4030  -1.5310  -0.6482   0.8340   3.6589   5.9959   6.7393   7.1214
     7.6793   8.2561   9.8882  10.8276  11.9523  12.8091  15.1834  15.5946
    16.5285  16.7718

          k = 0.0000 0.4396 0.0000 (  5704 PWs)   bands (ev):

   -45.1882 -23.6906 -23.4289 -23.0748 -20.4720 -12.1329  -3.0171  -2.4935
    -2.4216  -2.0348  -0.5931   0.6958   3.5707   6.2129   6.9696   7.4345
     7.9677   8.8385  10.0364  11.0310  12.0821  12.7698  14.1288  15.4676
    16.0046  16.0219

          k = 0.0000 0.5129 0.0000 (  5718 PWs)   bands (ev):

   -45.1807 -23.7483 -23.4141 -23.0901 -20.4727 -12.0131  -3.0950  -2.5421
    -2.4358  -2.2947  -0.5453   0.6080   3.5274   6.4286   7.0271   7.5625
     8.3036   9.4752  10.1515  11.1836  12.1697  12.7662  13.4259  14.8737
    15.2826  15.5538

          k = 0.0000-0.5861 0.0000 (  5730 PWs)   bands (ev):

   -45.1781 -23.7704 -23.4065 -23.0955 -20.4736 -11.9697  -3.1286  -2.5972
    -2.4411  -2.3426  -0.5276   0.5780   3.5161   6.5438   6.9908   7.5950
     8.4509   9.8377  10.2044  11.3197  11.9285  12.6375  13.5797  14.3739
    15.0920  15.3700

          k = 0.0625 0.0366 0.0000 (  5641 PWs)   bands (ev):

   -45.2446 -23.7413 -22.9814 -22.9380 -20.5552 -12.8911  -3.0383  -2.3970
    -2.3368  -1.0582   1.3271   1.5882   3.8264   5.7969   6.0516   6.1915
     6.9095   7.0587   8.2060   9.2103  11.4397  14.2560  14.4443  15.1207
    15.3070  17.6234

          k = 0.0625 0.1099 0.0000 (  5653 PWs)   bands (ev):

   -45.2396 -23.7232 -23.0335 -22.9605 -20.5396 -12.8313  -2.9715  -2.4515
    -2.3550  -1.0164   0.9685   1.4448   3.8586   5.7833   6.0610   6.2891
     6.9292   7.1342   8.4566   9.5563  11.7365  14.0007  14.3088  15.0743
    15.3618  17.7543

          k = 0.0625 0.1832 0.0000 (  5690 PWs)   bands (ev):

   -45.2303 -23.6906 -23.1390 -22.9866 -20.5157 -12.7172  -2.8607  -2.5549
    -2.3685  -0.9557   0.3419   1.2494   3.8809   5.6999   6.2538   6.3574
     7.0982   7.3194   8.8818  10.0180  12.2468  13.4668  13.9871  15.2715
    15.9344  17.3769

          k = 0.0625 0.2564 0.0000 (  5702 PWs)   bands (ev):

   -45.2182 -23.6521 -23.2679 -23.0167 -20.4930 -12.5604  -2.7818  -2.6277
    -2.3851  -0.9266  -0.3435   1.0288   3.8437   5.7117   6.3920   6.6418
     7.3387   7.6234   9.3726  10.4527  12.3418  13.2915  13.8828  15.7921
    16.6668  16.9721

          k = 0.0625 0.3297 0.0000 (  5699 PWs)   bands (ev):

   -45.2050 -23.6282 -23.3809 -23.0484 -20.4775 -12.3797  -2.8557  -2.5613
    -2.4076  -1.2413  -0.6564   0.8138   3.7547   5.8731   6.5417   7.0561
     7.5560   8.0700   9.8012  10.8106  12.0867  12.9302  14.7672  15.8304
    16.3819  16.7591

          k = 0.0625 0.4030 0.0000 (  5708 PWs)   bands (ev):

   -45.1927 -23.6561 -23.4279 -23.0773 -20.4706 -12.2007  -2.9557  -2.5004
    -2.4348  -1.7850  -0.6233   0.6308   3.6691   6.1172   6.7590   7.3597
     7.8113   8.6573  10.0560  11.0659  12.0718  12.7636  14.7014  15.3077
    15.9687  16.7462

          k = 0.0625 0.4762 0.0000 (  5709 PWs)   bands (ev):

   -45.1833 -23.7170 -23.4198 -23.0993 -20.4696 -12.0546  -3.0392  -2.5302
    -2.4432  -2.1518  -0.5680   0.4988   3.6203   6.3640   6.9420   7.4942
     8.0747   9.3666  10.1962  11.2301  12.2106  12.8314  13.6528  14.9422
    15.4326  16.0372

          k = 0.0625 0.5495 0.0000 (  5712 PWs)   bands (ev):

   -45.1782 -23.7573 -23.4066 -23.1112 -20.4706 -11.9718  -3.0933  -2.6192
    -2.4419  -2.2779  -0.5346   0.4299   3.6037   6.5440   6.9965   7.5343
     8.2595   9.9729  10.3307  11.3596  12.0754  12.6840  13.4843  14.4513
    15.1035  15.4456

          k = 0.1250 0.0733 0.0000 (  5663 PWs)   bands (ev):

   -45.2377 -23.7157 -23.0707 -22.9539 -20.5331 -12.8057  -2.9437  -2.4929
    -2.3403  -1.0027   0.7447   1.4684   3.8561   5.7072   6.1765   6.2850
     6.9972   7.1871   8.5541   9.6781  11.8515  13.7971  14.2400  15.1578
    15.5218  17.7436

          k = 0.1250 0.1465 0.0000 (  5670 PWs)   bands (ev):

   -45.2308 -23.6917 -23.1454 -22.9759 -20.5159 -12.7209  -2.8626  -2.5630
    -2.3556  -0.9594   0.3063   1.3088   3.8666   5.6766   6.3005   6.3495
     7.0952   7.3379   8.8695  10.0109  12.2342  13.4423  13.9632  15.2635
    16.0082  17.4043

          k = 0.1250 0.2198 0.0000 (  5692 PWs)   bands (ev):

   -45.2205 -23.6582 -23.2481 -23.0102 -20.4954 -12.5887  -2.7642  -2.6440
    -2.3819  -0.9194  -0.2381   1.0349   3.8685   5.6332   6.4187   6.6554
     7.2371   7.6007   9.3031  10.4247  12.8071  13.0276  13.5570  15.5840
    16.6689  16.9449

          k = 0.1250 0.2931 0.0000 (  5690 PWs)   bands (ev):

   -45.2083 -23.6283 -23.3517 -23.0513 -20.4783 -12.4241  -2.7912  -2.6037
    -2.4174  -1.0516  -0.6395   0.7257   3.8499   5.7047   6.5261   7.0294
     7.4638   7.9978   9.7514  10.8523  12.5621  13.0332  13.8432  15.6438
    16.4498  16.9155

          k = 0.1250 0.3663 0.0000 (  5703 PWs)   bands (ev):

   -45.1961 -23.6306 -23.4160 -23.0926 -20.4679 -12.2485  -2.8821  -2.5209
    -2.4596  -1.5208  -0.6533   0.4426   3.8218   5.9304   6.6475   7.2433
     7.7690   8.5963  10.1149  11.2464  12.3332  12.8115  14.6604  15.0982
    15.7371  16.7479

          k = 0.1250 0.4396 0.0000 (  5696 PWs)   bands (ev):

   -45.1857 -23.6765 -23.4213 -23.1278 -20.4638 -12.0897  -2.9600  -2.5443
    -2.4542  -1.9232  -0.6001   0.2199   3.8081   6.2555   6.7567   7.3769
     7.9546   9.3835  10.3538  11.5233  12.3152  12.8148  14.0978  14.6894
    15.5559  16.5672

          k = 0.1250 0.5129 0.0000 (  5713 PWs)   bands (ev):

   -45.1787 -23.7229 -23.4066 -23.1514 -20.4633 -11.9777  -3.0134  -2.6447
    -2.4362  -2.1281  -0.5566   0.0779   3.8118   6.5362   6.8712   7.4554
     7.9997  10.1647  10.5602  11.6321  12.3325  12.8395  13.4011  14.4232
    15.1542  15.8600

          k = 0.1250 0.5861 0.0000 (  5714 PWs)   bands (ev):

   -45.1763 -23.7407 -23.3995 -23.1598 -20.4636 -11.9372  -3.0334  -2.6985
    -2.4329  -2.1786  -0.5403   0.0290   3.8165   6.6205   6.9735   7.4514
     8.0064  10.3874  10.9099  11.7171  12.0174  12.6661  13.5153  14.2966
    15.1138  15.3184

          k = 0.1250 0.0000 0.0000 (  5658 PWs)   bands (ev):

   -45.2401 -23.7243 -23.0430 -22.9467 -20.5398 -12.8349  -2.9736  -2.4660
    -2.3356  -1.0202   0.9290   1.5024   3.8508   5.6980   6.1627   6.2863
     6.9382   7.1513   8.4395   9.5432  11.7241  13.9417  14.2897  15.0940
    15.4862  17.7458

          k = 0.1875 0.1099 0.0000 (  5672 PWs)   bands (ev):

   -45.2272 -23.6793 -23.1970 -22.9755 -20.5071 -12.6726  -2.8310  -2.6022
    -2.3458  -0.9478   0.0125   1.3070   3.8317   5.6927   6.3111   6.4345
     7.3109   7.3634   9.0279  10.1546  12.2232  13.4487  13.8678  15.5577
    16.1824  17.4852

          k = 0.1875 0.1832 0.0000 (  5689 PWs)   bands (ev):

   -45.2193 -23.6551 -23.2749 -22.9993 -20.4930 -12.5701  -2.7868  -2.6352
    -2.3652  -0.9389  -0.3826   1.1256   3.8105   5.7050   6.3924   6.6811
     7.3622   7.6232   9.3483  10.4471  12.3412  13.2568  13.8132  15.7540
    16.7627  17.0011

          k = 0.1875 0.2564 0.0000 (  5701 PWs)   bands (ev):

   -45.2090 -23.6302 -23.3548 -23.0420 -20.4782 -12.4301  -2.7949  -2.6049
    -2.4081  -1.0673  -0.6502   0.7780   3.8306   5.7090   6.5273   7.0385
     7.4812   7.9926   9.7394  10.8537  12.5754  13.0314  13.7702  15.6406
    16.4089  16.8821

          k = 0.1875 0.3297 0.0000 (  5695 PWs)   bands (ev):

   -45.1978 -23.6234 -23.4090 -23.0962 -20.4664 -12.2699  -2.8463  -2.5378
    -2.4647  -1.4062  -0.6727   0.3688   3.8877   5.8006   6.7001   7.1389
     7.7853   8.5772  10.1314  11.3244  12.6838  12.8771  14.0703  14.9225
    16.0247  16.5516

          k = 0.1875 0.4030 0.0000 (  5700 PWs)   bands (ev):

   -45.1874 -23.6483 -23.4194 -23.1511 -20.4592 -12.1128  -2.9023  -2.5570
    -2.4600  -1.7296  -0.6375  -0.0019   3.9621   6.0239   6.8183   7.1894
     7.9726   9.3882  10.4678  11.7807  12.5927  12.8687  14.1865  14.8041
    15.1184  16.1304

          k = 0.1875 0.4762 0.0000 (  5711 PWs)   bands (ev):

   -45.1794 -23.6837 -23.4063 -23.1956 -20.4559 -11.9859  -2.9483  -2.6419
    -2.4272  -1.9411  -0.6070  -0.2696   4.0330   6.3496   6.8063   7.3508
     7.9450  10.2525  10.7247  12.0584  12.5122  13.0143  13.6819  14.3159
    15.2180  15.9207

          k = 0.1875 0.5495 0.0000 (  5709 PWs)   bands (ev):

   -45.1751 -23.7059 -23.3945 -23.2206 -20.4550 -11.9145  -2.9749  -2.7077
    -2.4153  -2.0311  -0.5992  -0.4001   4.0779   6.6030   6.8257   7.4758
     7.7995  10.5860  11.3446  12.1066  12.3593  12.7713  13.5383  14.3870
    14.9714  15.5920

          k = 0.1875-0.0366 0.0000 (  5677 PWs)   bands (ev):

   -45.2315 -23.6933 -23.1463 -22.9692 -20.5158 -12.7265  -2.8650  -2.5673
    -2.3447  -0.9645   0.3101   1.3206   3.8622   5.6296   6.3310   6.3859
     7.1387   7.3130   8.8492  10.0033  12.2272  13.4460  13.9580  15.2772
    16.0512  17.3930

          k = 0.2500 0.1465 0.0000 (  5688 PWs)   bands (ev):

   -45.2148 -23.6445 -23.3283 -23.0004 -20.4861 -12.5064  -2.8266  -2.6067
    -2.3562  -1.0293  -0.5935   1.1316   3.7326   5.8101   6.4545   6.7822
     7.5340   7.7400   9.5071  10.5509  12.0622  13.0811  14.4111  16.0976
    16.6806  16.9862

          k = 0.2500 0.2198 0.0000 (  5700 PWs)   bands (ev):

   -45.2069 -23.6332 -23.3865 -23.0259 -20.4770 -12.3970  -2.8625  -2.5654
    -2.3831  -1.2741  -0.6752   0.9349   3.7102   5.8784   6.5369   7.0933
     7.5965   8.0527   9.7700  10.8157  12.0839  12.8918  14.6454  15.7280
    16.3534  16.7788

          k = 0.2500 0.2931 0.0000 (  5710 PWs)   bands (ev):

   -45.1976 -23.6344 -23.4199 -23.0760 -20.4672 -12.2623  -2.8872  -2.5176
    -2.4477  -1.5460  -0.6649   0.5299   3.7901   5.9368   6.6479   7.2612
     7.7887   8.5863  10.0958  11.2614  12.3392  12.7993  14.5712  15.0107
    15.6712  16.7321

          k = 0.2500 0.3663 0.0000 (  5716 PWs)   bands (ev):

   -45.1882 -23.6500 -23.4215 -23.1428 -20.4586 -12.1206  -2.9043  -2.5482
    -2.4621  -1.7405  -0.6422   0.0391   3.9480   6.0242   6.8206   7.1958
     7.9783   9.3832  10.4581  11.7946  12.5904  12.9004  14.1775  14.6823
    15.0601  16.1956

          k = 0.2500 0.4396 0.0000 (  5707 PWs)   bands (ev):

   -45.1802 -23.6661 -23.4070 -23.2116 -20.4524 -11.9946  -2.9275  -2.6306
    -2.4229  -1.8402  -0.6650  -0.3818   4.1306   6.1951   6.8562   7.2662
     7.9681  10.2644  10.7858  12.1384  12.6652  13.2523  13.9130  14.4129
    14.8962  15.4746

          k = 0.2500 0.5129 0.0000 (  5710 PWs)   bands (ev):

   -45.1749 -23.6740 -23.3927 -23.2647 -20.4488 -11.9070  -2.9635  -2.6647
    -2.3980  -1.8692  -0.8630  -0.5122   4.2753   6.4460   6.7657   7.4457
     7.7977  10.6726  11.3844  12.0808  12.9959  13.4178  13.6292  14.1810
    14.8775  15.4635

          k = 0.2500 0.5861 0.0000 (  5698 PWs)   bands (ev):

   -45.1730 -23.6756 -23.3871 -23.2850 -20.4477 -11.8756  -2.9826  -2.6680
    -2.3900  -1.8695  -0.9798  -0.5209   4.3302   6.5994   6.7287   7.4843
     7.7039  10.6552  12.0222  12.2974  12.3947  13.3352  13.8126  14.2797
    14.8904  15.5424

          k = 0.2500-0.0733 0.0000 (  5684 PWs)   bands (ev):

   -45.2201 -23.6565 -23.2711 -22.9973 -20.4924 -12.5771  -2.7871  -2.6354
    -2.3591  -0.9416  -0.3619   1.1106   3.8159   5.6822   6.3980   6.7151
     7.3875   7.6012   9.3302  10.4432  12.3516  13.2680  13.8489  15.7743
    16.6954  16.9853

          k = 0.2500 0.0000 0.0000 (  5696 PWs)   bands (ev):

   -45.2220 -23.6612 -23.2460 -23.0007 -20.4947 -12.6015  -2.7675  -2.6469
    -2.3658  -0.9290  -0.2229   1.0502   3.8625   5.5963   6.4395   6.7064
     7.2781   7.5764   9.2685  10.4165  12.8091  13.0623  13.5589  15.5783
    16.6312  16.9548

          k = 0.3125 0.1832 0.0000 (  5705 PWs)   bands (ev):

   -45.2024 -23.6415 -23.4189 -23.0251 -20.4738 -12.3287  -2.9254  -2.5297
    -2.3709  -1.5541  -0.6705   0.9692   3.6121   6.0057   6.7163   7.1762
     7.7266   8.2273   9.8492  10.8360  11.9340  12.7602  15.0192  15.4966
    16.6309  16.7109

          k = 0.3125 0.2564 0.0000 (  5710 PWs)   bands (ev):

   -45.1955 -23.6607 -23.4334 -23.0511 -20.4691 -12.2266  -2.9628  -2.4989
    -2.4084  -1.8091  -0.6447   0.7662   3.6218   6.1281   6.7467   7.3988
     7.8417   8.6343  10.0279  11.0862  12.0468  12.7140  14.5516  15.2394
    15.9559  16.6944

          k = 0.3125 0.3297 0.0000 (  5712 PWs)   bands (ev):

   -45.1880 -23.6798 -23.4265 -23.1064 -20.4622 -12.1120  -2.9659  -2.5237
    -2.4554  -1.9384  -0.6175   0.3253   3.7727   6.2610   6.7513   7.4018
     7.9661   9.3675  10.3336  11.5674  12.3010  12.7825  13.9873  14.6665
    15.4436  16.5159

          k = 0.3125 0.4030 0.0000 (  5714 PWs)   bands (ev):

   -45.1810 -23.6851 -23.4103 -23.1817 -20.4544 -12.0022  -2.9497  -2.6324
    -2.4275  -1.9475  -0.6130  -0.2102   4.0141   6.3431   6.8077   7.3630
     7.9518  10.2300  10.7098  12.1050  12.5386  13.0135  13.5731  14.3200
    15.1069  15.9892

          k = 0.3125 0.4762 0.0000 (  5702 PWs)   bands (ev):

   -45.1757 -23.6737 -23.3948 -23.2588 -20.4479 -11.9155  -2.9615  -2.6622
    -2.3975  -1.8710  -0.8393  -0.5144   4.2706   6.4376   6.7642   7.4514
     7.8033  10.6481  11.3798  12.0993  12.9653  13.4601  13.5882  14.2505
    14.8385  15.4344

          k = 0.3125 0.5495 0.0000 (  5687 PWs)   bands (ev):

   -45.1728 -23.6576 -23.3861 -23.3112 -20.4442 -11.8675  -2.9933  -2.6326
    -2.3753  -1.7203  -1.2408  -0.5339   4.4431   6.5700   6.6853   7.4005
     7.7708  10.6253  12.0179  12.2852  13.0354  13.2894  14.0017  14.2628
    14.9859  15.6102

          k = 0.3125-0.1099 0.0000 (  5705 PWs)   bands (ev):

   -45.2077 -23.6329 -23.3822 -23.0267 -20.4759 -12.4045  -2.8593  -2.5662
    -2.3789  -1.2525  -0.6737   0.9088   3.7237   5.8744   6.5420   7.0976
     7.5979   8.0439   9.7555  10.8131  12.0986  12.9008  14.7129  15.7392
    16.3498  16.7415

          k = 0.3125-0.0366 0.0000 (  5695 PWs)   bands (ev):

   -45.2106 -23.6316 -23.3477 -23.0395 -20.4765 -12.4447  -2.7908  -2.6071
    -2.3975  -1.0460  -0.6376   0.7526   3.8429   5.6905   6.5479   7.0564
     7.4900   7.9757   9.7085  10.8469  12.6104  13.0508  13.8411  15.6137
    16.3648  16.8642

          k = 0.3750 0.2198 0.0000 (  5699 PWs)   bands (ev):

   -45.1919 -23.6925 -23.4357 -23.0459 -20.4694 -12.1675  -3.0241  -2.4910
    -2.3864  -2.0464  -0.6205   0.8406   3.5238   6.2279   6.9602   7.4757
     7.9921   8.7998  10.0045  11.0420  12.0370  12.7019  13.9952  15.3725
    15.8744  16.1853

          k = 0.3750 0.2931 0.0000 (  5704 PWs)   bands (ev):

   -45.1868 -23.7188 -23.4272 -23.0709 -20.4670 -12.0884  -3.0479  -2.5135
    -2.4269  -2.1589  -0.5947   0.6401   3.5741   6.3801   6.9262   7.5405
     8.0762   9.3385  10.1750  11.2515  12.1543  12.7560  13.5430  14.9130
    15.3437  16.0748

          k = 0.3750 0.3663 0.0000 (  5697 PWs)   bands (ev):

   -45.1817 -23.7236 -23.4135 -23.1279 -20.4606 -12.0078  -3.0198  -2.6267
    -2.4326  -2.1252  -0.5791   0.1872   3.7786   6.5519   6.8495   7.4907
     7.9957  10.1222  10.5539  11.6967  12.2654  12.7649  13.3458  14.4020
    15.0600  15.8406

          k = 0.3750 0.4396 0.0000 (  5694 PWs)   bands (ev):

   -45.1774 -23.7046 -23.4000 -23.2047 -20.4524 -11.9384  -2.9740  -2.6969
    -2.4131  -2.0246  -0.5985  -0.3495   4.0622   6.6091   6.8016   7.5038
     7.7978  10.5279  11.3359  12.1381  12.3291  12.7862  13.4916  14.3558
    14.9339  15.5355

          k = 0.3750 0.5129 0.0000 (  5693 PWs)   bands (ev):

   -45.1745 -23.6721 -23.3906 -23.2780 -20.4456 -11.8915  -2.9779  -2.6610
    -2.3880  -1.8578  -0.9527  -0.5327   4.3307   6.6100   6.6965   7.4889
     7.7169  10.6056  12.0393  12.2365  12.3260  13.4686  13.8419  14.2819
    14.8556  15.4986

          k = 0.3750 0.5861 0.0000 (  5692 PWs)   bands (ev):

   -45.1735 -23.6539 -23.3873 -23.3107 -20.4431 -11.8749  -2.9907  -2.6275
    -2.3739  -1.6950  -1.2524  -0.5408   4.4495   6.5839   6.6624   7.3947
     7.7789  10.6001  12.0372  12.1594  13.1148  13.2818  14.1174  14.2173
    14.9597  15.5981

          k = 0.3750-0.1465 0.0000 (  5717 PWs)   bands (ev):

   -45.1962 -23.6572 -23.4323 -23.0530 -20.4679 -12.2334  -2.9586  -2.5000
    -2.4049  -1.7855  -0.6476   0.7399   3.6373   6.1327   6.7601   7.3862
     7.8350   8.6189  10.0127  11.0860  12.0535  12.7150  14.5694  15.2832
    15.9111  16.7351

          k = 0.3750-0.0733 0.0000 (  5710 PWs)   bands (ev):

   -45.1991 -23.6303 -23.4155 -23.0779 -20.4650 -12.2767  -2.8801  -2.5204
    -2.4380  -1.4997  -0.6698   0.4879   3.8134   5.9341   6.6592   7.2713
     7.7683   8.5636  10.0660  11.2539  12.3678  12.8124  14.6495  15.0254
    15.6966  16.6928

          k = 0.3750 0.0000 0.0000 (  5700 PWs)   bands (ev):

   -45.2001 -23.6211 -23.4039 -23.0924 -20.4636 -12.2918  -2.8397  -2.5388
    -2.4505  -1.3588  -0.6807   0.3483   3.9028   5.7920   6.7179   7.1583
     7.7696   8.5495  10.0884  11.3152  12.6922  12.9679  14.1083  14.8906
    16.0195  16.4780

          k = 0.4375 0.2564 0.0000 (  5681 PWs)   bands (ev):

   -45.1848 -23.7478 -23.4229 -23.0598 -20.4693 -12.0536  -3.1044  -2.5303
    -2.3984  -2.3004  -0.5765   0.7586   3.4801   6.4420   7.0361   7.6086
     8.2897   9.4267  10.1259  11.1813  12.0826  12.6637  13.3549  14.7907
    15.1562  15.7487

          k = 0.4375 0.3297 0.0000 (  5704 PWs)   bands (ev):

   -45.1822 -23.7566 -23.4153 -23.0821 -20.4671 -12.0112  -3.1030  -2.5999
    -2.4257  -2.2700  -0.5647   0.5701   3.5605   6.5585   6.9985   7.5796
     8.2349   9.9209  10.3307  11.3642  11.9561  12.6010  13.4408  14.3824
    15.0008  15.5669

          k = 0.4375 0.4030 0.0000 (  5693 PWs)   bands (ev):

   -45.1797 -23.7384 -23.4073 -23.1364 -20.4599 -11.9726  -3.0383  -2.6781
    -2.4268  -2.1638  -0.5656   0.1308   3.7891   6.6327   6.9682   7.4864
     7.9873  10.3147  10.9054  11.7755  11.9053  12.6199  13.4812  14.2332
    15.0515  15.3380

          k = 0.4375 0.4762 0.0000 (  5702 PWs)   bands (ev):

   -45.1779 -23.7007 -23.4006 -23.2063 -20.4515 -11.9434  -2.9719  -2.6902
    -2.4122  -2.0108  -0.5989  -0.3664   4.0706   6.6142   6.8033   7.5178
     7.7741  10.5130  11.2415  12.1581  12.3790  12.7925  13.4842  14.3624
    14.9535  15.5619

          k = 0.4375 0.5495 0.0000 (  5701 PWs)   bands (ev):

   -45.1769 -23.6656 -23.3963 -23.2607 -20.4459 -11.9278  -2.9578  -2.6493
    -2.3955  -1.8322  -0.8574  -0.5321   4.2864   6.4483   6.7447   7.4761
     7.7753  10.6163  11.2537  12.1213  12.9510  13.4972  13.6888  14.2086
    14.8615  15.4724

          k = 0.4375-0.1832 0.0000 (  5711 PWs)   bands (ev):

   -45.1873 -23.7152 -23.4275 -23.0726 -20.4661 -12.0932  -3.0439  -2.5129
    -2.4253  -2.1437  -0.5970   0.6212   3.5858   6.3785   6.9567   7.5225
     8.0731   9.3077  10.1547  11.2553  12.1583  12.7479  13.5570  14.9427
    15.3361  16.0788

          k = 0.4375-0.1099 0.0000 (  5707 PWs)   bands (ev):

   -45.1891 -23.6721 -23.4264 -23.1096 -20.4601 -12.1238  -2.9586  -2.5202
    -2.4511  -1.9007  -0.6226   0.2862   3.7955   6.2684   6.7601   7.4145
     7.9351   9.3269  10.2933  11.5656  12.3143  12.7753  14.0200  14.6859
    15.4892  16.5531

          k = 0.4375-0.0366 0.0000 (  5722 PWs)   bands (ev):

   -45.1902 -23.6407 -23.4206 -23.1445 -20.4555 -12.1403  -2.8960  -2.5382
    -2.4586  -1.6821  -0.6509  -0.0045   3.9737   6.0235   6.8121   7.2355
     7.9392   9.3370  10.4036  11.7803  12.5828  12.9653  14.1738  14.7776
    15.1107  16.1565

          k =-0.5000-0.2931 0.0000 (  5692 PWs)   bands (ev):

   -45.1823 -23.7691 -23.4159 -23.0646 -20.4698 -12.0123  -3.1391  -2.5817
    -2.4032  -2.3458  -0.5601   0.7306   3.4684   6.5528   7.0113   7.6437
     8.4197   9.7753  10.2014  11.3013  11.8041  12.5505  13.5226  14.2971
    14.9686  15.5742

          k =-0.5000-0.2198 0.0000 (  5697 PWs)   bands (ev):

   -45.1823 -23.7552 -23.4155 -23.0828 -20.4667 -12.0129  -3.1011  -2.5987
    -2.4253  -2.2657  -0.5656   0.5632   3.5648   6.5525   7.0204   7.5688
     8.2367   9.8970  10.3197  11.3636  11.9743  12.5969  13.4294  14.4012
    15.0226  15.5495

          k =-0.5000-0.1465 0.0000 (  5713 PWs)   bands (ev):

   -45.1824 -23.7184 -23.4141 -23.1301 -20.4593 -12.0145  -3.0148  -2.6207
    -2.4313  -2.1077  -0.5817   0.1641   3.7921   6.5452   6.8820   7.4886
     7.9756  10.0865  10.4966  11.6993  12.2991  12.7565  13.3481  14.4292
    15.0917  15.8448

          k =-0.5000-0.0733 0.0000 (  5710 PWs)   bands (ev):

   -45.1824 -23.6755 -23.4113 -23.1850 -20.4520 -12.0160  -2.9436  -2.6195
    -2.4253  -1.9062  -0.6172  -0.2509   4.0362   6.3540   6.7937   7.4022
     7.9066  10.1890  10.6207  12.0991  12.5297  13.0456  13.6252  14.3273
    15.1753  15.9964

          k =-0.5000-0.0000 0.0000 (  5716 PWs)   bands (ev):

   -45.1824 -23.6551 -23.4092 -23.2113 -20.4490 -12.0167  -2.9210  -2.6124
    -2.4208  -1.7852  -0.6717  -0.4160   4.1517   6.1956   6.8305   7.3229
     7.9239  10.2129  10.6812  12.1501  12.6162  13.3677  13.9398  14.4379
    14.9146  15.5026

     highest occupied, lowest unoccupied level (ev):     4.4495    5.5963

!    total energy              =    -571.23403418 Ry
     total all-electron energy =    -12610.611446 Ry
     estimated scf accuracy    <          2.4E-11 Ry

     The total energy is the sum of the following terms:
     one-electron contribution =    -279.41637449 Ry
     hartree contribution      =     148.35026278 Ry
     xc contribution           =     -36.37009106 Ry
     ewald contribution        =      -6.94119436 Ry
     one-center paw contrib.   =    -396.85663705 Ry

     convergence has been achieved in   6 iterations

     negative rho (up, down):  2.818E-05 0.000E+00

     Forces acting on atoms (cartesian axes, Ry/au):

     atom    1 type  1   force =     0.00000000   -0.00007170   -0.00007484
     atom    2 type  2   force =     0.00000000   -0.00019057    0.00002983
     atom    3 type  3   force =     0.00000000    0.00026227    0.00004501
     The non-local contrib.  to forces
     atom    1 type  1   force =     0.00000000   -0.00280225   -0.02403854
     atom    2 type  2   force =     0.00000000   -0.02088653   -1.02162157
     atom    3 type  3   force =     0.00000000   -0.00106473    0.21134503
     The ionic contribution  to forces
     atom    1 type  1   force =    -0.00000001   -0.15574582   -0.67600257
     atom    2 type  2   force =     0.00000001    0.11325950   25.03242689
     atom    3 type  3   force =     0.00000000    0.04248632  -24.35642432
     The local contribution  to forces
     atom    1 type  1   force =    -0.00000000    0.15836043    0.69592923
     atom    2 type  2   force =     0.00000027   -0.09262953  -24.01408602
     atom    3 type  3   force =    -0.00000000   -0.04103713   24.14758881
     The core correction contribution to forces
     atom    1 type  1   force =     0.00000000    0.00011807    0.00402593
     atom    2 type  2   force =     0.00000000    0.00006762    0.00330985
     atom    3 type  3   force =    -0.00000000   -0.00012050   -0.00246210
     The Hubbard contrib.    to forces
     atom    1 type  1   force =     0.00000000    0.00000000    0.00000000
     atom    2 type  2   force =     0.00000000    0.00000000    0.00000000
     atom    3 type  3   force =     0.00000000    0.00000000    0.00000000
     The SCF correction term to forces
     atom    1 type  1   force =    -0.00000000   -0.00000122    0.00000927
     atom    2 type  2   force =    -0.00000000   -0.00000071   -0.00000116
     atom    3 type  3   force =     0.00000000   -0.00000078   -0.00000426

     Total force =     0.000345     Total SCF correction =     0.000010
     Energy error            =      7.3E-07 Ry
     Gradient error          =      2.6E-04 Ry/Bohr

     number of scf cycles    =   8
     number of bfgs steps    =   7

     energy             old  =    -571.2340334543 Ry
     energy             new  =    -571.2340341848 Ry

     CASE: energy            _new < energy            _old

     new trust radius        =       0.0015409950 bohr
     new conv_thr            =            1.0E-10 Ry


ATOMIC_POSITIONS (angstrom)
Zr           -0.0000000000        0.0171609783       10.1025912465
F            -0.0000000020        1.9209235376       11.4196686198
Br           -0.0000000020        1.9237232473        8.1959188466



     Writing config-only to output data dir ./tmp/ZrFBr.save/
     NEW-OLD atomic charge density approx. for the potential

     Check: negative core charge=   -0.000002

     negative rho (up, down):  2.817E-05 0.000E+00

     total cpu time spent up to now is       92.5 secs

     Self-consistent Calculation

     iteration #  1     ecut=    65.00 Ry     beta= 0.70
     Davidson diagonalization with overlap
     ethr =  1.00E-06,  avg # of iterations =  2.0

     Threshold (ethr) on eigenvalues was too large:
     Diagonalizing with lowered threshold

     Davidson diagonalization with overlap
     ethr =  4.95E-10,  avg # of iterations =  4.0

     negative rho (up, down):  2.814E-05 0.000E+00

     total cpu time spent up to now is       95.7 secs

     total energy              =    -571.23403448 Ry
     estimated scf accuracy    <       0.00000014 Ry

     iteration #  2     ecut=    65.00 Ry     beta= 0.70
     Davidson diagonalization with overlap
     ethr =  5.31E-10,  avg # of iterations =  2.0

     negative rho (up, down):  2.817E-05 0.000E+00

     total cpu time spent up to now is       97.2 secs

     total energy              =    -571.23403446 Ry
     estimated scf accuracy    <       0.00000021 Ry

     iteration #  3     ecut=    65.00 Ry     beta= 0.70
     Davidson diagonalization with overlap
     ethr =  5.31E-10,  avg # of iterations =  1.9

     negative rho (up, down):  2.818E-05 0.000E+00

     total cpu time spent up to now is       98.5 secs

     total energy              =    -571.23403451 Ry
     estimated scf accuracy    <       0.00000004 Ry

     iteration #  4     ecut=    65.00 Ry     beta= 0.70
     Davidson diagonalization with overlap
     ethr =  1.40E-10,  avg # of iterations =  1.0

     negative rho (up, down):  2.818E-05 0.000E+00

     total cpu time spent up to now is       99.6 secs

     total energy              =    -571.23403452 Ry
     estimated scf accuracy    <          2.6E-09 Ry

     iteration #  5     ecut=    65.00 Ry     beta= 0.70
     Davidson diagonalization with overlap
     ethr =  9.82E-12,  avg # of iterations =  2.0

     negative rho (up, down):  2.818E-05 0.000E+00

     total cpu time spent up to now is      101.0 secs

     total energy              =    -571.23403452 Ry
     estimated scf accuracy    <          3.7E-10 Ry

     iteration #  6     ecut=    65.00 Ry     beta= 0.70
     Davidson diagonalization with overlap
     ethr =  1.43E-12,  avg # of iterations =  2.0

     negative rho (up, down):  2.818E-05 0.000E+00

     total cpu time spent up to now is      102.3 secs

     End of self-consistent calculation

          k = 0.0000 0.0000 0.0000 (  5617 PWs)   bands (ev):

   -45.2481 -23.7510 -22.9531 -22.9303 -20.5635 -12.9205  -3.0730  -2.3619
    -2.3307  -1.0818   1.5405   1.6518   3.8049   5.8399   6.0270   6.0976
     6.9442   7.0187   8.0754   8.9921  11.2960  14.1890  14.7650  15.0463
    15.4312  17.3984

          k = 0.0000 0.0733 0.0000 (  5647 PWs)   bands (ev):

   -45.2456 -23.7415 -22.9644 -22.9586 -20.5546 -12.8899  -3.0368  -2.3713
    -2.3623  -1.0571   1.4123   1.4954   3.8284   5.8881   5.9496   6.1930
     6.9593   6.9963   8.2130   9.2187  11.4452  14.2569  14.6011  14.9070
    15.3250  17.6844

          k = 0.0000 0.1465 0.0000 (  5692 PWs)   bands (ev):

   -45.2381 -23.7148 -23.0579 -22.9744 -20.5323 -12.8008  -2.9402  -2.4733
    -2.3645  -0.9979   0.8122   1.3716   3.8699   5.8081   6.0421   6.2942
     7.0235   7.1314   8.5742   9.6939  11.8713  13.8539  14.2844  15.1868
    15.3288  17.7798

          k = 0.0000 0.2198 0.0000 (  5710 PWs)   bands (ev):

   -45.2270 -23.6767 -23.1883 -22.9979 -20.5066 -12.6618  -2.8254  -2.5879
    -2.3712  -0.9372   0.0642   1.1978   3.8629   5.7391   6.3141   6.3391
     7.3052   7.3360   9.0599  10.1681  12.2415  13.4897  13.9240  15.6004
    16.0141  17.4597

          k = 0.0000 0.2931 0.0000 (  5708 PWs)   bands (ev):

   -45.2138 -23.6401 -23.3233 -23.0254 -20.4861 -12.4880  -2.8190  -2.5982
    -2.3840  -1.0042  -0.5652   1.0085   3.7754   5.8167   6.4823   6.6942
     7.4847   7.7597   9.5462  10.5557  12.0651  13.1236  14.5050  16.1762
    16.8053  16.8360

          k = 0.0000 0.3663 0.0000 (  5708 PWs)   bands (ev):

   -45.2006 -23.6369 -23.4153 -23.0527 -20.4748 -12.3019  -2.9184  -2.5252
    -2.4018  -1.5306  -0.6485   0.8338   3.6581   5.9939   6.7386   7.1206
     7.6778   8.2553   9.8868  10.8269  11.9525  12.8098  15.1823  15.5962
    16.5281  16.7710

          k = 0.0000 0.4396 0.0000 (  5704 PWs)   bands (ev):

   -45.1893 -23.6912 -23.4298 -23.0758 -20.4716 -12.1327  -3.0163  -2.4928
    -2.4204  -2.0347  -0.5932   0.6957   3.5700   6.2108   6.9687   7.4336
     7.9663   8.8372  10.0356  11.0303  12.0823  12.7705  14.1288  15.4680
    16.0043  16.0213

          k = 0.0000 0.5129 0.0000 (  5718 PWs)   bands (ev):

   -45.1818 -23.7488 -23.4151 -23.0911 -20.4724 -12.0129  -3.0942  -2.5417
    -2.4346  -2.2946  -0.5453   0.6079   3.5267   6.4262   7.0261   7.5613
     8.3025   9.4732  10.1514  11.1830  12.1699  12.7666  13.4261  14.8738
    15.2824  15.5535

          k = 0.0000-0.5861 0.0000 (  5730 PWs)   bands (ev):

   -45.1792 -23.7710 -23.4075 -23.0965 -20.4732 -11.9695  -3.1277  -2.5970
    -2.4399  -2.3423  -0.5275   0.5779   3.5154   6.5409   6.9900   7.5938
     8.4498   9.8353  10.2045  11.3195  11.9286  12.6381  13.5796  14.3740
    15.0920  15.3697

          k = 0.0625 0.0366 0.0000 (  5641 PWs)   bands (ev):

   -45.2457 -23.7419 -22.9824 -22.9391 -20.5547 -12.8911  -3.0376  -2.3958
    -2.3358  -1.0585   1.3272   1.5893   3.8248   5.7953   6.0505   6.1913
     6.9093   7.0576   8.2062   9.2104  11.4397  14.2567  14.4436  15.1201
    15.3049  17.6227

          k = 0.0625 0.1099 0.0000 (  5653 PWs)   bands (ev):

   -45.2407 -23.7238 -23.0344 -22.9615 -20.5392 -12.8313  -2.9708  -2.4505
    -2.3539  -1.0167   0.9691   1.4452   3.8571   5.7818   6.0597   6.2888
     6.9287   7.1337   8.4565   9.5563  11.7364  14.0000  14.3090  15.0734
    15.3610  17.7540

          k = 0.0625 0.1832 0.0000 (  5690 PWs)   bands (ev):

   -45.2314 -23.6912 -23.1399 -22.9876 -20.5153 -12.7171  -2.8600  -2.5540
    -2.3673  -0.9558   0.3424   1.2495   3.8796   5.6983   6.2523   6.3571
     7.0979   7.3188   8.8814  10.0178  12.2468  13.4662  13.9867  15.2718
    15.9337  17.3762

          k = 0.0625 0.2564 0.0000 (  5702 PWs)   bands (ev):

   -45.2193 -23.6527 -23.2687 -23.0177 -20.4926 -12.5604  -2.7810  -2.6269
    -2.3839  -0.9264  -0.3434   1.0288   3.8427   5.7099   6.3911   6.6412
     7.3379   7.6229   9.3718  10.4523  12.3416  13.2916  13.8825  15.7924
    16.6661  16.9714

          k = 0.0625 0.3297 0.0000 (  5699 PWs)   bands (ev):

   -45.2061 -23.6288 -23.3818 -23.0493 -20.4771 -12.3796  -2.8549  -2.5606
    -2.4065  -1.2408  -0.6568   0.8137   3.7539   5.8712   6.5408   7.0555
     7.5547   8.0694   9.7999  10.8101  12.0867  12.9308  14.7671  15.8301
    16.3817  16.7591

          k = 0.0625 0.4030 0.0000 (  5708 PWs)   bands (ev):

   -45.1938 -23.6567 -23.4288 -23.0782 -20.4702 -12.2006  -2.9549  -2.4996
    -2.4337  -1.7848  -0.6234   0.6307   3.6683   6.1152   6.7581   7.3589
     7.8097   8.6564  10.0547  11.0653  12.0719  12.7643  14.7011  15.3080
    15.9685  16.7457

          k = 0.0625 0.4762 0.0000 (  5709 PWs)   bands (ev):

   -45.1844 -23.7176 -23.4207 -23.1002 -20.4693 -12.0544  -3.0383  -2.5294
    -2.4423  -2.1517  -0.5680   0.4987   3.6195   6.3618   6.9410   7.4931
     8.0732   9.3653  10.1957  11.2295  12.2107  12.8319  13.6530  14.9421
    15.4324  16.0370

          k = 0.0625 0.5495 0.0000 (  5712 PWs)   bands (ev):

   -45.1793 -23.7578 -23.4075 -23.1121 -20.4702 -11.9716  -3.0924  -2.6187
    -2.4410  -2.2777  -0.5346   0.4298   3.6030   6.5413   6.9957   7.5331
     8.2581   9.9708  10.3308  11.3592  12.0755  12.6844  13.4845  14.4511
    15.1033  15.4455

          k = 0.1250 0.0733 0.0000 (  5663 PWs)   bands (ev):

   -45.2387 -23.7164 -23.0716 -22.9549 -20.5326 -12.8057  -2.9430  -2.4917
    -2.3393  -1.0030   0.7449   1.4693   3.8546   5.7057   6.1751   6.2849
     6.9967   7.1861   8.5542   9.6784  11.8513  13.7964  14.2397  15.1566
    15.5214  17.7432

          k = 0.1250 0.1465 0.0000 (  5670 PWs)   bands (ev):

   -45.2319 -23.6924 -23.1463 -22.9768 -20.5155 -12.7209  -2.8619  -2.5620
    -2.3546  -0.9596   0.3067   1.3093   3.8653   5.6750   6.2989   6.3494
     7.0949   7.3370   8.8693  10.0110  12.2340  13.4417  13.9626  15.2637
    16.0075  17.4040

          k = 0.1250 0.2198 0.0000 (  5692 PWs)   bands (ev):

   -45.2216 -23.6588 -23.2490 -23.0112 -20.4950 -12.5887  -2.7634  -2.6431
    -2.3808  -0.9194  -0.2379   1.0351   3.8676   5.6314   6.4174   6.6548
     7.2366   7.6000   9.3025  10.4247  12.8069  13.0272  13.5564  15.5845
    16.6683  16.9442

          k = 0.1250 0.2931 0.0000 (  5690 PWs)   bands (ev):

   -45.2094 -23.6289 -23.3526 -23.0523 -20.4779 -12.4240  -2.7904  -2.6030
    -2.4163  -1.0511  -0.6399   0.7258   3.8491   5.7029   6.5249   7.0289
     7.4627   7.9972   9.7504  10.8521  12.5617  13.0335  13.8429  15.6434
    16.4496  16.9157

          k = 0.1250 0.3663 0.0000 (  5703 PWs)   bands (ev):

   -45.1972 -23.6311 -23.4168 -23.0936 -20.4675 -12.2484  -2.8813  -2.5200
    -2.4586  -1.5205  -0.6535   0.4426   3.8211   5.9286   6.6463   7.2425
     7.7677   8.5958  10.1137  11.2461  12.3331  12.8121  14.6604  15.0972
    15.7373  16.7478

          k = 0.1250 0.4396 0.0000 (  5696 PWs)   bands (ev):

   -45.1868 -23.6771 -23.4222 -23.1287 -20.4634 -12.0895  -2.9592  -2.5432
    -2.4534  -1.9231  -0.6002   0.2199   3.8073   6.2536   6.7555   7.3758
     7.9532   9.3829  10.3527  11.5230  12.3151  12.8154  14.0977  14.6889
    15.5560  16.5671

          k = 0.1250 0.5129 0.0000 (  5713 PWs)   bands (ev):

   -45.1798 -23.7235 -23.4076 -23.1523 -20.4630 -11.9775  -3.0126  -2.6438
    -2.4355  -2.1280  -0.5566   0.0779   3.8110   6.5337   6.8704   7.4541
     7.9980  10.1637  10.5599  11.6318  12.3322  12.8397  13.4016  14.4226
    15.1541  15.8600

          k = 0.1250 0.5861 0.0000 (  5714 PWs)   bands (ev):

   -45.1774 -23.7413 -23.4005 -23.1607 -20.4632 -11.9370  -3.0326  -2.6978
    -2.4321  -2.1785  -0.5403   0.0290   3.8157   6.6178   6.9730   7.4501
     8.0047  10.3865  10.9096  11.7166  12.0177  12.6659  13.5160  14.2957
    15.1133  15.3188

          k = 0.1250 0.0000 0.0000 (  5658 PWs)   bands (ev):

   -45.2412 -23.7249 -23.0439 -22.9477 -20.5394 -12.8349  -2.9729  -2.4647
    -2.3346  -1.0206   0.9290   1.5036   3.8492   5.6965   6.1616   6.2861
     6.9378   7.1499   8.4397   9.5436  11.7240  13.9410  14.2899  15.0922
    15.4860  17.7446

          k = 0.1875 0.1099 0.0000 (  5672 PWs)   bands (ev):

   -45.2283 -23.6799 -23.1978 -22.9764 -20.5067 -12.6726  -2.8302  -2.6012
    -2.3448  -0.9482   0.0127   1.3078   3.8305   5.6913   6.3100   6.4336
     7.3106   7.3621   9.0278  10.1550  12.2227  13.4479  13.8672  15.5576
    16.1820  17.4845

          k = 0.1875 0.1832 0.0000 (  5689 PWs)   bands (ev):

   -45.2204 -23.6557 -23.2757 -23.0002 -20.4927 -12.5700  -2.7858  -2.6344
    -2.3642  -0.9391  -0.3825   1.1261   3.8095   5.7035   6.3911   6.6804
     7.3617   7.6223   9.3479  10.4473  12.3408  13.2555  13.8133  15.7545
    16.7623  17.0003

          k = 0.1875 0.2564 0.0000 (  5701 PWs)   bands (ev):

   -45.2101 -23.6308 -23.3557 -23.0429 -20.4778 -12.4300  -2.7939  -2.6042
    -2.4072  -1.0671  -0.6504   0.7783   3.8297   5.7074   6.5259   7.0380
     7.4801   7.9921   9.7387  10.8537  12.5754  13.0303  13.7701  15.6405
    16.4090  16.8820

          k = 0.1875 0.3297 0.0000 (  5695 PWs)   bands (ev):

   -45.1989 -23.6240 -23.4099 -23.0971 -20.4660 -12.2698  -2.8454  -2.5370
    -2.4638  -1.4059  -0.6730   0.3689   3.8870   5.7989   6.6987   7.1381
     7.7842   8.5768  10.1304  11.3244  12.6835  12.8769  14.0700  14.9217
    16.0250  16.5517

          k = 0.1875 0.4030 0.0000 (  5700 PWs)   bands (ev):

   -45.1885 -23.6488 -23.4204 -23.1520 -20.4588 -12.1127  -2.9015  -2.5559
    -2.4592  -1.7294  -0.6377  -0.0019   3.9614   6.0223   6.8168   7.1883
     7.9714   9.3879  10.4667  11.7807  12.5924  12.8688  14.1857  14.8035
    15.1189  16.1306

          k = 0.1875 0.4762 0.0000 (  5711 PWs)   bands (ev):

   -45.1805 -23.6842 -23.4073 -23.1965 -20.4556 -11.9858  -2.9475  -2.6409
    -2.4264  -1.9411  -0.6072  -0.2695   4.0323   6.3479   6.8048   7.3495
     7.9435  10.2524  10.7238  12.0587  12.5114  13.0143  13.6819  14.3154
    15.2181  15.9210

          k = 0.1875 0.5495 0.0000 (  5709 PWs)   bands (ev):

   -45.1762 -23.7064 -23.3955 -23.2215 -20.4546 -11.9144  -2.9741  -2.7067
    -2.4145  -2.0311  -0.5994  -0.3998   4.0771   6.6007   6.8250   7.4744
     7.7977  10.5858  11.3442  12.1069  12.3585  12.7708  13.5390  14.3861
    14.9714  15.5921

          k = 0.1875-0.0366 0.0000 (  5677 PWs)   bands (ev):

   -45.2326 -23.6939 -23.1472 -22.9702 -20.5154 -12.7265  -2.8643  -2.5662
    -2.3437  -0.9649   0.3102   1.3217   3.8608   5.6282   6.3304   6.3849
     7.1378   7.3121   8.8494  10.0038  12.2267  13.4454  13.9570  15.2765
    16.0512  17.3919

          k = 0.2500 0.1465 0.0000 (  5688 PWs)   bands (ev):

   -45.2159 -23.6451 -23.3291 -23.0014 -20.4857 -12.5063  -2.8256  -2.6060
    -2.3553  -1.0295  -0.5936   1.1323   3.7316   5.8091   6.4532   6.7812
     7.5329   7.7396   9.5067  10.5513  12.0616  13.0797  14.4114  16.0974
    16.6806  16.9860

          k = 0.2500 0.2198 0.0000 (  5700 PWs)   bands (ev):

   -45.2080 -23.6337 -23.3873 -23.0269 -20.4767 -12.3969  -2.8616  -2.5647
    -2.3822  -1.2739  -0.6756   0.9354   3.7093   5.8773   6.5352   7.0927
     7.5954   8.0522   9.7695  10.8159  12.0836  12.8903  14.6454  15.7279
    16.3537  16.7784

          k = 0.2500 0.2931 0.0000 (  5710 PWs)   bands (ev):

   -45.1987 -23.6349 -23.4208 -23.0770 -20.4669 -12.2622  -2.8863  -2.5169
    -2.4468  -1.5457  -0.6652   0.5302   3.7893   5.9355   6.6463   7.2604
     7.7876   8.5859  10.0951  11.2615  12.3392  12.7981  14.5708  15.0105
    15.6712  16.7317

          k = 0.2500 0.3663 0.0000 (  5716 PWs)   bands (ev):

   -45.1893 -23.6505 -23.4224 -23.1437 -20.4583 -12.1205  -2.9035  -2.5473
    -2.4614  -1.7403  -0.6424   0.0392   3.9472   6.0228   6.8191   7.1946
     7.9772   9.3830  10.4573  11.7946  12.5903  12.8996  14.1766  14.6823
    15.0601  16.1958

          k = 0.2500 0.4396 0.0000 (  5707 PWs)   bands (ev):

   -45.1813 -23.6666 -23.4080 -23.2125 -20.4521 -11.9944  -2.9266  -2.6298
    -2.4222  -1.8401  -0.6651  -0.3818   4.1299   6.1937   6.8546   7.2649
     7.9668  10.2645  10.7849  12.1382  12.6649  13.2516  13.9123  14.4131
    14.8960  15.4751

          k = 0.2500 0.5129 0.0000 (  5710 PWs)   bands (ev):

   -45.1760 -23.6745 -23.3937 -23.2656 -20.4485 -11.9069  -2.9626  -2.6638
    -2.3973  -1.8692  -0.8630  -0.5122   4.2746   6.4445   6.7643   7.4442
     7.7960  10.6726  11.3841  12.0801  12.9959  13.4169  13.6295  14.1804
    14.8772  15.4641

          k = 0.2500 0.5861 0.0000 (  5698 PWs)   bands (ev):

   -45.1741 -23.6761 -23.3880 -23.2859 -20.4474 -11.8754  -2.9818  -2.6671
    -2.3893  -1.8695  -0.9798  -0.5209   4.3294   6.5973   6.7283   7.4827
     7.7020  10.6551  12.0212  12.2978  12.3945  13.3344  13.8130  14.2787
    14.8904  15.5408

          k = 0.2500-0.0733 0.0000 (  5684 PWs)   bands (ev):

   -45.2212 -23.6571 -23.2719 -22.9983 -20.4921 -12.5771  -2.7862  -2.6346
    -2.3582  -0.9421  -0.3618   1.1116   3.8148   5.6810   6.3975   6.7136
     7.3860   7.6011   9.3301  10.4437  12.3508  13.2666  13.8487  15.7739
    16.6953  16.9848

          k = 0.2500 0.0000 0.0000 (  5696 PWs)   bands (ev):

   -45.2231 -23.6619 -23.2468 -23.0017 -20.4943 -12.6015  -2.7667  -2.6459
    -2.3649  -0.9295  -0.2228   1.0513   3.8613   5.5950   6.4396   6.7046
     7.2766   7.5762   9.2685  10.4171  12.8083  13.0616  13.5578  15.5779
    16.6310  16.9547

          k = 0.3125 0.1832 0.0000 (  5705 PWs)   bands (ev):

   -45.2035 -23.6420 -23.4198 -23.0261 -20.4734 -12.3286  -2.9245  -2.5290
    -2.3699  -1.5539  -0.6710   0.9700   3.6112   6.0050   6.7148   7.1752
     7.7254   8.2270   9.8485  10.8364  11.9335  12.7588  15.0197  15.4962
    16.6303  16.7099

          k = 0.3125 0.2564 0.0000 (  5710 PWs)   bands (ev):

   -45.1966 -23.6612 -23.4343 -23.0521 -20.4688 -12.2265  -2.9619  -2.4983
    -2.4075  -1.8088  -0.6451   0.7667   3.6209   6.1274   6.7449   7.3983
     7.8402   8.6338  10.0274  11.0863  12.0464  12.7128  14.5518  15.2390
    15.9552  16.6936

          k = 0.3125 0.3297 0.0000 (  5712 PWs)   bands (ev):

   -45.1891 -23.6802 -23.4274 -23.1074 -20.4618 -12.1119  -2.9650  -2.5229
    -2.4547  -1.9381  -0.6177   0.3256   3.7719   6.2602   6.7497   7.4008
     7.9649   9.3672  10.3330  11.5672  12.3007  12.7815  13.9871  14.6661
    15.4430  16.5153

          k = 0.3125 0.4030 0.0000 (  5714 PWs)   bands (ev):

   -45.1821 -23.6856 -23.4112 -23.1826 -20.4541 -12.0021  -2.9489  -2.6317
    -2.4268  -1.9472  -0.6131  -0.2101   4.0133   6.3420   6.8063   7.3616
     7.9506  10.2300  10.7091  12.1046  12.5381  13.0128  13.5729  14.3197
    15.1066  15.9890

          k = 0.3125 0.4762 0.0000 (  5702 PWs)   bands (ev):

   -45.1768 -23.6742 -23.3958 -23.2598 -20.4476 -11.9153  -2.9607  -2.6614
    -2.3969  -1.8708  -0.8391  -0.5146   4.2699   6.4365   6.7629   7.4500
     7.8018  10.6477  11.3796  12.0984  12.9652  13.4602  13.5873  14.2502
    14.8385  15.4343

          k = 0.3125 0.5495 0.0000 (  5687 PWs)   bands (ev):

   -45.1739 -23.6580 -23.3870 -23.3122 -20.4438 -11.8673  -2.9924  -2.6319
    -2.3746  -1.7202  -1.2407  -0.5340   4.4425   6.5687   6.6843   7.3987
     7.7692  10.6248  12.0170  12.2853  13.0358  13.2895  14.0008  14.2620
    14.9857  15.6102

          k = 0.3125-0.1099 0.0000 (  5705 PWs)   bands (ev):

   -45.2088 -23.6334 -23.3830 -23.0277 -20.4756 -12.4045  -2.8584  -2.5655
    -2.3780  -1.2524  -0.6742   0.9096   3.7227   5.8734   6.5414   7.0959
     7.5966   8.0438   9.7549  10.8136  12.0979  12.8994  14.7131  15.7387
    16.3491  16.7414

          k = 0.3125-0.0366 0.0000 (  5695 PWs)   bands (ev):

   -45.2117 -23.6322 -23.3485 -23.0405 -20.4762 -12.4447  -2.7899  -2.6064
    -2.3966  -1.0462  -0.6379   0.7535   3.8419   5.6893   6.5478   7.0547
     7.4885   7.9757   9.7080  10.8475  12.6096  13.0494  13.8409  15.6130
    16.3647  16.8636

          k = 0.3750 0.2198 0.0000 (  5699 PWs)   bands (ev):

   -45.1930 -23.6930 -23.4366 -23.0469 -20.4691 -12.1674  -3.0233  -2.4904
    -2.3855  -2.0462  -0.6209   0.8412   3.5228   6.2273   6.9590   7.4746
     7.9909   8.7992  10.0038  11.0421  12.0363  12.7010  13.9953  15.3723
    15.8736  16.1842

          k = 0.3750 0.2931 0.0000 (  5704 PWs)   bands (ev):

   -45.1879 -23.7193 -23.4282 -23.0719 -20.4667 -12.0883  -3.0471  -2.5130
    -2.4261  -2.1584  -0.5951   0.6407   3.5731   6.3797   6.9245   7.5398
     8.0747   9.3379  10.1746  11.2511  12.1536  12.7555  13.5430  14.9126
    15.3429  16.0744

          k = 0.3750 0.3663 0.0000 (  5697 PWs)   bands (ev):

   -45.1828 -23.7241 -23.4144 -23.1288 -20.4603 -12.0077  -3.0190  -2.6261
    -2.4320  -2.1247  -0.5794   0.1875   3.7777   6.5516   6.8478   7.4898
     7.9942  10.1219  10.5532  11.6963  12.2648  12.7646  13.3454  14.4018
    15.0593  15.8404

          k = 0.3750 0.4396 0.0000 (  5694 PWs)   bands (ev):

   -45.1785 -23.7050 -23.4010 -23.2057 -20.4521 -11.9383  -2.9732  -2.6963
    -2.4125  -2.0242  -0.5985  -0.3495   4.0614   6.6084   6.8003   7.5026
     7.7963  10.5272  11.3354  12.1375  12.3289  12.7856  13.4911  14.3561
    14.9333  15.5353

          k = 0.3750 0.5129 0.0000 (  5693 PWs)   bands (ev):

   -45.1756 -23.6725 -23.3915 -23.2789 -20.4453 -11.8914  -2.9770  -2.6604
    -2.3874  -1.8575  -0.9525  -0.5331   4.3300   6.6094   6.6951   7.4874
     7.7154  10.6045  12.0387  12.2363  12.3262  13.4682  13.8415  14.2820
    14.8555  15.4987

          k = 0.3750 0.5861 0.0000 (  5692 PWs)   bands (ev):

   -45.1746 -23.6543 -23.3883 -23.3117 -20.4428 -11.8748  -2.9898  -2.6268
    -2.3732  -1.6948  -1.2523  -0.5411   4.4489   6.5835   6.6608   7.3931
     7.7775  10.5988  12.0367  12.1595  13.1144  13.2823  14.1166  14.2176
    14.9589  15.5990

          k = 0.3750-0.1465 0.0000 (  5717 PWs)   bands (ev):

   -45.1973 -23.6577 -23.4332 -23.0540 -20.4676 -12.2333  -2.9577  -2.4993
    -2.4040  -1.7853  -0.6481   0.7406   3.6363   6.1319   6.7594   7.3845
     7.8341   8.6185  10.0116  11.0866  12.0528  12.7139  14.5696  15.2828
    15.9108  16.7336

          k = 0.3750-0.0733 0.0000 (  5710 PWs)   bands (ev):

   -45.2002 -23.6308 -23.4164 -23.0789 -20.4647 -12.2767  -2.8792  -2.5197
    -2.4372  -1.4996  -0.6703   0.4886   3.8126   5.9329   6.6588   7.2699
     7.7671   8.5633  10.0647  11.2546  12.3671  12.8113  14.6495  15.0247
    15.6961  16.6921

          k = 0.3750 0.0000 0.0000 (  5700 PWs)   bands (ev):

   -45.2012 -23.6216 -23.4048 -23.0934 -20.4633 -12.2918  -2.8388  -2.5380
    -2.4497  -1.3587  -0.6812   0.3490   3.9020   5.7907   6.7177   7.1569
     7.7682   8.5493  10.0872  11.3159  12.6913  12.9673  14.1080  14.8896
    16.0190  16.4779

          k = 0.4375 0.2564 0.0000 (  5681 PWs)   bands (ev):

   -45.1859 -23.7482 -23.4238 -23.0607 -20.4690 -12.0535  -3.1037  -2.5299
    -2.3975  -2.2999  -0.5769   0.7593   3.4791   6.4415   7.0352   7.6074
     8.2887   9.4255  10.1254  11.1808  12.0820  12.6634  13.3548  14.7905
    15.1556  15.7476

          k = 0.4375 0.3297 0.0000 (  5704 PWs)   bands (ev):

   -45.1833 -23.7571 -23.4163 -23.0831 -20.4667 -12.0111  -3.1024  -2.5995
    -2.4250  -2.2693  -0.5652   0.5706   3.5595   6.5580   6.9972   7.5787
     8.2336   9.9200  10.3301  11.3635  11.9560  12.6003  13.4407  14.3821
    15.0001  15.5663

          k = 0.4375 0.4030 0.0000 (  5693 PWs)   bands (ev):

   -45.1808 -23.7389 -23.4083 -23.1374 -20.4596 -11.9725  -3.0376  -2.6775
    -2.4262  -2.1633  -0.5660   0.1312   3.7882   6.6320   6.9674   7.4852
     7.9859  10.3139  10.9044  11.7750  11.9055  12.6189  13.4810  14.2333
    15.0511  15.3372

          k = 0.4375 0.4762 0.0000 (  5702 PWs)   bands (ev):

   -45.1790 -23.7011 -23.4015 -23.2072 -20.4512 -11.9433  -2.9711  -2.6896
    -2.4116  -2.0104  -0.5989  -0.3663   4.0699   6.6135   6.8023   7.5166
     7.7727  10.5118  11.2408  12.1578  12.3788  12.7921  13.4838  14.3625
    14.9534  15.5613

          k = 0.4375 0.5495 0.0000 (  5701 PWs)   bands (ev):

   -45.1780 -23.6661 -23.3972 -23.2617 -20.4456 -11.9277  -2.9569  -2.6488
    -2.3948  -1.8320  -0.8571  -0.5326   4.2858   6.4475   6.7435   7.4753
     7.7738  10.6148  11.2532  12.1209  12.9510  13.4971  13.6885  14.2089
    14.8608  15.4730

          k = 0.4375-0.1832 0.0000 (  5711 PWs)   bands (ev):

   -45.1884 -23.7157 -23.4284 -23.0736 -20.4658 -12.0931  -3.0431  -2.5124
    -2.4245  -2.1434  -0.5975   0.6218   3.5849   6.3778   6.9562   7.5208
     8.0724   9.3068  10.1537  11.2554  12.1573  12.7475  13.5570  14.9423
    15.3361  16.0773

          k = 0.4375-0.1099 0.0000 (  5707 PWs)   bands (ev):

   -45.1902 -23.6725 -23.4273 -23.1106 -20.4598 -12.1237  -2.9578  -2.5194
    -2.4504  -1.9005  -0.6231   0.2868   3.7947   6.2674   6.7595   7.4131
     7.9342   9.3264  10.2916  11.5662  12.3134  12.7748  14.0199  14.6856
    15.4891  16.5511

          k = 0.4375-0.0366 0.0000 (  5722 PWs)   bands (ev):

   -45.1913 -23.6412 -23.4215 -23.1455 -20.4552 -12.1403  -2.8951  -2.5374
    -2.4579  -1.6820  -0.6513  -0.0040   3.9731   6.0223   6.8115   7.2345
     7.9380   9.3367  10.4017  11.7809  12.5823  12.9650  14.1732  14.7771
    15.1103  16.1564

          k =-0.5000-0.2931 0.0000 (  5692 PWs)   bands (ev):

   -45.1834 -23.7696 -23.4169 -23.0656 -20.4695 -12.0122  -3.1385  -2.5814
    -2.4023  -2.3453  -0.5605   0.7312   3.4674   6.5522   7.0104   7.6425
     8.4188   9.7741  10.2009  11.3003  11.8044  12.5496  13.5229  14.2965
    14.9682  15.5731

          k =-0.5000-0.2198 0.0000 (  5697 PWs)   bands (ev):

   -45.1834 -23.7556 -23.4165 -23.0837 -20.4664 -12.0128  -3.1005  -2.5983
    -2.4246  -2.2651  -0.5660   0.5638   3.5638   6.5519   7.0199   7.5674
     8.2357   9.8959  10.3190  11.3630  11.9742  12.5962  13.4295  14.4008
    15.0226  15.5481

          k =-0.5000-0.1465 0.0000 (  5713 PWs)   bands (ev):

   -45.1835 -23.7189 -23.4151 -23.1311 -20.4590 -12.0144  -3.0141  -2.6201
    -2.4306  -2.1073  -0.5821   0.1645   3.7913   6.5444   6.8815   7.4871
     7.9746  10.0858  10.4952  11.6994  12.2981  12.7563  13.3480  14.4289
    15.0919  15.8433

          k =-0.5000-0.0733 0.0000 (  5710 PWs)   bands (ev):

   -45.1835 -23.6759 -23.4122 -23.1860 -20.4517 -12.0159  -2.9428  -2.6188
    -2.4246  -1.9059  -0.6175  -0.2507   4.0355   6.3531   6.7928   7.4013
     7.9054  10.1888  10.6186  12.0991  12.5295  13.0453  13.6249  14.3271
    15.1751  15.9965

          k =-0.5000-0.0000 0.0000 (  5716 PWs)   bands (ev):

   -45.1835 -23.6555 -23.4101 -23.2123 -20.4487 -12.0166  -2.9202  -2.6118
    -2.4201  -1.7850  -0.6717  -0.4161   4.1511   6.1944   6.8294   7.3223
     7.9225  10.2127  10.6789  12.1500  12.6164  13.3676  13.9395  14.4377
    14.9138  15.5027

     highest occupied, lowest unoccupied level (ev):     4.4489    5.5950

!    total energy              =    -571.23403452 Ry
     total all-electron energy =    -12610.611446 Ry
     estimated scf accuracy    <          2.9E-11 Ry

     The total energy is the sum of the following terms:
     one-electron contribution =    -279.35807803 Ry
     hartree contribution      =     148.32082864 Ry
     xc contribution           =     -36.36979880 Ry
     ewald contribution        =      -6.97036318 Ry
     one-center paw contrib.   =    -396.85662315 Ry

     convergence has been achieved in   6 iterations

     negative rho (up, down):  2.818E-05 0.000E+00

     Forces acting on atoms (cartesian axes, Ry/au):

     atom    1 type  1   force =     0.00000000    0.00007821   -0.00007816
     atom    2 type  2   force =     0.00000000   -0.00015282   -0.00007705
     atom    3 type  3   force =     0.00000000    0.00007461    0.00015521
     The non-local contrib.  to forces
     atom    1 type  1   force =     0.00000000   -0.00274480   -0.02403778
     atom    2 type  2   force =     0.00000000   -0.02098682   -1.02197995
     atom    3 type  3   force =     0.00000000   -0.00115093    0.21139533
     The ionic contribution  to forces
     atom    1 type  1   force =    -0.00000001   -0.15541677   -0.67780604
     atom    2 type  2   force =     0.00000001    0.11417467   25.03072599
     atom    3 type  3   force =     0.00000000    0.04124210  -24.35291995
     The local contribution  to forces
     atom    1 type  1   force =    -0.00000000    0.15812435    0.69772996
     atom    2 type  2   force =     0.00000027   -0.09340674  -24.01213570
     atom    3 type  3   force =    -0.00000000   -0.03990527   24.14415302
     The core correction contribution to forces
     atom    1 type  1   force =     0.00000000    0.00011739    0.00402455
     atom    2 type  2   force =     0.00000000    0.00006777    0.00331159
     atom    3 type  3   force =    -0.00000000   -0.00010973   -0.00246993
     The Hubbard contrib.    to forces
     atom    1 type  1   force =     0.00000000    0.00000000    0.00000000
     atom    2 type  2   force =     0.00000000    0.00000000    0.00000000
     atom    3 type  3   force =     0.00000000    0.00000000    0.00000000
     The SCF correction term to forces
     atom    1 type  1   force =    -0.00000000   -0.00000103    0.00000934
     atom    2 type  2   force =    -0.00000000   -0.00000078   -0.00000079
     atom    3 type  3   force =     0.00000000   -0.00000065   -0.00000509

     Total force =     0.000267     Total SCF correction =     0.000011
     Energy error            =      3.3E-07 Ry
     Gradient error          =      1.6E-04 Ry/Bohr

     number of scf cycles    =   9
     number of bfgs steps    =   8

     energy             old  =    -571.2340341848 Ry
     energy             new  =    -571.2340345172 Ry

     CASE: energy            _new < energy            _old

     new trust radius        =       0.0003704990 bohr
     new conv_thr            =            1.0E-10 Ry


ATOMIC_POSITIONS (angstrom)
Zr           -0.0000000000        0.0171468292       10.1025547712
F            -0.0000000020        1.9207432911       11.4196796058
Br           -0.0000000020        1.9239176429        8.1959443360



     Writing config-only to output data dir ./tmp/ZrFBr.save/
     NEW-OLD atomic charge density approx. for the potential

     Check: negative core charge=   -0.000002

     negative rho (up, down):  2.820E-05 0.000E+00

     total cpu time spent up to now is      102.7 secs

     Self-consistent Calculation

     iteration #  1     ecut=    65.00 Ry     beta= 0.70
     Davidson diagonalization with overlap
     ethr =  1.00E-06,  avg # of iterations =  1.8

     Threshold (ethr) on eigenvalues was too large:
     Diagonalizing with lowered threshold

     Davidson diagonalization with overlap
     ethr =  3.37E-11,  avg # of iterations =  4.0

     negative rho (up, down):  2.819E-05 0.000E+00

     total cpu time spent up to now is      105.8 secs

     total energy              =    -571.23403459 Ry
     estimated scf accuracy    <          7.3E-09 Ry

     iteration #  2     ecut=    65.00 Ry     beta= 0.70
     Davidson diagonalization with overlap
     ethr =  2.79E-11,  avg # of iterations =  2.0

     negative rho (up, down):  2.818E-05 0.000E+00

     total cpu time spent up to now is      107.2 secs

     total energy              =    -571.23403459 Ry
     estimated scf accuracy    <          2.9E-09 Ry

     iteration #  3     ecut=    65.00 Ry     beta= 0.70
     Davidson diagonalization with overlap
     ethr =  1.13E-11,  avg # of iterations =  2.0

     negative rho (up, down):  2.818E-05 0.000E+00

     total cpu time spent up to now is      108.5 secs

     total energy              =    -571.23403459 Ry
     estimated scf accuracy    <          4.4E-09 Ry

     iteration #  4     ecut=    65.00 Ry     beta= 0.70
     Davidson diagonalization with overlap
     ethr =  1.13E-11,  avg # of iterations =  1.0

     negative rho (up, down):  2.818E-05 0.000E+00

     total cpu time spent up to now is      109.7 secs

     End of self-consistent calculation

          k = 0.0000 0.0000 0.0000 (  5617 PWs)   bands (ev):

   -45.2482 -23.7510 -22.9531 -22.9304 -20.5633 -12.9207  -3.0729  -2.3615
    -2.3306  -1.0818   1.5401   1.6516   3.8049   5.8398   6.0270   6.0976
     6.9442   7.0186   8.0753   8.9921  11.2959  14.1890  14.7648  15.0463
    15.4315  17.3982

          k = 0.0000 0.0733 0.0000 (  5647 PWs)   bands (ev):

   -45.2456 -23.7415 -22.9644 -22.9586 -20.5544 -12.8901  -3.0367  -2.3711
    -2.3619  -1.0571   1.4121   1.4950   3.8283   5.8881   5.9495   6.1931
     6.9593   6.9963   8.2130   9.2187  11.4451  14.2568  14.6010  14.9067
    15.3253  17.6842

          k = 0.0000 0.1465 0.0000 (  5692 PWs)   bands (ev):

   -45.2382 -23.7148 -23.0580 -22.9744 -20.5321 -12.8010  -2.9401  -2.4732
    -2.3641  -0.9979   0.8120   1.3711   3.8698   5.8080   6.0420   6.2942
     7.0236   7.1313   8.5741   9.6939  11.8713  13.8539  14.2844  15.1871
    15.3286  17.7798

          k = 0.0000 0.2198 0.0000 (  5710 PWs)   bands (ev):

   -45.2270 -23.6767 -23.1883 -22.9979 -20.5064 -12.6620  -2.8252  -2.5878
    -2.3708  -0.9373   0.0639   1.1974   3.8627   5.7390   6.3141   6.3392
     7.3051   7.3361   9.0598  10.1680  12.2415  13.4898  13.9239  15.6005
    16.0139  17.4597

          k = 0.0000 0.2931 0.0000 (  5708 PWs)   bands (ev):

   -45.2138 -23.6400 -23.3233 -23.0254 -20.4859 -12.4882  -2.8188  -2.5980
    -2.3836  -1.0043  -0.5654   1.0081   3.7752   5.8166   6.4825   6.6942
     7.4846   7.7598   9.5461  10.5556  12.0651  13.1239  14.5048  16.1763
    16.8053  16.8359

          k = 0.0000 0.3663 0.0000 (  5708 PWs)   bands (ev):

   -45.2006 -23.6369 -23.4154 -23.0528 -20.4746 -12.3021  -2.9182  -2.5250
    -2.4014  -1.5308  -0.6486   0.8334   3.6579   5.9938   6.7387   7.1207
     7.6776   8.2554   9.8867  10.8268  11.9526  12.8101  15.1821  15.5965
    16.5281  16.7710

          k = 0.0000 0.4396 0.0000 (  5704 PWs)   bands (ev):

   -45.1894 -23.6912 -23.4299 -23.0758 -20.4714 -12.1329  -3.0161  -2.4926
    -2.4200  -2.0349  -0.5933   0.6953   3.5698   6.2106   6.9687   7.4336
     7.9661   8.8372  10.0356  11.0302  12.0825  12.7708  14.1289  15.4680
    16.0043  16.0213

          k = 0.0000 0.5129 0.0000 (  5718 PWs)   bands (ev):

   -45.1818 -23.7489 -23.4151 -23.0911 -20.4721 -12.0132  -3.0940  -2.5416
    -2.4342  -2.2946  -0.5454   0.6075   3.5266   6.4260   7.0261   7.5613
     8.3023   9.4731  10.1514  11.1831  12.1701  12.7668  13.4263  14.8738
    15.2824  15.5535

          k = 0.0000-0.5861 0.0000 (  5730 PWs)   bands (ev):

   -45.1792 -23.7710 -23.4074 -23.0965 -20.4730 -11.9697  -3.1275  -2.5970
    -2.4395  -2.3423  -0.5276   0.5775   3.5153   6.5408   6.9900   7.5938
     8.4496   9.8351  10.2045  11.3196  11.9287  12.6384  13.5796  14.3741
    15.0921  15.3698

          k = 0.0625 0.0366 0.0000 (  5641 PWs)   bands (ev):

   -45.2457 -23.7419 -22.9824 -22.9391 -20.5545 -12.8913  -3.0375  -2.3954
    -2.3356  -1.0586   1.3268   1.5891   3.8247   5.7952   6.0504   6.1913
     6.9092   7.0575   8.2062   9.2104  11.4396  14.2567  14.4435  15.1201
    15.3052  17.6226

          k = 0.0625 0.1099 0.0000 (  5653 PWs)   bands (ev):

   -45.2407 -23.7238 -23.0344 -22.9615 -20.5390 -12.8315  -2.9707  -2.4502
    -2.3536  -1.0167   0.9689   1.4448   3.8571   5.7817   6.0596   6.2889
     6.9287   7.1336   8.4565   9.5563  11.7364  14.0000  14.3089  15.0735
    15.3609  17.7541

          k = 0.0625 0.1832 0.0000 (  5690 PWs)   bands (ev):

   -45.2314 -23.6912 -23.1399 -22.9876 -20.5151 -12.7173  -2.8598  -2.5538
    -2.3670  -0.9559   0.3422   1.2491   3.8795   5.6982   6.2523   6.3572
     7.0979   7.3188   8.8814  10.0178  12.2468  13.4661  13.9867  15.2718
    15.9335  17.3762

          k = 0.0625 0.2564 0.0000 (  5702 PWs)   bands (ev):

   -45.2193 -23.6527 -23.2688 -23.0177 -20.4924 -12.5606  -2.7808  -2.6267
    -2.3835  -0.9264  -0.3437   1.0283   3.8426   5.7098   6.3911   6.6413
     7.3377   7.6229   9.3717  10.4523  12.3416  13.2918  13.8823  15.7924
    16.6660  16.9714

          k = 0.0625 0.3297 0.0000 (  5699 PWs)   bands (ev):

   -45.2061 -23.6288 -23.3818 -23.0493 -20.4769 -12.3798  -2.8547  -2.5604
    -2.4061  -1.2410  -0.6569   0.8133   3.7537   5.8711   6.5409   7.0556
     7.5545   8.0695   9.7999  10.8100  12.0867  12.9311  14.7669  15.8302
    16.3817  16.7591

          k = 0.0625 0.4030 0.0000 (  5708 PWs)   bands (ev):

   -45.1938 -23.6566 -23.4288 -23.0782 -20.4700 -12.2008  -2.9547  -2.4994
    -2.4333  -1.7850  -0.6235   0.6303   3.6681   6.1150   6.7582   7.3590
     7.8095   8.6565  10.0547  11.0652  12.0721  12.7646  14.7011  15.3081
    15.9685  16.7458

          k = 0.0625 0.4762 0.0000 (  5709 PWs)   bands (ev):

   -45.1844 -23.7176 -23.4207 -23.1002 -20.4690 -12.0547  -3.0382  -2.5292
    -2.4420  -2.1519  -0.5681   0.4983   3.6193   6.3616   6.9411   7.4931
     8.0731   9.3652  10.1957  11.2295  12.2109  12.8320  13.6532  14.9420
    15.4324  16.0370

          k = 0.0625 0.5495 0.0000 (  5712 PWs)   bands (ev):

   -45.1793 -23.7578 -23.4075 -23.1121 -20.4700 -11.9718  -3.0922  -2.6186
    -2.4407  -2.2776  -0.5347   0.4295   3.6028   6.5411   6.9957   7.5331
     8.2579   9.9707  10.3309  11.3593  12.0756  12.6846  13.4846  14.4511
    15.1033  15.4456

          k = 0.1250 0.0733 0.0000 (  5663 PWs)   bands (ev):

   -45.2388 -23.7163 -23.0716 -22.9549 -20.5324 -12.8059  -2.9429  -2.4914
    -2.3391  -1.0031   0.7446   1.4691   3.8545   5.7057   6.1749   6.2849
     6.9966   7.1860   8.5542   9.6784  11.8512  13.7964  14.2397  15.1568
    15.5214  17.7432

          k = 0.1250 0.1465 0.0000 (  5670 PWs)   bands (ev):

   -45.2319 -23.6923 -23.1463 -22.9769 -20.5153 -12.7211  -2.8617  -2.5618
    -2.3543  -0.9597   0.3064   1.3090   3.8653   5.6749   6.2987   6.3495
     7.0950   7.3370   8.8693  10.0111  12.2339  13.4417  13.9626  15.2638
    16.0072  17.4040

          k = 0.1250 0.2198 0.0000 (  5692 PWs)   bands (ev):

   -45.2216 -23.6588 -23.2490 -23.0112 -20.4948 -12.5889  -2.7632  -2.6429
    -2.3805  -0.9195  -0.2382   1.0348   3.8675   5.6314   6.4173   6.6550
     7.2366   7.6000   9.3025  10.4247  12.8069  13.0272  13.5564  15.5846
    16.6682  16.9440

          k = 0.1250 0.2931 0.0000 (  5690 PWs)   bands (ev):

   -45.2094 -23.6289 -23.3526 -23.0523 -20.4777 -12.4242  -2.7901  -2.6028
    -2.4160  -1.0513  -0.6400   0.7254   3.8489   5.7028   6.5248   7.0290
     7.4625   7.9973   9.7504  10.8521  12.5617  13.0338  13.8427  15.6434
    16.4495  16.9159

          k = 0.1250 0.3663 0.0000 (  5703 PWs)   bands (ev):

   -45.1972 -23.6311 -23.4169 -23.0936 -20.4673 -12.2486  -2.8811  -2.5198
    -2.4583  -1.5207  -0.6536   0.4423   3.8209   5.9285   6.6463   7.2425
     7.7676   8.5958  10.1137  11.2461  12.3331  12.8123  14.6604  15.0971
    15.7374  16.7479

          k = 0.1250 0.4396 0.0000 (  5696 PWs)   bands (ev):

   -45.1868 -23.6771 -23.4222 -23.1287 -20.4632 -12.0897  -2.9590  -2.5429
    -2.4532  -1.9232  -0.6003   0.2196   3.8071   6.2535   6.7556   7.3757
     7.9531   9.3829  10.3528  11.5229  12.3152  12.8156  14.0977  14.6889
    15.5560  16.5673

          k = 0.1250 0.5129 0.0000 (  5713 PWs)   bands (ev):

   -45.1798 -23.7235 -23.4076 -23.1523 -20.4628 -11.9778  -3.0124  -2.6436
    -2.4352  -2.1281  -0.5567   0.0776   3.8109   6.5335   6.8705   7.4541
     7.9979  10.1636  10.5600  11.6318  12.3323  12.8397  13.4018  14.4225
    15.1541  15.8601

          k = 0.1250 0.5861 0.0000 (  5714 PWs)   bands (ev):

   -45.1774 -23.7413 -23.4004 -23.1607 -20.4630 -11.9372  -3.0324  -2.6976
    -2.4318  -2.1785  -0.5405   0.0287   3.8156   6.6176   6.9730   7.4501
     8.0046  10.3864  10.9097  11.7165  12.0178  12.6660  13.5162  14.2956
    15.1133  15.3190

          k = 0.1250 0.0000 0.0000 (  5658 PWs)   bands (ev):

   -45.2412 -23.7249 -23.0439 -22.9478 -20.5392 -12.8351  -2.9728  -2.4644
    -2.3345  -1.0206   0.9286   1.5035   3.8492   5.6965   6.1614   6.2862
     6.9377   7.1498   8.4397   9.5436  11.7238  13.9409  14.2898  15.0922
    15.4861  17.7445

          k = 0.1875 0.1099 0.0000 (  5672 PWs)   bands (ev):

   -45.2283 -23.6799 -23.1978 -22.9765 -20.5066 -12.6728  -2.8301  -2.6009
    -2.3446  -0.9483   0.0124   1.3076   3.8305   5.6913   6.3098   6.4336
     7.3107   7.3621   9.0278  10.1551  12.2225  13.4479  13.8672  15.5577
    16.1819  17.4845

          k = 0.1875 0.1832 0.0000 (  5689 PWs)   bands (ev):

   -45.2204 -23.6557 -23.2757 -23.0003 -20.4925 -12.5702  -2.7856  -2.6342
    -2.3640  -0.9393  -0.3826   1.1258   3.8095   5.7035   6.3909   6.6805
     7.3618   7.6223   9.3479  10.4474  12.3407  13.2554  13.8132  15.7546
    16.7623  17.0002

          k = 0.1875 0.2564 0.0000 (  5701 PWs)   bands (ev):

   -45.2101 -23.6308 -23.3557 -23.0429 -20.4776 -12.4302  -2.7937  -2.6040
    -2.4069  -1.0673  -0.6506   0.7780   3.8297   5.7073   6.5257   7.0380
     7.4801   7.9922   9.7387  10.8537  12.5754  13.0302  13.7701  15.6406
    16.4090  16.8821

          k = 0.1875 0.3297 0.0000 (  5695 PWs)   bands (ev):

   -45.1989 -23.6239 -23.4100 -23.0971 -20.4658 -12.2700  -2.8452  -2.5368
    -2.4635  -1.4061  -0.6731   0.3686   3.8869   5.7988   6.6986   7.1380
     7.7841   8.5769  10.1305  11.3243  12.6836  12.8769  14.0699  14.9217
    16.0251  16.5516

          k = 0.1875 0.4030 0.0000 (  5700 PWs)   bands (ev):

   -45.1885 -23.6488 -23.4204 -23.1520 -20.4586 -12.1129  -2.9012  -2.5557
    -2.4591  -1.7296  -0.6378  -0.0021   3.9612   6.0222   6.8168   7.1882
     7.9714   9.3880  10.4668  11.7807  12.5924  12.8689  14.1856  14.8034
    15.1191  16.1306

          k = 0.1875 0.4762 0.0000 (  5711 PWs)   bands (ev):

   -45.1805 -23.6842 -23.4073 -23.1965 -20.4554 -11.9860  -2.9473  -2.6407
    -2.4262  -1.9412  -0.6074  -0.2697   4.0321   6.3478   6.8048   7.3494
     7.9435  10.2525  10.7239  12.0586  12.5113  13.0144  13.6820  14.3154
    15.2182  15.9211

          k = 0.1875 0.5495 0.0000 (  5709 PWs)   bands (ev):

   -45.1762 -23.7064 -23.3955 -23.2215 -20.4544 -11.9146  -2.9739  -2.7065
    -2.4143  -2.0312  -0.5997  -0.4000   4.0770   6.6005   6.8252   7.4743
     7.7977  10.5858  11.3442  12.1069  12.3584  12.7707  13.5393  14.3860
    14.9715  15.5922

          k = 0.1875-0.0366 0.0000 (  5677 PWs)   bands (ev):

   -45.2326 -23.6939 -23.1472 -22.9702 -20.5152 -12.7267  -2.8641  -2.5659
    -2.3435  -0.9651   0.3099   1.3216   3.8608   5.6283   6.3303   6.3848
     7.1376   7.3122   8.8494  10.0039  12.2266  13.4453  13.9569  15.2765
    16.0513  17.3919

          k = 0.2500 0.1465 0.0000 (  5688 PWs)   bands (ev):

   -45.2159 -23.6451 -23.3291 -23.0014 -20.4855 -12.5065  -2.8254  -2.6058
    -2.3550  -1.0297  -0.5937   1.1321   3.7315   5.8092   6.4530   6.7811
     7.5330   7.7397   9.5068  10.5514  12.0615  13.0796  14.4112  16.0975
    16.6807  16.9859

          k = 0.2500 0.2198 0.0000 (  5700 PWs)   bands (ev):

   -45.2080 -23.6337 -23.3873 -23.0269 -20.4765 -12.3972  -2.8613  -2.5645
    -2.3819  -1.2742  -0.6757   0.9351   3.7093   5.8774   6.5349   7.0928
     7.5954   8.0523   9.7696  10.8160  12.0835  12.8902  14.6453  15.7280
    16.3539  16.7782

          k = 0.2500 0.2931 0.0000 (  5710 PWs)   bands (ev):

   -45.1987 -23.6349 -23.4208 -23.0770 -20.4667 -12.2624  -2.8860  -2.5167
    -2.4466  -1.5459  -0.6653   0.5299   3.7893   5.9355   6.6461   7.2605
     7.7875   8.5860  10.0952  11.2615  12.3392  12.7979  14.5706  15.0107
    15.6713  16.7316

          k = 0.2500 0.3663 0.0000 (  5716 PWs)   bands (ev):

   -45.1893 -23.6505 -23.4224 -23.1437 -20.4581 -12.1207  -2.9032  -2.5471
    -2.4613  -1.7405  -0.6425   0.0389   3.9472   6.0228   6.8191   7.1945
     7.9772   9.3831  10.4575  11.7946  12.5903  12.8995  14.1765  14.6823
    15.0601  16.1958

          k = 0.2500 0.4396 0.0000 (  5707 PWs)   bands (ev):

   -45.1813 -23.6666 -23.4080 -23.2125 -20.4519 -11.9947  -2.9264  -2.6295
    -2.4221  -1.8402  -0.6653  -0.3820   4.1298   6.1936   6.8547   7.2647
     7.9669  10.2646  10.7851  12.1381  12.6649  13.2515  13.9123  14.4132
    14.8960  15.4751

          k = 0.2500 0.5129 0.0000 (  5710 PWs)   bands (ev):

   -45.1760 -23.6745 -23.3937 -23.2656 -20.4483 -11.9071  -2.9624  -2.6636
    -2.3971  -1.8694  -0.8632  -0.5123   4.2745   6.4444   6.7644   7.4441
     7.7962  10.6727  11.3842  12.0800  12.9959  13.4167  13.6298  14.1804
    14.8772  15.4641

          k = 0.2500 0.5861 0.0000 (  5698 PWs)   bands (ev):

   -45.1741 -23.6761 -23.3880 -23.2859 -20.4472 -11.8756  -2.9816  -2.6669
    -2.3891  -1.8697  -0.9801  -0.5210   4.3293   6.5970   6.7284   7.4825
     7.7022  10.6553  12.0210  12.2979  12.3945  13.3344  13.8132  14.2787
    14.8904  15.5405

          k = 0.2500-0.0733 0.0000 (  5684 PWs)   bands (ev):

   -45.2212 -23.6571 -23.2719 -22.9984 -20.4919 -12.5773  -2.7860  -2.6343
    -2.3580  -0.9423  -0.3620   1.1115   3.8148   5.6810   6.3975   6.7133
     7.3858   7.6013   9.3302  10.4438  12.3507  13.2666  13.8486  15.7738
    16.6953  16.9850

          k = 0.2500 0.0000 0.0000 (  5696 PWs)   bands (ev):

   -45.2231 -23.6618 -23.2468 -23.0017 -20.4942 -12.6017  -2.7666  -2.6456
    -2.3647  -0.9297  -0.2230   1.0512   3.8612   5.5951   6.4397   6.7042
     7.2764   7.5764   9.2686  10.4172  12.8082  13.0615  13.5577  15.5778
    16.6310  16.9550

          k = 0.3125 0.1832 0.0000 (  5705 PWs)   bands (ev):

   -45.2035 -23.6419 -23.4198 -23.0261 -20.4733 -12.3288  -2.9243  -2.5289
    -2.3697  -1.5541  -0.6711   0.9698   3.6111   6.0052   6.7145   7.1751
     7.7254   8.2271   9.8486  10.8365  11.9334  12.7587  15.0198  15.4961
    16.6303  16.7099

          k = 0.3125 0.2564 0.0000 (  5710 PWs)   bands (ev):

   -45.1966 -23.6611 -23.4344 -23.0521 -20.4686 -12.2267  -2.9617  -2.4981
    -2.4073  -1.8091  -0.6452   0.7665   3.6208   6.1276   6.7445   7.3984
     7.8401   8.6340  10.0275  11.0863  12.0463  12.7127  14.5519  15.2388
    15.9551  16.6936

          k = 0.3125 0.3297 0.0000 (  5712 PWs)   bands (ev):

   -45.1891 -23.6802 -23.4274 -23.1074 -20.4617 -12.1121  -2.9648  -2.5228
    -2.4545  -1.9382  -0.6179   0.3253   3.7719   6.2604   6.7494   7.4008
     7.9649   9.3673  10.3332  11.5671  12.3007  12.7814  13.9872  14.6661
    15.4428  16.5154

          k = 0.3125 0.4030 0.0000 (  5714 PWs)   bands (ev):

   -45.1822 -23.6855 -23.4112 -23.1826 -20.4539 -12.0023  -2.9487  -2.6316
    -2.4267  -1.9473  -0.6132  -0.2104   4.0133   6.3421   6.8062   7.3615
     7.9506  10.2301  10.7092  12.1045  12.5381  13.0127  13.5730  14.3198
    15.1065  15.9890

          k = 0.3125 0.4762 0.0000 (  5702 PWs)   bands (ev):

   -45.1768 -23.6741 -23.3958 -23.2598 -20.4474 -11.9155  -2.9604  -2.6613
    -2.3967  -1.8709  -0.8394  -0.5148   4.2699   6.4365   6.7629   7.4498
     7.8020  10.6477  11.3797  12.0983  12.9652  13.4603  13.5871  14.2502
    14.8386  15.4342

          k = 0.3125 0.5495 0.0000 (  5687 PWs)   bands (ev):

   -45.1739 -23.6580 -23.3871 -23.3122 -20.4437 -11.8676  -2.9922  -2.6317
    -2.3744  -1.7204  -1.2409  -0.5342   4.4424   6.5686   6.6845   7.3986
     7.7693  10.6248  12.0169  12.2854  13.0360  13.2895  14.0008  14.2620
    14.9857  15.6102

          k = 0.3125-0.1099 0.0000 (  5705 PWs)   bands (ev):

   -45.2088 -23.6334 -23.3830 -23.0277 -20.4754 -12.4047  -2.8581  -2.5653
    -2.3778  -1.2527  -0.6743   0.9094   3.7227   5.8735   6.5413   7.0957
     7.5965   8.0440   9.7549  10.8137  12.0978  12.8993  14.7130  15.7387
    16.3490  16.7414

          k = 0.3125-0.0366 0.0000 (  5695 PWs)   bands (ev):

   -45.2117 -23.6322 -23.3485 -23.0405 -20.4760 -12.4449  -2.7896  -2.6062
    -2.3965  -1.0465  -0.6380   0.7533   3.8419   5.6893   6.5480   7.0544
     7.4884   7.9759   9.7081  10.8476  12.6095  13.0493  13.8407  15.6129
    16.3646  16.8636

          k = 0.3750 0.2198 0.0000 (  5699 PWs)   bands (ev):

   -45.1930 -23.6929 -23.4367 -23.0469 -20.4689 -12.1677  -3.0231  -2.4903
    -2.3853  -2.0463  -0.6211   0.8410   3.5227   6.2275   6.9588   7.4746
     7.9908   8.7993  10.0038  11.0422  12.0362  12.7010  13.9954  15.3723
    15.8737  16.1840

          k = 0.3750 0.2931 0.0000 (  5704 PWs)   bands (ev):

   -45.1879 -23.7192 -23.4282 -23.0719 -20.4665 -12.0885  -3.0470  -2.5129
    -2.4260  -2.1585  -0.5952   0.6404   3.5731   6.3799   6.9243   7.5400
     8.0745   9.3381  10.1747  11.2511  12.1536  12.7555  13.5430  14.9126
    15.3427  16.0745

          k = 0.3750 0.3663 0.0000 (  5697 PWs)   bands (ev):

   -45.1828 -23.7240 -23.4145 -23.1288 -20.4601 -12.0079  -3.0188  -2.6261
    -2.4318  -2.1247  -0.5796   0.1872   3.7777   6.5519   6.8475   7.4899
     7.9942  10.1220  10.5533  11.6962  12.2648  12.7647  13.3453  14.4018
    15.0591  15.8406

          k = 0.3750 0.4396 0.0000 (  5694 PWs)   bands (ev):

   -45.1785 -23.7050 -23.4010 -23.2057 -20.4519 -11.9385  -2.9730  -2.6962
    -2.4123  -2.0242  -0.5987  -0.3497   4.0614   6.6086   6.8002   7.5026
     7.7963  10.5272  11.3354  12.1375  12.3289  12.7856  13.4910  14.3563
    14.9332  15.5354

          k = 0.3750 0.5129 0.0000 (  5693 PWs)   bands (ev):

   -45.1756 -23.6725 -23.3915 -23.2789 -20.4452 -11.8916  -2.9768  -2.6603
    -2.3872  -1.8576  -0.9527  -0.5333   4.3300   6.6096   6.6950   7.4873
     7.7156  10.6043  12.0387  12.2363  12.3263  13.4681  13.8414  14.2821
    14.8555  15.4989

          k = 0.3750 0.5861 0.0000 (  5692 PWs)   bands (ev):

   -45.1746 -23.6542 -23.3883 -23.3117 -20.4426 -11.8750  -2.9896  -2.6267
    -2.3731  -1.6949  -1.2525  -0.5413   4.4489   6.5837   6.6607   7.3930
     7.7776  10.5986  12.0366  12.1596  13.1143  13.2824  14.1165  14.2178
    14.9588  15.5992

          k = 0.3750-0.1465 0.0000 (  5717 PWs)   bands (ev):

   -45.1973 -23.6576 -23.4332 -23.0540 -20.4674 -12.2335  -2.9575  -2.4992
    -2.4039  -1.7855  -0.6483   0.7404   3.6363   6.1321   6.7594   7.3844
     7.8342   8.6185  10.0115  11.0867  12.0526  12.7138  14.5697  15.2827
    15.9108  16.7335

          k = 0.3750-0.0733 0.0000 (  5710 PWs)   bands (ev):

   -45.2002 -23.6307 -23.4164 -23.0789 -20.4645 -12.2769  -2.8789  -2.5195
    -2.4370  -1.4998  -0.6705   0.4885   3.8126   5.9330   6.6589   7.2698
     7.7671   8.5633  10.0647  11.2547  12.3669  12.8113  14.6494  15.0247
    15.6961  16.6920

          k = 0.3750 0.0000 0.0000 (  5700 PWs)   bands (ev):

   -45.2012 -23.6216 -23.4048 -23.0935 -20.4631 -12.2920  -2.8385  -2.5378
    -2.4496  -1.3590  -0.6813   0.3488   3.9020   5.7907   6.7179   7.1569
     7.7682   8.5493  10.0871  11.3160  12.6913  12.9671  14.1078  14.8896
    16.0190  16.4778

          k = 0.4375 0.2564 0.0000 (  5681 PWs)   bands (ev):

   -45.1859 -23.7482 -23.4238 -23.0608 -20.4688 -12.0537  -3.1035  -2.5299
    -2.3973  -2.2999  -0.5771   0.7591   3.4790   6.4417   7.0351   7.6075
     8.2887   9.4256  10.1254  11.1808  12.0820  12.6635  13.3549  14.7906
    15.1555  15.7474

          k = 0.4375 0.3297 0.0000 (  5704 PWs)   bands (ev):

   -45.1833 -23.7570 -23.4163 -23.0831 -20.4666 -12.0113  -3.1022  -2.5994
    -2.4248  -2.2693  -0.5653   0.5704   3.5594   6.5583   6.9971   7.5789
     8.2335   9.9201  10.3300  11.3635  11.9560  12.6003  13.4407  14.3822
    14.9999  15.5663

          k = 0.4375 0.4030 0.0000 (  5693 PWs)   bands (ev):

   -45.1808 -23.7388 -23.4083 -23.1374 -20.4595 -11.9727  -3.0374  -2.6775
    -2.4260  -2.1632  -0.5661   0.1310   3.7882   6.6322   6.9673   7.4853
     7.9859  10.3138  10.9043  11.7750  11.9055  12.6189  13.4809  14.2335
    15.0511  15.3372

          k = 0.4375 0.4762 0.0000 (  5702 PWs)   bands (ev):

   -45.1790 -23.7011 -23.4016 -23.2073 -20.4510 -11.9435  -2.9709  -2.6896
    -2.4114  -2.0104  -0.5991  -0.3666   4.0699   6.6137   6.8023   7.5166
     7.7728  10.5116  11.2407  12.1577  12.3788  12.7922  13.4837  14.3627
    14.9535  15.5612

          k = 0.4375 0.5495 0.0000 (  5701 PWs)   bands (ev):

   -45.1780 -23.6660 -23.3972 -23.2617 -20.4454 -11.9279  -2.9567  -2.6487
    -2.3946  -1.8320  -0.8573  -0.5328   4.2858   6.4476   6.7435   7.4753
     7.7739  10.6145  11.2532  12.1208  12.9511  13.4971  13.6885  14.2091
    14.8608  15.4731

          k = 0.4375-0.1832 0.0000 (  5711 PWs)   bands (ev):

   -45.1884 -23.7156 -23.4284 -23.0736 -20.4656 -12.0934  -3.0430  -2.5123
    -2.4243  -2.1434  -0.5976   0.6216   3.5848   6.3780   6.9562   7.5207
     8.0725   9.3068  10.1536  11.2554  12.1572  12.7475  13.5571  14.9424
    15.3361  16.0770

          k = 0.4375-0.1099 0.0000 (  5707 PWs)   bands (ev):

   -45.1903 -23.6725 -23.4273 -23.1107 -20.4596 -12.1239  -2.9576  -2.5193
    -2.4502  -1.9006  -0.6233   0.2866   3.7947   6.2676   6.7596   7.4130
     7.9344   9.3264  10.2915  11.5663  12.3132  12.7747  14.0200  14.6857
    15.4891  16.5509

          k = 0.4375-0.0366 0.0000 (  5722 PWs)   bands (ev):

   -45.1913 -23.6411 -23.4215 -23.1455 -20.4551 -12.1405  -2.8949  -2.5373
    -2.4577  -1.6821  -0.6515  -0.0042   3.9731   6.0224   6.8116   7.2346
     7.9381   9.3366  10.4015  11.7810  12.5823  12.9649  14.1732  14.7770
    15.1102  16.1564

          k =-0.5000-0.2931 0.0000 (  5692 PWs)   bands (ev):

   -45.1834 -23.7695 -23.4169 -23.0656 -20.4693 -12.0124  -3.1384  -2.5814
    -2.4021  -2.3452  -0.5607   0.7310   3.4674   6.5524   7.0104   7.6426
     8.4187   9.7740  10.2008  11.3003  11.8045  12.5495  13.5229  14.2966
    14.9682  15.5729

          k =-0.5000-0.2198 0.0000 (  5697 PWs)   bands (ev):

   -45.1834 -23.7556 -23.4165 -23.0838 -20.4662 -12.0131  -3.1003  -2.5983
    -2.4244  -2.2651  -0.5662   0.5636   3.5638   6.5521   7.0199   7.5674
     8.2358   9.8958  10.3189  11.3630  11.9743  12.5961  13.4295  14.4009
    15.0227  15.5478

          k =-0.5000-0.1465 0.0000 (  5713 PWs)   bands (ev):

   -45.1835 -23.7188 -23.4151 -23.1311 -20.4588 -12.0146  -3.0139  -2.6200
    -2.4304  -2.1073  -0.5823   0.1643   3.7912   6.5446   6.8816   7.4870
     7.9748  10.0857  10.4951  11.6994  12.2980  12.7563  13.3480  14.4291
    15.0920  15.8430

          k =-0.5000-0.0733 0.0000 (  5710 PWs)   bands (ev):

   -45.1835 -23.6758 -23.4122 -23.1860 -20.4516 -12.0162  -2.9426  -2.6187
    -2.4245  -1.9060  -0.6176  -0.2509   4.0355   6.3532   6.7929   7.4014
     7.9055  10.1887  10.6183  12.0990  12.5295  13.0452  13.6250  14.3273
    15.1751  15.9965

          k =-0.5000-0.0000 0.0000 (  5716 PWs)   bands (ev):

   -45.1835 -23.6554 -23.4101 -23.2124 -20.4486 -12.0168  -2.9199  -2.6117
    -2.4199  -1.7851  -0.6719  -0.4163   4.1511   6.1945   6.8295   7.3224
     7.9227  10.2127  10.6785  12.1498  12.6165  13.3675  13.9396  14.4378
    14.9137  15.5028

     highest occupied, lowest unoccupied level (ev):     4.4489    5.5951

!    total energy              =    -571.23403459 Ry
     total all-electron energy =    -12610.611446 Ry
     estimated scf accuracy    <          3.2E-11 Ry

     The total energy is the sum of the following terms:
     one-electron contribution =    -279.35921826 Ry
     hartree contribution      =     148.32134741 Ry
     xc contribution           =     -36.36980251 Ry
     ewald contribution        =      -6.96973679 Ry
     one-center paw contrib.   =    -396.85662445 Ry

     convergence has been achieved in   4 iterations

     negative rho (up, down):  2.818E-05 0.000E+00

     Forces acting on atoms (cartesian axes, Ry/au):

     atom    1 type  1   force =     0.00000000    0.00009588   -0.00003795
     atom    2 type  2   force =     0.00000000   -0.00013165   -0.00009568
     atom    3 type  3   force =     0.00000000    0.00003577    0.00013363
     The non-local contrib.  to forces
     atom    1 type  1   force =     0.00000000   -0.00274635   -0.02404857
     atom    2 type  2   force =     0.00000000   -0.02106338   -1.02204484
     atom    3 type  3   force =     0.00000000   -0.00116790    0.21138758
     The ionic contribution  to forces
     atom    1 type  1   force =    -0.00000001   -0.15581070   -0.67772881
     atom    2 type  2   force =     0.00000001    0.11480824   25.03090376
     atom    3 type  3   force =     0.00000000    0.04100247  -24.35317496
     The local contribution  to forces
     atom    1 type  1   force =    -0.00000000    0.15853734    0.69770395
     atom    2 type  2   force =     0.00000027   -0.09394294  -24.01226930
     atom    3 type  3   force =    -0.00000000   -0.03968996   24.14438146
     The core correction contribution to forces
     atom    1 type  1   force =     0.00000000    0.00011724    0.00402550
     atom    2 type  2   force =     0.00000000    0.00006791    0.00331188
     atom    3 type  3   force =    -0.00000000   -0.00010764   -0.00246884
     The Hubbard contrib.    to forces
     atom    1 type  1   force =     0.00000000    0.00000000    0.00000000
     atom    2 type  2   force =     0.00000000    0.00000000    0.00000000
     atom    3 type  3   force =     0.00000000    0.00000000    0.00000000
     The SCF correction term to forces
     atom    1 type  1   force =    -0.00000000   -0.00000124    0.00000739
     atom    2 type  2   force =     0.00000000   -0.00000107    0.00000022
     atom    3 type  3   force =    -0.00000000   -0.00000080    0.00000580

     Total force =     0.000237     Total SCF correction =     0.000010
     Energy error            =      7.5E-08 Ry
     Gradient error          =      1.3E-04 Ry/Bohr

     number of scf cycles    =  10
     number of bfgs steps    =   9

     energy             old  =    -571.2340345172 Ry
     energy             new  =    -571.2340345923 Ry

     CASE: energy            _new < energy            _old

     new trust radius        =       0.0004075489 bohr
     new conv_thr            =            1.0E-10 Ry


ATOMIC_POSITIONS (angstrom)
Zr           -0.0000000000        0.0171822142       10.1025154793
F            -0.0000000020        1.9205325367       11.4196338429
Br           -0.0000000020        1.9240930122        8.1960293908



     Writing config-only to output data dir ./tmp/ZrFBr.save/
     NEW-OLD atomic charge density approx. for the potential

     Check: negative core charge=   -0.000002

     negative rho (up, down):  2.821E-05 0.000E+00

     total cpu time spent up to now is      110.1 secs

     Self-consistent Calculation

     iteration #  1     ecut=    65.00 Ry     beta= 0.70
     Davidson diagonalization with overlap
     ethr =  1.00E-06,  avg # of iterations =  2.0

     Threshold (ethr) on eigenvalues was too large:
     Diagonalizing with lowered threshold

     Davidson diagonalization with overlap
     ethr =  4.99E-11,  avg # of iterations =  4.0

     negative rho (up, down):  2.820E-05 0.000E+00

     total cpu time spent up to now is      113.2 secs

     total energy              =    -571.23403467 Ry
     estimated scf accuracy    <       0.00000001 Ry

     iteration #  2     ecut=    65.00 Ry     beta= 0.70
     Davidson diagonalization with overlap
     ethr =  5.17E-11,  avg # of iterations =  2.0

     negative rho (up, down):  2.819E-05 0.000E+00

     total cpu time spent up to now is      114.6 secs

     total energy              =    -571.23403467 Ry
     estimated scf accuracy    <       0.00000003 Ry

     iteration #  3     ecut=    65.00 Ry     beta= 0.70
     Davidson diagonalization with overlap
     ethr =  5.17E-11,  avg # of iterations =  1.6

     negative rho (up, down):  2.819E-05 0.000E+00

     total cpu time spent up to now is      115.9 secs

     total energy              =    -571.23403468 Ry
     estimated scf accuracy    <          2.8E-09 Ry

     iteration #  4     ecut=    65.00 Ry     beta= 0.70
     Davidson diagonalization with overlap
     ethr =  1.06E-11,  avg # of iterations =  1.0

     negative rho (up, down):  2.819E-05 0.000E+00

     total cpu time spent up to now is      117.1 secs

     End of self-consistent calculation

          k = 0.0000 0.0000 0.0000 (  5617 PWs)   bands (ev):

   -45.2480 -23.7509 -22.9529 -22.9302 -20.5632 -12.9209  -3.0729  -2.3613
    -2.3307  -1.0818   1.5395   1.6512   3.8051   5.8400   6.0271   6.0977
     6.9440   7.0188   8.0753   8.9921  11.2958  14.1888  14.7646  15.0464
    15.4324  17.3981

          k = 0.0000 0.0733 0.0000 (  5647 PWs)   bands (ev):

   -45.2454 -23.7414 -22.9643 -22.9585 -20.5543 -12.8903  -3.0367  -2.3712
    -2.3617  -1.0571   1.4117   1.4944   3.8285   5.8883   5.9496   6.1932
     6.9595   6.9962   8.2129   9.2187  11.4450  14.2567  14.6011  14.9066
    15.3260  17.6841

          k = 0.0000 0.1465 0.0000 (  5692 PWs)   bands (ev):

   -45.2380 -23.7147 -23.0579 -22.9743 -20.5320 -12.8013  -2.9401  -2.4733
    -2.3639  -0.9979   0.8116   1.3706   3.8699   5.8081   6.0423   6.2944
     7.0238   7.1312   8.5741   9.6939  11.8712  13.8540  14.2844  15.1874
    15.3284  17.7800

          k = 0.0000 0.2198 0.0000 (  5710 PWs)   bands (ev):

   -45.2268 -23.6765 -23.1882 -22.9977 -20.5063 -12.6622  -2.8252  -2.5879
    -2.3706  -0.9373   0.0636   1.1969   3.8627   5.7391   6.3143   6.3395
     7.3050   7.3363   9.0598  10.1680  12.2417  13.4899  13.9238  15.6005
    16.0137  17.4598

          k = 0.0000 0.2931 0.0000 (  5708 PWs)   bands (ev):

   -45.2137 -23.6399 -23.3233 -23.0253 -20.4858 -12.4885  -2.8188  -2.5980
    -2.3834  -1.0045  -0.5656   1.0076   3.7750   5.8167   6.4828   6.6945
     7.4845   7.7600   9.5462  10.5556  12.0653  13.1242  14.5045  16.1763
    16.8054  16.8357

          k = 0.0000 0.3663 0.0000 (  5708 PWs)   bands (ev):

   -45.2004 -23.6368 -23.4153 -23.0526 -20.4745 -12.3023  -2.9183  -2.5250
    -2.4011  -1.5312  -0.6486   0.8329   3.6577   5.9939   6.7391   7.1209
     7.6775   8.2555   9.8869  10.8267  11.9528  12.8105  15.1820  15.5965
    16.5282  16.7711

          k = 0.0000 0.4396 0.0000 (  5704 PWs)   bands (ev):

   -45.1892 -23.6911 -23.4297 -23.0756 -20.4713 -12.1332  -3.0161  -2.4926
    -2.4198  -2.0352  -0.5934   0.6948   3.5696   6.2107   6.9690   7.4339
     7.9660   8.8373  10.0357  11.0303  12.0828  12.7710  14.1290  15.4680
    16.0044  16.0214

          k = 0.0000 0.5129 0.0000 (  5718 PWs)   bands (ev):

   -45.1817 -23.7488 -23.4149 -23.0909 -20.4721 -12.0134  -3.0940  -2.5416
    -2.4340  -2.2948  -0.5455   0.6070   3.5264   6.4262   7.0263   7.5615
     8.3022   9.4733  10.1514  11.1834  12.1703  12.7668  13.4265  14.8738
    15.2826  15.5536

          k = 0.0000-0.5861 0.0000 (  5730 PWs)   bands (ev):

   -45.1790 -23.7710 -23.4073 -23.0963 -20.4729 -11.9700  -3.1276  -2.5971
    -2.4393  -2.3423  -0.5277   0.5770   3.5151   6.5410   6.9902   7.5939
     8.4495   9.8354  10.2045  11.3199  11.9288  12.6388  13.5796  14.3742
    15.0922  15.3699

          k = 0.0625 0.0366 0.0000 (  5641 PWs)   bands (ev):

   -45.2455 -23.7418 -22.9823 -22.9390 -20.5545 -12.8916  -3.0376  -2.3952
    -2.3357  -1.0586   1.3263   1.5887   3.8249   5.7954   6.0505   6.1914
     6.9091   7.0577   8.2061   9.2104  11.4395  14.2565  14.4434  15.1201
    15.3058  17.6226

          k = 0.0625 0.1099 0.0000 (  5653 PWs)   bands (ev):

   -45.2405 -23.7237 -23.0343 -22.9614 -20.5389 -12.8317  -2.9707  -2.4502
    -2.3535  -1.0168   0.9685   1.4443   3.8572   5.7819   6.0598   6.2890
     6.9287   7.1337   8.4564   9.5563  11.7363  14.0001  14.3088  15.0738
    15.3609  17.7543

          k = 0.0625 0.1832 0.0000 (  5690 PWs)   bands (ev):

   -45.2313 -23.6911 -23.1398 -22.9874 -20.5150 -12.7176  -2.8598  -2.5539
    -2.3668  -0.9559   0.3418   1.2486   3.8796   5.6984   6.2524   6.3574
     7.0980   7.3188   8.8814  10.0177  12.2468  13.4662  13.9868  15.2719
    15.9334  17.3764

          k = 0.0625 0.2564 0.0000 (  5702 PWs)   bands (ev):

   -45.2191 -23.6526 -23.2687 -23.0176 -20.4923 -12.5608  -2.7808  -2.6268
    -2.3833  -0.9265  -0.3440   1.0278   3.8425   5.7099   6.3913   6.6416
     7.3377   7.6231   9.3718  10.4522  12.3418  13.2922  13.8821  15.7923
    16.6658  16.9714

          k = 0.0625 0.3297 0.0000 (  5699 PWs)   bands (ev):

   -45.2059 -23.6286 -23.3817 -23.0492 -20.4768 -12.3800  -2.8547  -2.5604
    -2.4059  -1.2413  -0.6570   0.8128   3.7535   5.8712   6.5412   7.0559
     7.5544   8.0696   9.8000  10.8099  12.0869  12.9314  14.7667  15.8303
    16.3817  16.7592

          k = 0.0625 0.4030 0.0000 (  5708 PWs)   bands (ev):

   -45.1937 -23.6566 -23.4287 -23.0781 -20.4699 -12.2010  -2.9547  -2.4994
    -2.4331  -1.7853  -0.6236   0.6298   3.6679   6.1151   6.7585   7.3592
     7.8095   8.6566  10.0549  11.0652  12.0723  12.7649  14.7012  15.3081
    15.9685  16.7460

          k = 0.0625 0.4762 0.0000 (  5709 PWs)   bands (ev):

   -45.1843 -23.7175 -23.4206 -23.1001 -20.4690 -12.0549  -3.0382  -2.5291
    -2.4418  -2.1521  -0.5682   0.4979   3.6192   6.3617   6.9413   7.4933
     8.0730   9.3654  10.1958  11.2297  12.2112  12.8321  13.6534  14.9420
    15.4326  16.0371

          k = 0.0625 0.5495 0.0000 (  5712 PWs)   bands (ev):

   -45.1792 -23.7578 -23.4074 -23.1120 -20.4699 -11.9721  -3.0923  -2.6186
    -2.4405  -2.2777  -0.5348   0.4290   3.6026   6.5413   6.9959   7.5333
     8.2579   9.9709  10.3309  11.3595  12.0757  12.6849  13.4847  14.4511
    15.1034  15.4457

          k = 0.1250 0.0733 0.0000 (  5663 PWs)   bands (ev):

   -45.2386 -23.7162 -23.0714 -22.9548 -20.5324 -12.8062  -2.9430  -2.4913
    -2.3392  -1.0032   0.7441   1.4686   3.8548   5.7059   6.1749   6.2850
     6.9966   7.1862   8.5542   9.6784  11.8510  13.7964  14.2397  15.1571
    15.5213  17.7434

          k = 0.1250 0.1465 0.0000 (  5670 PWs)   bands (ev):

   -45.2317 -23.6922 -23.1462 -22.9767 -20.5152 -12.7213  -2.8618  -2.5617
    -2.3542  -0.9598   0.3060   1.3085   3.8654   5.6751   6.2986   6.3497
     7.0951   7.3370   8.8693  10.0111  12.2338  13.4418  13.9627  15.2639
    16.0071  17.4042

          k = 0.1250 0.2198 0.0000 (  5692 PWs)   bands (ev):

   -45.2214 -23.6586 -23.2489 -23.0110 -20.4948 -12.5892  -2.7632  -2.6429
    -2.3804  -0.9196  -0.2385   1.0343   3.8675   5.6316   6.4173   6.6553
     7.2367   7.6001   9.3026  10.4246  12.8069  13.0272  13.5565  15.5845
    16.6682  16.9439

          k = 0.1250 0.2931 0.0000 (  5690 PWs)   bands (ev):

   -45.2092 -23.6287 -23.3525 -23.0521 -20.4776 -12.4245  -2.7902  -2.6028
    -2.4158  -1.0515  -0.6401   0.7250   3.8488   5.7031   6.5250   7.0293
     7.4625   7.9975   9.7506  10.8520  12.5617  13.0341  13.8426  15.6435
    16.4494  16.9160

          k = 0.1250 0.3663 0.0000 (  5703 PWs)   bands (ev):

   -45.1970 -23.6310 -23.4168 -23.0934 -20.4672 -12.2488  -2.8811  -2.5197
    -2.4581  -1.5210  -0.6537   0.4418   3.8207   5.9287   6.6466   7.2426
     7.7677   8.5960  10.1139  11.2460  12.3332  12.8126  14.6603  15.0972
    15.7374  16.7480

          k = 0.1250 0.4396 0.0000 (  5696 PWs)   bands (ev):

   -45.1866 -23.6770 -23.4220 -23.1285 -20.4631 -12.0900  -2.9590  -2.5428
    -2.4531  -1.9235  -0.6005   0.2192   3.8069   6.2536   6.7559   7.3758
     7.9532   9.3830  10.3530  11.5229  12.3154  12.8158  14.0978  14.6889
    15.5561  16.5676

          k = 0.1250 0.5129 0.0000 (  5713 PWs)   bands (ev):

   -45.1796 -23.7235 -23.4074 -23.1522 -20.4627 -11.9780  -3.0124  -2.6435
    -2.4351  -2.1283  -0.5569   0.0772   3.8107   6.5336   6.8708   7.4542
     7.9980  10.1637  10.5602  11.6319  12.3325  12.8397  13.4021  14.4225
    15.1542  15.8602

          k = 0.1250 0.5861 0.0000 (  5714 PWs)   bands (ev):

   -45.1772 -23.7413 -23.4003 -23.1605 -20.4629 -11.9375  -3.0324  -2.6976
    -2.4317  -2.1786  -0.5406   0.0283   3.8154   6.6177   6.9732   7.4503
     8.0047  10.3865  10.9099  11.7166  12.0179  12.6663  13.5165  14.2955
    15.1134  15.3190

          k = 0.1250 0.0000 0.0000 (  5658 PWs)   bands (ev):

   -45.2410 -23.7248 -23.0438 -22.9476 -20.5391 -12.8354  -2.9729  -2.4642
    -2.3346  -1.0207   0.9282   1.5031   3.8494   5.6968   6.1613   6.2864
     6.9375   7.1501   8.4397   9.5436  11.7237  13.9408  14.2898  15.0925
    15.4863  17.7445

          k = 0.1875 0.1099 0.0000 (  5672 PWs)   bands (ev):

   -45.2281 -23.6797 -23.1977 -22.9763 -20.5065 -12.6730  -2.8301  -2.6008
    -2.3447  -0.9484   0.0121   1.3072   3.8307   5.6916   6.3097   6.4338
     7.3108   7.3622   9.0279  10.1551  12.2224  13.4479  13.8671  15.5577
    16.1818  17.4847

          k = 0.1875 0.1832 0.0000 (  5689 PWs)   bands (ev):

   -45.2202 -23.6555 -23.2756 -23.0001 -20.4924 -12.5705  -2.7857  -2.6342
    -2.3640  -0.9395  -0.3829   1.1254   3.8096   5.7037   6.3907   6.6807
     7.3621   7.6224   9.3481  10.4474  12.3406  13.2556  13.8131  15.7546
    16.7622  17.0001

          k = 0.1875 0.2564 0.0000 (  5701 PWs)   bands (ev):

   -45.2099 -23.6307 -23.3556 -23.0428 -20.4776 -12.4305  -2.7936  -2.6040
    -2.4068  -1.0676  -0.6506   0.7775   3.8297   5.7075   6.5257   7.0382
     7.4803   7.9923   9.7390  10.8537  12.5754  13.0302  13.7700  15.6406
    16.4091  16.8822

          k = 0.1875 0.3297 0.0000 (  5695 PWs)   bands (ev):

   -45.1987 -23.6238 -23.4099 -23.0970 -20.4658 -12.2703  -2.8452  -2.5367
    -2.4634  -1.4065  -0.6732   0.3682   3.8868   5.7991   6.6988   7.1381
     7.7843   8.5771  10.1308  11.3243  12.6837  12.8769  14.0699  14.9218
    16.0253  16.5515

          k = 0.1875 0.4030 0.0000 (  5700 PWs)   bands (ev):

   -45.1883 -23.6488 -23.4203 -23.1519 -20.4585 -12.1132  -2.9012  -2.5555
    -2.4590  -1.7299  -0.6379  -0.0025   3.9611   6.0224   6.8172   7.1881
     7.9716   9.3881  10.4671  11.7806  12.5924  12.8690  14.1857  14.8034
    15.1192  16.1306

          k = 0.1875 0.4762 0.0000 (  5711 PWs)   bands (ev):

   -45.1803 -23.6842 -23.4071 -23.1963 -20.4553 -11.9863  -2.9473  -2.6406
    -2.4262  -1.9415  -0.6076  -0.2700   4.0320   6.3479   6.8052   7.3494
     7.9437  10.2525  10.7242  12.0586  12.5113  13.0145  13.6821  14.3155
    15.2182  15.9212

          k = 0.1875 0.5495 0.0000 (  5709 PWs)   bands (ev):

   -45.1760 -23.7064 -23.3953 -23.2213 -20.4544 -11.9149  -2.9739  -2.7065
    -2.4142  -2.0314  -0.6000  -0.4001   4.0768   6.6005   6.8255   7.4744
     7.7979  10.5860  11.3444  12.1069  12.3583  12.7707  13.5397  14.3859
    14.9716  15.5923

          k = 0.1875-0.0366 0.0000 (  5677 PWs)   bands (ev):

   -45.2324 -23.6938 -23.1470 -22.9701 -20.5152 -12.7270  -2.8642  -2.5657
    -2.3437  -0.9652   0.3095   1.3212   3.8610   5.6286   6.3302   6.3849
     7.1375   7.3125   8.8495  10.0040  12.2264  13.4453  13.9570  15.2764
    16.0515  17.3920

          k = 0.2500 0.1465 0.0000 (  5688 PWs)   bands (ev):

   -45.2158 -23.6450 -23.3290 -23.0013 -20.4855 -12.5068  -2.8254  -2.6058
    -2.3551  -1.0300  -0.5938   1.1317   3.7317   5.8095   6.4528   6.7812
     7.5332   7.7399   9.5070  10.5515  12.0614  13.0797  14.4110  16.0975
    16.6807  16.9857

          k = 0.2500 0.2198 0.0000 (  5700 PWs)   bands (ev):

   -45.2079 -23.6336 -23.3872 -23.0267 -20.4764 -12.3974  -2.8613  -2.5646
    -2.3819  -1.2746  -0.6757   0.9347   3.7094   5.8778   6.5346   7.0930
     7.5956   8.0525   9.7699  10.8160  12.0835  12.8903  14.6451  15.7281
    16.3541  16.7781

          k = 0.2500 0.2931 0.0000 (  5710 PWs)   bands (ev):

   -45.1985 -23.6347 -23.4207 -23.0769 -20.4666 -12.2627  -2.8860  -2.5168
    -2.4465  -1.5463  -0.6654   0.5295   3.7893   5.9358   6.6460   7.2607
     7.7877   8.5863  10.0956  11.2615  12.3392  12.7980  14.5705  15.0108
    15.6714  16.7316

          k = 0.2500 0.3663 0.0000 (  5716 PWs)   bands (ev):

   -45.1891 -23.6504 -23.4223 -23.1436 -20.4580 -12.1210  -2.9032  -2.5471
    -2.4613  -1.7408  -0.6426   0.0386   3.9472   6.0230   6.8192   7.1946
     7.9774   9.3832  10.4579  11.7945  12.5904  12.8994  14.1766  14.6823
    15.0602  16.1958

          k = 0.2500 0.4396 0.0000 (  5707 PWs)   bands (ev):

   -45.1812 -23.6665 -23.4079 -23.2123 -20.4518 -11.9949  -2.9264  -2.6295
    -2.4221  -1.8405  -0.6655  -0.3822   4.1298   6.1938   6.8550   7.2647
     7.9672  10.2647  10.7854  12.1380  12.6649  13.2516  13.9123  14.4133
    14.8960  15.4751

          k = 0.2500 0.5129 0.0000 (  5710 PWs)   bands (ev):

   -45.1758 -23.6744 -23.3935 -23.2654 -20.4483 -11.9074  -2.9624  -2.6635
    -2.3971  -1.8696  -0.8636  -0.5124   4.2744   6.4445   6.7647   7.4441
     7.7966  10.6729  11.3843  12.0799  12.9960  13.4165  13.6302  14.1804
    14.8772  15.4641

          k = 0.2500 0.5861 0.0000 (  5698 PWs)   bands (ev):

   -45.1740 -23.6760 -23.3879 -23.2857 -20.4471 -11.8759  -2.9816  -2.6668
    -2.3890  -1.8700  -0.9804  -0.5211   4.3293   6.5970   6.7288   7.4825
     7.7027  10.6555  12.0209  12.2980  12.3945  13.3344  13.8135  14.2788
    14.8904  15.5402

          k = 0.2500-0.0733 0.0000 (  5684 PWs)   bands (ev):

   -45.2211 -23.6569 -23.2717 -22.9982 -20.4918 -12.5775  -2.7860  -2.6342
    -2.3581  -0.9425  -0.3623   1.1111   3.8150   5.6814   6.3976   6.7132
     7.3859   7.6015   9.3303  10.4438  12.3506  13.2667  13.8484  15.7737
    16.6953  16.9854

          k = 0.2500 0.0000 0.0000 (  5696 PWs)   bands (ev):

   -45.2229 -23.6617 -23.2466 -23.0016 -20.4941 -12.6020  -2.7666  -2.6455
    -2.3648  -0.9299  -0.2233   1.0508   3.8615   5.5954   6.4399   6.7040
     7.2765   7.5767   9.2687  10.4173  12.8081  13.0614  13.5578  15.5776
    16.6310  16.9554

          k = 0.3125 0.1832 0.0000 (  5705 PWs)   bands (ev):

   -45.2034 -23.6418 -23.4197 -23.0260 -20.4732 -12.3291  -2.9242  -2.5289
    -2.3698  -1.5545  -0.6712   0.9694   3.6113   6.0055   6.7143   7.1753
     7.7257   8.2274   9.8488  10.8366  11.9333  12.7588  15.0198  15.4959
    16.6304  16.7099

          k = 0.3125 0.2564 0.0000 (  5710 PWs)   bands (ev):

   -45.1964 -23.6610 -23.4342 -23.0520 -20.4686 -12.2270  -2.9617  -2.4982
    -2.4073  -1.8094  -0.6453   0.7661   3.6210   6.1280   6.7442   7.3987
     7.8402   8.6344  10.0278  11.0863  12.0463  12.7127  14.5520  15.2387
    15.9550  16.6938

          k = 0.3125 0.3297 0.0000 (  5712 PWs)   bands (ev):

   -45.1889 -23.6801 -23.4273 -23.1073 -20.4616 -12.1124  -2.9648  -2.5228
    -2.4545  -1.9384  -0.6180   0.3250   3.7720   6.2607   6.7493   7.4011
     7.9650   9.3675  10.3335  11.5671  12.3008  12.7814  13.9873  14.6661
    15.4426  16.5157

          k = 0.3125 0.4030 0.0000 (  5714 PWs)   bands (ev):

   -45.1820 -23.6854 -23.4111 -23.1825 -20.4539 -12.0026  -2.9486  -2.6316
    -2.4267  -1.9476  -0.6134  -0.2107   4.0134   6.3423   6.8063   7.3617
     7.9509  10.2302  10.7095  12.1044  12.5382  13.0127  13.5731  14.3198
    15.1064  15.9891

          k = 0.3125 0.4762 0.0000 (  5702 PWs)   bands (ev):

   -45.1766 -23.6741 -23.3956 -23.2596 -20.4473 -11.9158  -2.9604  -2.6613
    -2.3967  -1.8711  -0.8397  -0.5149   4.2699   6.4366   6.7632   7.4498
     7.8025  10.6478  11.3799  12.0983  12.9653  13.4604  13.5871  14.2502
    14.8387  15.4340

          k = 0.3125 0.5495 0.0000 (  5687 PWs)   bands (ev):

   -45.1738 -23.6579 -23.3869 -23.3120 -20.4436 -11.8679  -2.9922  -2.6317
    -2.3744  -1.7207  -1.2412  -0.5343   4.4425   6.5686   6.6848   7.3987
     7.7698  10.6249  12.0169  12.2854  13.0361  13.2895  14.0008  14.2621
    14.9858  15.6101

          k = 0.3125-0.1099 0.0000 (  5705 PWs)   bands (ev):

   -45.2087 -23.6333 -23.3829 -23.0276 -20.4754 -12.4049  -2.8581  -2.5653
    -2.3779  -1.2531  -0.6743   0.9091   3.7229   5.8738   6.5414   7.0956
     7.5968   8.0442   9.7551  10.8138  12.0977  12.8994  14.7128  15.7388
    16.3489  16.7415

          k = 0.3125-0.0366 0.0000 (  5695 PWs)   bands (ev):

   -45.2115 -23.6320 -23.3483 -23.0404 -20.4760 -12.4452  -2.7896  -2.6062
    -2.3966  -1.0469  -0.6381   0.7530   3.8421   5.6896   6.5482   7.0543
     7.4885   7.9761   9.7082  10.8477  12.6094  13.0493  13.8405  15.6130
    16.3645  16.8636

          k = 0.3750 0.2198 0.0000 (  5699 PWs)   bands (ev):

   -45.1928 -23.6928 -23.4365 -23.0468 -20.4689 -12.1679  -3.0231  -2.4903
    -2.3854  -2.0466  -0.6212   0.8406   3.5229   6.2279   6.9588   7.4749
     7.9910   8.7996  10.0039  11.0422  12.0362  12.7010  13.9954  15.3722
    15.8738  16.1840

          k = 0.3750 0.2931 0.0000 (  5704 PWs)   bands (ev):

   -45.1877 -23.7191 -23.4280 -23.0718 -20.4665 -12.0888  -3.0470  -2.5130
    -2.4260  -2.1587  -0.5953   0.6401   3.5732   6.3803   6.9242   7.5404
     8.0745   9.3384  10.1748  11.2511  12.1537  12.7555  13.5430  14.9126
    15.3426  16.0747

          k = 0.3750 0.3663 0.0000 (  5697 PWs)   bands (ev):

   -45.1827 -23.7239 -23.4143 -23.1287 -20.4600 -12.0082  -3.0188  -2.6262
    -2.4318  -2.1248  -0.5797   0.1869   3.7778   6.5523   6.8474   7.4902
     7.9943  10.1222  10.5534  11.6961  12.2649  12.7648  13.3452  14.4019
    15.0590  15.8410

          k = 0.3750 0.4396 0.0000 (  5694 PWs)   bands (ev):

   -45.1783 -23.7049 -23.4008 -23.2056 -20.4518 -11.9388  -2.9729  -2.6964
    -2.4123  -2.0244  -0.5988  -0.3500   4.0615   6.6089   6.8002   7.5029
     7.7966  10.5272  11.3356  12.1375  12.3289  12.7858  13.4909  14.3565
    14.9331  15.5356

          k = 0.3750 0.5129 0.0000 (  5693 PWs)   bands (ev):

   -45.1755 -23.6723 -23.3914 -23.2788 -20.4451 -11.8919  -2.9767  -2.6604
    -2.3872  -1.8578  -0.9529  -0.5335   4.3301   6.6099   6.6951   7.4875
     7.7160  10.6043  12.0388  12.2363  12.3264  13.4681  13.8414  14.2823
    14.8556  15.4991

          k = 0.3750 0.5861 0.0000 (  5692 PWs)   bands (ev):

   -45.1745 -23.6541 -23.3881 -23.3116 -20.4425 -11.8753  -2.9896  -2.6267
    -2.3731  -1.6951  -1.2528  -0.5414   4.4490   6.5840   6.6608   7.3933
     7.7781  10.5985  12.0366  12.1597  13.1142  13.2825  14.1165  14.2180
    14.9590  15.5994

          k = 0.3750-0.1465 0.0000 (  5717 PWs)   bands (ev):

   -45.1971 -23.6575 -23.4330 -23.0539 -20.4674 -12.2338  -2.9575  -2.4992
    -2.4040  -1.7858  -0.6484   0.7400   3.6364   6.1325   6.7595   7.3844
     7.8346   8.6186  10.0117  11.0867  12.0525  12.7139  14.5698  15.2826
    15.9109  16.7335

          k = 0.3750-0.0733 0.0000 (  5710 PWs)   bands (ev):

   -45.2000 -23.6305 -23.4162 -23.0788 -20.4644 -12.2772  -2.8789  -2.5195
    -2.4372  -1.5001  -0.6706   0.4881   3.8128   5.9333   6.6591   7.2699
     7.7674   8.5634  10.0648  11.2547  12.3668  12.8113  14.6494  15.0247
    15.6962  16.6919

          k = 0.3750 0.0000 0.0000 (  5700 PWs)   bands (ev):

   -45.2010 -23.6214 -23.4046 -23.0934 -20.4630 -12.2923  -2.8384  -2.5379
    -2.4497  -1.3593  -0.6814   0.3485   3.9022   5.7910   6.7181   7.1571
     7.7684   8.5493  10.0872  11.3160  12.6914  12.9670  14.1076  14.8897
    16.0190  16.4778

          k = 0.4375 0.2564 0.0000 (  5681 PWs)   bands (ev):

   -45.1857 -23.7480 -23.4237 -23.0606 -20.4688 -12.0540  -3.1035  -2.5300
    -2.3974  -2.3000  -0.5773   0.7587   3.4792   6.4421   7.0352   7.6078
     8.2888   9.4258  10.1254  11.1808  12.0820  12.6635  13.3548  14.7907
    15.1555  15.7473

          k = 0.4375 0.3297 0.0000 (  5704 PWs)   bands (ev):

   -45.1831 -23.7569 -23.4162 -23.0830 -20.4665 -12.0116  -3.1022  -2.5996
    -2.4248  -2.2694  -0.5655   0.5700   3.5596   6.5587   6.9972   7.5792
     8.2336   9.9203  10.3301  11.3636  11.9560  12.6004  13.4406  14.3824
    14.9997  15.5665

          k = 0.4375 0.4030 0.0000 (  5693 PWs)   bands (ev):

   -45.1807 -23.7387 -23.4082 -23.1373 -20.4594 -11.9730  -3.0374  -2.6777
    -2.4261  -2.1633  -0.5663   0.1306   3.7884   6.6326   6.9674   7.4855
     7.9862  10.3138  10.9044  11.7751  11.9055  12.6189  13.4808  14.2338
    15.0511  15.3372

          k = 0.4375 0.4762 0.0000 (  5702 PWs)   bands (ev):

   -45.1788 -23.7009 -23.4014 -23.2072 -20.4509 -11.9438  -2.9708  -2.6898
    -2.4115  -2.0106  -0.5993  -0.3668   4.0700   6.6141   6.8024   7.5169
     7.7733  10.5115  11.2408  12.1575  12.3789  12.7922  13.4836  14.3630
    14.9537  15.5611

          k = 0.4375 0.5495 0.0000 (  5701 PWs)   bands (ev):

   -45.1778 -23.6658 -23.3971 -23.2617 -20.4453 -11.9283  -2.9567  -2.6488
    -2.3946  -1.8322  -0.8576  -0.5330   4.2860   6.4479   6.7437   7.4756
     7.7743  10.6144  11.2532  12.1207  12.9511  13.4972  13.6885  14.2093
    14.8609  15.4731

          k = 0.4375-0.1832 0.0000 (  5711 PWs)   bands (ev):

   -45.1882 -23.7155 -23.4283 -23.0735 -20.4655 -12.0937  -3.0430  -2.5124
    -2.4244  -2.1436  -0.5978   0.6213   3.5850   6.3784   6.9564   7.5208
     8.0730   9.3069  10.1536  11.2554  12.1572  12.7475  13.5571  14.9426
    15.3362  16.0770

          k = 0.4375-0.1099 0.0000 (  5707 PWs)   bands (ev):

   -45.1901 -23.6723 -23.4272 -23.1106 -20.4595 -12.1242  -2.9576  -2.5195
    -2.4503  -1.9008  -0.6234   0.2862   3.7948   6.2679   6.7598   7.4132
     7.9349   9.3264  10.2915  11.5663  12.3131  12.7748  14.0200  14.6858
    15.4891  16.5508

          k = 0.4375-0.0366 0.0000 (  5722 PWs)   bands (ev):

   -45.1911 -23.6409 -23.4214 -23.1454 -20.4550 -12.1408  -2.8949  -2.5375
    -2.4578  -1.6824  -0.6516  -0.0045   3.9733   6.0227   6.8119   7.2349
     7.9384   9.3366  10.4015  11.7809  12.5823  12.9648  14.1734  14.7769
    15.1102  16.1564

          k =-0.5000-0.2931 0.0000 (  5692 PWs)   bands (ev):

   -45.1833 -23.7694 -23.4168 -23.0655 -20.4692 -12.0127  -3.1384  -2.5815
    -2.4021  -2.3453  -0.5608   0.7307   3.4675   6.5528   7.0105   7.6429
     8.4189   9.7742  10.2008  11.3005  11.8045  12.5495  13.5229  14.2968
    14.9682  15.5728

          k =-0.5000-0.2198 0.0000 (  5697 PWs)   bands (ev):

   -45.1833 -23.7554 -23.4164 -23.0836 -20.4662 -12.0134  -3.1004  -2.5984
    -2.4244  -2.2652  -0.5663   0.5632   3.5639   6.5525   7.0200   7.5676
     8.2361   9.8959  10.3189  11.3631  11.9743  12.5961  13.4295  14.4011
    15.0228  15.5477

          k =-0.5000-0.1465 0.0000 (  5713 PWs)   bands (ev):

   -45.1833 -23.7187 -23.4150 -23.1310 -20.4588 -12.0149  -3.0138  -2.6203
    -2.4305  -2.1074  -0.5825   0.1640   3.7914   6.5450   6.8818   7.4871
     7.9753  10.0857  10.4951  11.6993  12.2980  12.7563  13.3479  14.4294
    15.0921  15.8429

          k =-0.5000-0.0733 0.0000 (  5710 PWs)   bands (ev):

   -45.1833 -23.6757 -23.4121 -23.1859 -20.4515 -12.0165  -2.9426  -2.6189
    -2.4245  -1.9061  -0.6178  -0.2512   4.0357   6.3535   6.7931   7.4016
     7.9060  10.1887  10.6183  12.0988  12.5296  13.0451  13.6250  14.3275
    15.1751  15.9965

          k =-0.5000-0.0000 0.0000 (  5716 PWs)   bands (ev):

   -45.1833 -23.6553 -23.4099 -23.2123 -20.4485 -12.0171  -2.9199  -2.6119
    -2.4199  -1.7853  -0.6721  -0.4165   4.1513   6.1948   6.8297   7.3227
     7.9230  10.2127  10.6784  12.1495  12.6167  13.3675  13.9399  14.4378
    14.9137  15.5028

     highest occupied, lowest unoccupied level (ev):     4.4490    5.5954

!    total energy              =    -571.23403468 Ry
     total all-electron energy =    -12610.611446 Ry
     estimated scf accuracy    <          4.1E-11 Ry

     The total energy is the sum of the following terms:
     one-electron contribution =    -279.37134753 Ry
     hartree contribution      =     148.32748453 Ry
     xc contribution           =     -36.36987726 Ry
     ewald contribution        =      -6.96366525 Ry
     one-center paw contrib.   =    -396.85662918 Ry

     convergence has been achieved in   4 iterations

     negative rho (up, down):  2.819E-05 0.000E+00

     Forces acting on atoms (cartesian axes, Ry/au):

     atom    1 type  1   force =     0.00000000    0.00009123   -0.00000403
     atom    2 type  2   force =     0.00000000   -0.00010023   -0.00008828
     atom    3 type  3   force =     0.00000000    0.00000900    0.00009231
     The non-local contrib.  to forces
     atom    1 type  1   force =     0.00000000   -0.00276408   -0.02406153
     atom    2 type  2   force =     0.00000000   -0.02118140   -1.02204731
     atom    3 type  3   force =     0.00000000   -0.00117955    0.21137461
     The ionic contribution  to forces
     atom    1 type  1   force =    -0.00000001   -0.15663888   -0.67733745
     atom    2 type  2   force =     0.00000001    0.11577770   25.03143225
     atom    3 type  3   force =     0.00000000    0.04086119  -24.35409480
     The local contribution  to forces
     atom    1 type  1   force =    -0.00000000    0.15937745    0.69733231
     atom    2 type  2   force =     0.00000027   -0.09476401  -24.01279549
     atom    3 type  3   force =    -0.00000000   -0.03956577   24.14528400
     The core correction contribution to forces
     atom    1 type  1   force =     0.00000000    0.00011718    0.00402622
     atom    2 type  2   force =     0.00000000    0.00006819    0.00331185
     atom    3 type  3   force =    -0.00000000   -0.00010634   -0.00246587
     The Hubbard contrib.    to forces
     atom    1 type  1   force =     0.00000000    0.00000000    0.00000000
     atom    2 type  2   force =     0.00000000    0.00000000    0.00000000
     atom    3 type  3   force =     0.00000000    0.00000000    0.00000000
     The SCF correction term to forces
     atom    1 type  1   force =    -0.00000000   -0.00000051    0.00003397
     atom    2 type  2   force =    -0.00000000   -0.00000076    0.00000797
     atom    3 type  3   force =    -0.00000000   -0.00000060   -0.00000810

     Total force =     0.000186     Total SCF correction =     0.000036
     SCF correction compared to forces is large: reduce conv_thr to get better values
     Energy error            =      8.6E-08 Ry
     Gradient error          =      1.0E-04 Ry/Bohr

     number of scf cycles    =  11
     number of bfgs steps    =  10

     energy             old  =    -571.2340345923 Ry
     energy             new  =    -571.2340346786 Ry

     CASE: energy            _new < energy            _old

     new trust radius        =       0.0006113233 bohr
     new conv_thr            =            1.0E-10 Ry


ATOMIC_POSITIONS (angstrom)
Zr           -0.0000000000        0.0172893204       10.1024709987
F            -0.0000000020        1.9202252407       11.4195327473
Br           -0.0000000020        1.9242932022        8.1961749670



     Writing config-only to output data dir ./tmp/ZrFBr.save/
     NEW-OLD atomic charge density approx. for the potential

     Check: negative core charge=   -0.000002

     negative rho (up, down):  2.822E-05 0.000E+00

     total cpu time spent up to now is      117.5 secs

     Self-consistent Calculation

     iteration #  1     ecut=    65.00 Ry     beta= 0.70
     Davidson diagonalization with overlap
     ethr =  1.00E-06,  avg # of iterations =  2.0

     Threshold (ethr) on eigenvalues was too large:
     Diagonalizing with lowered threshold

     Davidson diagonalization with overlap
     ethr =  1.04E-10,  avg # of iterations =  4.0

     negative rho (up, down):  2.822E-05 0.000E+00

     total cpu time spent up to now is      120.6 secs

     total energy              =    -571.23403476 Ry
     estimated scf accuracy    <       0.00000003 Ry

     iteration #  2     ecut=    65.00 Ry     beta= 0.70
     Davidson diagonalization with overlap
     ethr =  1.14E-10,  avg # of iterations =  2.0

     negative rho (up, down):  2.821E-05 0.000E+00

     total cpu time spent up to now is      122.0 secs

     total energy              =    -571.23403475 Ry
     estimated scf accuracy    <       0.00000006 Ry

     iteration #  3     ecut=    65.00 Ry     beta= 0.70
     Davidson diagonalization with overlap
     ethr =  1.14E-10,  avg # of iterations =  1.8

     negative rho (up, down):  2.820E-05 0.000E+00

     total cpu time spent up to now is      123.3 secs

     total energy              =    -571.23403476 Ry
     estimated scf accuracy    <          5.9E-09 Ry

     iteration #  4     ecut=    65.00 Ry     beta= 0.70
     Davidson diagonalization with overlap
     ethr =  2.26E-11,  avg # of iterations =  1.0

     negative rho (up, down):  2.820E-05 0.000E+00

     total cpu time spent up to now is      124.5 secs

     total energy              =    -571.23403476 Ry
     estimated scf accuracy    <          2.9E-10 Ry

     iteration #  5     ecut=    65.00 Ry     beta= 0.70
     Davidson diagonalization with overlap
     ethr =  1.11E-12,  avg # of iterations =  2.0

     negative rho (up, down):  2.820E-05 0.000E+00

     total cpu time spent up to now is      125.8 secs

     End of self-consistent calculation

          k = 0.0000 0.0000 0.0000 (  5617 PWs)   bands (ev):

   -45.2476 -23.7506 -22.9525 -22.9299 -20.5633 -12.9212  -3.0731  -2.3612
    -2.3311  -1.0818   1.5390   1.6507   3.8057   5.8406   6.0273   6.0978
     6.9438   7.0194   8.0751   8.9921  11.2957  14.1884  14.7645  15.0467
    15.4337  17.3983

          k = 0.0000 0.0733 0.0000 (  5647 PWs)   bands (ev):

   -45.2450 -23.7411 -22.9640 -22.9581 -20.5543 -12.8906  -3.0369  -2.3716
    -2.3616  -1.0571   1.4111   1.4938   3.8290   5.8889   5.9499   6.1933
     6.9601   6.9960   8.2128   9.2187  11.4450  14.2564  14.6014  14.9064
    15.3271  17.6842

          k = 0.0000 0.1465 0.0000 (  5692 PWs)   bands (ev):

   -45.2376 -23.7144 -23.0576 -22.9739 -20.5320 -12.8015  -2.9402  -2.4737
    -2.3638  -0.9979   0.8111   1.3700   3.8702   5.8085   6.0429   6.2947
     7.0242   7.1310   8.5741   9.6938  11.8713  13.8542  14.2844  15.1878
    15.3283  17.7803

          k = 0.0000 0.2198 0.0000 (  5710 PWs)   bands (ev):

   -45.2264 -23.6762 -23.1880 -22.9974 -20.5062 -12.6625  -2.8253  -2.5882
    -2.3704  -0.9373   0.0631   1.1962   3.8627   5.7395   6.3149   6.3401
     7.3048   7.3366   9.0599  10.1680  12.2420  13.4902  13.9238  15.6005
    16.0135  17.4600

          k = 0.0000 0.2931 0.0000 (  5708 PWs)   bands (ev):

   -45.2133 -23.6396 -23.3231 -23.0249 -20.4858 -12.4887  -2.8190  -2.5982
    -2.3832  -1.0047  -0.5657   1.0070   3.7749   5.8170   6.4837   6.6950
     7.4844   7.7602   9.5464  10.5556  12.0656  13.1247  14.5042  16.1763
    16.8055  16.8356

          k = 0.0000 0.3663 0.0000 (  5708 PWs)   bands (ev):

   -45.2000 -23.6366 -23.4150 -23.0522 -20.4745 -12.3026  -2.9185  -2.5251
    -2.4009  -1.5315  -0.6486   0.8323   3.6574   5.9942   6.7399   7.1214
     7.6774   8.2558   9.8872  10.8268  11.9530  12.8109  15.1820  15.5965
    16.5283  16.7713

          k = 0.0000 0.4396 0.0000 (  5704 PWs)   bands (ev):

   -45.1888 -23.6910 -23.4294 -23.0753 -20.4712 -12.1335  -3.0163  -2.4926
    -2.4196  -2.0355  -0.5934   0.6942   3.5694   6.2111   6.9697   7.4343
     7.9660   8.8377  10.0359  11.0306  12.0831  12.7712  14.1292  15.4680
    16.0046  16.0217

          k = 0.0000 0.5129 0.0000 (  5718 PWs)   bands (ev):

   -45.1812 -23.7488 -23.4145 -23.0906 -20.4720 -12.0137  -3.0942  -2.5417
    -2.4338  -2.2949  -0.5456   0.6065   3.5262   6.4267   7.0267   7.5619
     8.3022   9.4739  10.1515  11.1838  12.1706  12.7669  13.4269  14.8737
    15.2828  15.5539

          k = 0.0000-0.5861 0.0000 (  5730 PWs)   bands (ev):

   -45.1786 -23.7709 -23.4069 -23.0959 -20.4728 -11.9703  -3.1277  -2.5972
    -2.4391  -2.3424  -0.5278   0.5765   3.5149   6.5416   6.9905   7.5944
     8.4495   9.8361  10.2045  11.3202  11.9290  12.6394  13.5796  14.3743
    15.0923  15.3702

          k = 0.0625 0.0366 0.0000 (  5641 PWs)   bands (ev):

   -45.2451 -23.7415 -22.9819 -22.9386 -20.5545 -12.8918  -3.0378  -2.3952
    -2.3361  -1.0586   1.3258   1.5881   3.8255   5.7960   6.0507   6.1916
     6.9090   7.0582   8.2060   9.2104  11.4394  14.2561  14.4435  15.1204
    15.3070  17.6227

          k = 0.0625 0.1099 0.0000 (  5653 PWs)   bands (ev):

   -45.2401 -23.7234 -23.0340 -22.9610 -20.5389 -12.8320  -2.9709  -2.4504
    -2.3536  -1.0167   0.9679   1.4437   3.8576   5.7823   6.0603   6.2891
     6.9290   7.1338   8.4564   9.5563  11.7362  14.0004  14.3087  15.0744
    15.3609  17.7547

          k = 0.0625 0.1832 0.0000 (  5690 PWs)   bands (ev):

   -45.2309 -23.6908 -23.1396 -22.9870 -20.5150 -12.7178  -2.8600  -2.5542
    -2.3667  -0.9559   0.3413   1.2480   3.8797   5.6988   6.2529   6.3580
     7.0981   7.3189   8.8814  10.0177  12.2470  13.4664  13.9870  15.2719
    15.9333  17.3766

          k = 0.0625 0.2564 0.0000 (  5702 PWs)   bands (ev):

   -45.2187 -23.6523 -23.2685 -23.0172 -20.4922 -12.5611  -2.7810  -2.6270
    -2.3832  -0.9266  -0.3443   1.0273   3.8424   5.7104   6.3918   6.6423
     7.3376   7.6233   9.3719  10.4522  12.3421  13.2926  13.8819  15.7923
    16.6658  16.9714

          k = 0.0625 0.3297 0.0000 (  5699 PWs)   bands (ev):

   -45.2055 -23.6284 -23.3815 -23.0488 -20.4768 -12.3803  -2.8549  -2.5604
    -2.4057  -1.2417  -0.6570   0.8122   3.7533   5.8716   6.5419   7.0564
     7.5544   8.0699   9.8003  10.8099  12.0871  12.9319  14.7665  15.8305
    16.3816  16.7592

          k = 0.0625 0.4030 0.0000 (  5708 PWs)   bands (ev):

   -45.1932 -23.6564 -23.4284 -23.0777 -20.4699 -12.2013  -2.9549  -2.4994
    -2.4329  -1.7857  -0.6236   0.6293   3.6677   6.1155   6.7593   7.3596
     7.8095   8.6569  10.0553  11.0653  12.0726  12.7652  14.7013  15.3081
    15.9686  16.7462

          k = 0.0625 0.4762 0.0000 (  5709 PWs)   bands (ev):

   -45.1839 -23.7175 -23.4202 -23.0997 -20.4689 -12.0552  -3.0383  -2.5291
    -2.4417  -2.1523  -0.5683   0.4974   3.6189   6.3622   6.9419   7.4937
     8.0732   9.3658  10.1960  11.2300  12.2115  12.8321  13.6537  14.9420
    15.4328  16.0373

          k = 0.0625 0.5495 0.0000 (  5712 PWs)   bands (ev):

   -45.1788 -23.7578 -23.4070 -23.1116 -20.4698 -11.9724  -3.0924  -2.6186
    -2.4404  -2.2778  -0.5349   0.4285   3.6024   6.5419   6.9962   7.5337
     8.2581   9.9714  10.3310  11.3599  12.0759  12.6853  13.4849  14.4511
    15.1036  15.4459

          k = 0.1250 0.0733 0.0000 (  5663 PWs)   bands (ev):

   -45.2382 -23.7160 -23.0711 -22.9545 -20.5324 -12.8064  -2.9432  -2.4913
    -2.3395  -1.0032   0.7437   1.4681   3.8553   5.7065   6.1751   6.2852
     6.9966   7.1868   8.5542   9.6784  11.8509  13.7965  14.2398  15.1576
    15.5215  17.7437

          k = 0.1250 0.1465 0.0000 (  5670 PWs)   bands (ev):

   -45.2313 -23.6920 -23.1459 -22.9764 -20.5152 -12.7215  -2.8620  -2.5618
    -2.3544  -0.9598   0.3056   1.3080   3.8658   5.6755   6.2987   6.3502
     7.0954   7.3373   8.8693  10.0110  12.2337  13.4421  13.9630  15.2640
    16.0069  17.4044

          k = 0.1250 0.2198 0.0000 (  5692 PWs)   bands (ev):

   -45.2210 -23.6584 -23.2487 -23.0107 -20.4947 -12.5894  -2.7634  -2.6431
    -2.3804  -0.9197  -0.2388   1.0337   3.8676   5.6320   6.4174   6.6559
     7.2369   7.6003   9.3028  10.4246  12.8071  13.0275  13.5568  15.5844
    16.6683  16.9437

          k = 0.1250 0.2931 0.0000 (  5690 PWs)   bands (ev):

   -45.2088 -23.6285 -23.3523 -23.0517 -20.4776 -12.4247  -2.7903  -2.6029
    -2.4158  -1.0519  -0.6402   0.7245   3.8487   5.7036   6.5254   7.0297
     7.4627   7.9978   9.7510  10.8520  12.5620  13.0344  13.8425  15.6436
    16.4493  16.9162

          k = 0.1250 0.3663 0.0000 (  5703 PWs)   bands (ev):

   -45.1966 -23.6308 -23.4165 -23.0930 -20.4672 -12.2491  -2.8813  -2.5198
    -2.4581  -1.5214  -0.6537   0.4414   3.8205   5.9292   6.6473   7.2428
     7.7680   8.5963  10.1144  11.2459  12.3334  12.8129  14.6603  15.0974
    15.7374  16.7482

          k = 0.1250 0.4396 0.0000 (  5696 PWs)   bands (ev):

   -45.1862 -23.6769 -23.4217 -23.1282 -20.4631 -12.0903  -2.9592  -2.5427
    -2.4531  -1.9238  -0.6005   0.2188   3.8067   6.2540   6.7567   7.3760
     7.9535   9.3833  10.3535  11.5230  12.3156  12.8160  14.0979  14.6890
    15.5562  16.5681

          k = 0.1250 0.5129 0.0000 (  5713 PWs)   bands (ev):

   -45.1792 -23.7234 -23.4070 -23.1518 -20.4626 -11.9783  -3.0126  -2.6435
    -2.4351  -2.1285  -0.5570   0.0768   3.8105   6.5340   6.8714   7.4545
     7.9984  10.1639  10.5605  11.6322  12.3328  12.8397  13.4025  14.4225
    15.1544  15.8604

          k = 0.1250 0.5861 0.0000 (  5714 PWs)   bands (ev):

   -45.1768 -23.7412 -23.3999 -23.1601 -20.4629 -11.9378  -3.0326  -2.6976
    -2.4317  -2.1787  -0.5408   0.0279   3.8152   6.6183   6.9736   7.4507
     8.0050  10.3869  10.9102  11.7167  12.0180  12.6666  13.5168  14.2953
    15.1137  15.3191

          k = 0.1250 0.0000 0.0000 (  5658 PWs)   bands (ev):

   -45.2406 -23.7245 -23.0434 -22.9473 -20.5391 -12.8356  -2.9731  -2.4641
    -2.3350  -1.0207   0.9277   1.5026   3.8500   5.6974   6.1612   6.2867
     6.9372   7.1509   8.4397   9.5436  11.7236  13.9409  14.2896  15.0931
    15.4868  17.7446

          k = 0.1875 0.1099 0.0000 (  5672 PWs)   bands (ev):

   -45.2277 -23.6795 -23.1974 -22.9760 -20.5065 -12.6733  -2.8303  -2.6008
    -2.3450  -0.9485   0.0117   1.3067   3.8312   5.6922   6.3095   6.4341
     7.3110   7.3627   9.0280  10.1551  12.2224  13.4482  13.8673  15.5578
    16.1818  17.4849

          k = 0.1875 0.1832 0.0000 (  5689 PWs)   bands (ev):

   -45.2198 -23.6553 -23.2753 -22.9998 -20.4924 -12.5707  -2.7858  -2.6343
    -2.3642  -0.9396  -0.3831   1.1249   3.8100   5.7043   6.3905   6.6813
     7.3626   7.6226   9.3483  10.4474  12.3407  13.2559  13.8132  15.7546
    16.7623  17.0000

          k = 0.1875 0.2564 0.0000 (  5701 PWs)   bands (ev):

   -45.2095 -23.6304 -23.3553 -23.0424 -20.4775 -12.4307  -2.7938  -2.6042
    -2.4069  -1.0680  -0.6506   0.7770   3.8299   5.7081   6.5257   7.0386
     7.4807   7.9926   9.7394  10.8537  12.5755  13.0305  13.7701  15.6407
    16.4093  16.8823

          k = 0.1875 0.3297 0.0000 (  5695 PWs)   bands (ev):

   -45.1983 -23.6236 -23.4096 -23.0966 -20.4657 -12.2705  -2.8453  -2.5369
    -2.4635  -1.4069  -0.6732   0.3678   3.8868   5.7996   6.6991   7.1383
     7.7846   8.5774  10.1314  11.3242  12.6839  12.8769  14.0700  14.9221
    16.0255  16.5514

          k = 0.1875 0.4030 0.0000 (  5700 PWs)   bands (ev):

   -45.1879 -23.6486 -23.4199 -23.1515 -20.4585 -12.1135  -2.9014  -2.5555
    -2.4591  -1.7302  -0.6380  -0.0028   3.9610   6.0229   6.8179   7.1882
     7.9720   9.3883  10.4678  11.7805  12.5925  12.8693  14.1859  14.8035
    15.1193  16.1306

          k = 0.1875 0.4762 0.0000 (  5711 PWs)   bands (ev):

   -45.1799 -23.6841 -23.4068 -23.1959 -20.4553 -11.9866  -2.9474  -2.6406
    -2.4262  -1.9418  -0.6077  -0.2703   4.0318   6.3483   6.8059   7.3496
     7.9442  10.2526  10.7249  12.0586  12.5115  13.0148  13.6823  14.3156
    15.2183  15.9214

          k = 0.1875 0.5495 0.0000 (  5709 PWs)   bands (ev):

   -45.1756 -23.7063 -23.3949 -23.2209 -20.4543 -11.9152  -2.9741  -2.7065
    -2.4142  -2.0316  -0.6003  -0.4003   4.0767   6.6008   6.8261   7.4748
     7.7985  10.5864  11.3447  12.1070  12.3584  12.7708  13.5403  14.3858
    14.9717  15.5924

          k = 0.1875-0.0366 0.0000 (  5677 PWs)   bands (ev):

   -45.2320 -23.6935 -23.1466 -22.9698 -20.5152 -12.7272  -2.8644  -2.5657
    -2.3441  -0.9652   0.3091   1.3207   3.8616   5.6293   6.3301   6.3851
     7.1374   7.3133   8.8496  10.0040  12.2263  13.4453  13.9573  15.2764
    16.0519  17.3925

          k = 0.2500 0.1465 0.0000 (  5688 PWs)   bands (ev):

   -45.2154 -23.6447 -23.3286 -23.0010 -20.4855 -12.5070  -2.8255  -2.6059
    -2.3554  -1.0304  -0.5939   1.1312   3.7322   5.8102   6.4526   6.7815
     7.5339   7.7401   9.5073  10.5515  12.0614  13.0801  14.4108  16.0976
    16.6808  16.9856

          k = 0.2500 0.2198 0.0000 (  5700 PWs)   bands (ev):

   -45.2075 -23.6333 -23.3869 -23.0264 -20.4764 -12.3977  -2.8614  -2.5647
    -2.3822  -1.2750  -0.6757   0.9342   3.7098   5.8784   6.5343   7.0934
     7.5962   8.0529   9.7703  10.8160  12.0835  12.8906  14.6450  15.7281
    16.3545  16.7780

          k = 0.2500 0.2931 0.0000 (  5710 PWs)   bands (ev):

   -45.1981 -23.6345 -23.4204 -23.0765 -20.4666 -12.2629  -2.8861  -2.5170
    -2.4467  -1.5467  -0.6654   0.5291   3.7896   5.9363   6.6459   7.2611
     7.7880   8.5867  10.0962  11.2614  12.3392  12.7981  14.5704  15.0111
    15.6716  16.7315

          k = 0.2500 0.3663 0.0000 (  5716 PWs)   bands (ev):

   -45.1887 -23.6502 -23.4220 -23.1432 -20.4580 -12.1213  -2.9033  -2.5472
    -2.4614  -1.7411  -0.6427   0.0382   3.9473   6.0235   6.8195   7.1949
     7.9779   9.3835  10.4586  11.7944  12.5905  12.8994  14.1769  14.6825
    15.0602  16.1957

          k = 0.2500 0.4396 0.0000 (  5707 PWs)   bands (ev):

   -45.1808 -23.6664 -23.4075 -23.2120 -20.4518 -11.9952  -2.9265  -2.6296
    -2.4222  -1.8408  -0.6657  -0.3824   4.1298   6.1942   6.8556   7.2649
     7.9678  10.2647  10.7861  12.1381  12.6650  13.2518  13.9125  14.4133
    14.8961  15.4749

          k = 0.2500 0.5129 0.0000 (  5710 PWs)   bands (ev):

   -45.1754 -23.6743 -23.3932 -23.2651 -20.4482 -11.9077  -2.9626  -2.6636
    -2.3972  -1.8699  -0.8639  -0.5125   4.2744   6.4448   6.7654   7.4443
     7.7974  10.6732  11.3845  12.0800  12.9960  13.4164  13.6307  14.1805
    14.8772  15.4641

          k = 0.2500 0.5861 0.0000 (  5698 PWs)   bands (ev):

   -45.1735 -23.6759 -23.3875 -23.2853 -20.4471 -11.8762  -2.9818  -2.6669
    -2.3891  -1.8703  -0.9806  -0.5212   4.3293   6.5971   6.7295   7.4828
     7.7036  10.6560  12.0209  12.2981  12.3945  13.3345  13.8138  14.2790
    14.8903  15.5399

          k = 0.2500-0.0733 0.0000 (  5684 PWs)   bands (ev):

   -45.2206 -23.6567 -23.2713 -22.9979 -20.4918 -12.5778  -2.7862  -2.6343
    -2.3585  -0.9427  -0.3625   1.1106   3.8155   5.6820   6.3978   6.7131
     7.3864   7.6019   9.3305  10.4439  12.3506  13.2670  13.8482  15.7736
    16.6952  16.9861

          k = 0.2500 0.0000 0.0000 (  5696 PWs)   bands (ev):

   -45.2225 -23.6614 -23.2462 -23.0013 -20.4941 -12.6022  -2.7668  -2.6455
    -2.3652  -0.9301  -0.2236   1.0504   3.8621   5.5961   6.4402   6.7038
     7.2768   7.5771   9.2688  10.4173  12.8080  13.0613  13.5580  15.5775
    16.6310  16.9563

          k = 0.3125 0.1832 0.0000 (  5705 PWs)   bands (ev):

   -45.2030 -23.6415 -23.4193 -23.0257 -20.4732 -12.3294  -2.9243  -2.5290
    -2.3701  -1.5548  -0.6712   0.9689   3.6118   6.0062   6.7142   7.1756
     7.7263   8.2277   9.8492  10.8366  11.9333  12.7591  15.0198  15.4957
    16.6307  16.7102

          k = 0.3125 0.2564 0.0000 (  5710 PWs)   bands (ev):

   -45.1960 -23.6607 -23.4339 -23.0516 -20.4686 -12.2273  -2.9618  -2.4983
    -2.4076  -1.8097  -0.6453   0.7656   3.6214   6.1286   6.7440   7.3993
     7.8405   8.6349  10.0283  11.0863  12.0463  12.7129  14.5521  15.2387
    15.9551  16.6942

          k = 0.3125 0.3297 0.0000 (  5712 PWs)   bands (ev):

   -45.1885 -23.6799 -23.4270 -23.1069 -20.4616 -12.1127  -2.9648  -2.5230
    -2.4547  -1.9387  -0.6180   0.3245   3.7723   6.2614   6.7492   7.4017
     7.9653   9.3680  10.3340  11.5670  12.3010  12.7815  13.9875  14.6661
    15.4425  16.5162

          k = 0.3125 0.4030 0.0000 (  5714 PWs)   bands (ev):

   -45.1816 -23.6852 -23.4108 -23.1821 -20.4539 -12.0029  -2.9487  -2.6318
    -2.4269  -1.9478  -0.6135  -0.2110   4.0136   6.3428   6.8066   7.3621
     7.9514  10.2303  10.7100  12.1044  12.5385  13.0129  13.5732  14.3197
    15.1062  15.9892

          k = 0.3125 0.4762 0.0000 (  5702 PWs)   bands (ev):

   -45.1762 -23.6739 -23.3953 -23.2593 -20.4473 -11.9161  -2.9605  -2.6615
    -2.3969  -1.8714  -0.8400  -0.5150   4.2701   6.4370   6.7637   7.4501
     7.8032  10.6480  11.3801  12.0985  12.9654  13.4607  13.5871  14.2501
    14.8389  15.4337

          k = 0.3125 0.5495 0.0000 (  5687 PWs)   bands (ev):

   -45.1733 -23.6577 -23.3866 -23.3117 -20.4436 -11.8682  -2.9924  -2.6318
    -2.3745  -1.7210  -1.2414  -0.5344   4.4426   6.5688   6.6855   7.3991
     7.7706  10.6252  12.0170  12.2855  13.0363  13.2893  14.0011  14.2623
    14.9859  15.6099

          k = 0.3125-0.1099 0.0000 (  5705 PWs)   bands (ev):

   -45.2083 -23.6330 -23.3825 -23.0273 -20.4754 -12.4052  -2.8582  -2.5655
    -2.3783  -1.2534  -0.6743   0.9086   3.7234   5.8744   6.5417   7.0957
     7.5975   8.0444   9.7554  10.8138  12.0976  12.8997  14.7126  15.7389
    16.3488  16.7417

          k = 0.3125-0.0366 0.0000 (  5695 PWs)   bands (ev):

   -45.2111 -23.6318 -23.3479 -23.0401 -20.4760 -12.4454  -2.7897  -2.6064
    -2.3970  -1.0473  -0.6381   0.7526   3.8427   5.6903   6.5485   7.0544
     7.4891   7.9763   9.7084  10.8477  12.6095  13.0496  13.8403  15.6131
    16.3645  16.8637

          k = 0.3750 0.2198 0.0000 (  5699 PWs)   bands (ev):

   -45.1924 -23.6925 -23.4362 -23.0465 -20.4689 -12.1682  -3.0232  -2.4905
    -2.3857  -2.0469  -0.6213   0.8402   3.5234   6.2285   6.9588   7.4753
     7.9915   8.8001  10.0042  11.0422  12.0362  12.7012  13.9954  15.3721
    15.8742  16.1842

          k = 0.3750 0.2931 0.0000 (  5704 PWs)   bands (ev):

   -45.1873 -23.7188 -23.4277 -23.0715 -20.4665 -12.0891  -3.0471  -2.5131
    -2.4263  -2.1590  -0.5954   0.6396   3.5737   6.3810   6.9242   7.5411
     8.0747   9.3390  10.1751  11.2511  12.1539  12.7557  13.5430  14.9127
    15.3425  16.0752

          k = 0.3750 0.3663 0.0000 (  5697 PWs)   bands (ev):

   -45.1822 -23.7237 -23.4140 -23.1284 -20.4600 -12.0085  -3.0189  -2.6265
    -2.4320  -2.1251  -0.5798   0.1865   3.7782   6.5530   6.8474   7.4909
     7.9946  10.1225  10.5537  11.6961  12.2653  12.7650  13.3451  14.4020
    15.0587  15.8415

          k = 0.3750 0.4396 0.0000 (  5694 PWs)   bands (ev):

   -45.1779 -23.7046 -23.4005 -23.2052 -20.4518 -11.9391  -2.9730  -2.6967
    -2.4125  -2.0245  -0.5990  -0.3503   4.0619   6.6096   6.8004   7.5034
     7.7972  10.5273  11.3359  12.1376  12.3290  12.7861  13.4907  14.3566
    14.9330  15.5360

          k = 0.3750 0.5129 0.0000 (  5693 PWs)   bands (ev):

   -45.1751 -23.6721 -23.3911 -23.2785 -20.4451 -11.8922  -2.9769  -2.6606
    -2.3874  -1.8580  -0.9533  -0.5336   4.3304   6.6105   6.6954   7.4880
     7.7168  10.6044  12.0390  12.2363  12.3264  13.4681  13.8414  14.2825
    14.8557  15.4995

          k = 0.3750 0.5861 0.0000 (  5692 PWs)   bands (ev):

   -45.1740 -23.6539 -23.3878 -23.3113 -20.4425 -11.8756  -2.9898  -2.6269
    -2.3732  -1.6953  -1.2530  -0.5416   4.4492   6.5846   6.6611   7.3939
     7.7788  10.5986  12.0367  12.1597  13.1140  13.2826  14.1165  14.2184
    14.9592  15.5996

          k = 0.3750-0.1465 0.0000 (  5717 PWs)   bands (ev):

   -45.1967 -23.6572 -23.4327 -23.0536 -20.4674 -12.2341  -2.9576  -2.4994
    -2.4043  -1.7860  -0.6485   0.7396   3.6369   6.1330   6.7597   7.3846
     7.8354   8.6188  10.0120  11.0867  12.0525  12.7141  14.5698  15.2826
    15.9111  16.7338

          k = 0.3750-0.0733 0.0000 (  5710 PWs)   bands (ev):

   -45.1996 -23.6303 -23.4159 -23.0785 -20.4645 -12.2774  -2.8790  -2.5197
    -2.4376  -1.5004  -0.6706   0.4878   3.8133   5.9339   6.6594   7.2703
     7.7680   8.5634  10.0650  11.2547  12.3668  12.8115  14.6493  15.0248
    15.6963  16.6919

          k = 0.3750 0.0000 0.0000 (  5700 PWs)   bands (ev):

   -45.2006 -23.6211 -23.4042 -23.0931 -20.4630 -12.2925  -2.8385  -2.5381
    -2.4501  -1.3596  -0.6815   0.3481   3.9027   5.7917   6.7184   7.1576
     7.7689   8.5493  10.0874  11.3159  12.6916  12.9670  14.1075  14.8901
    16.0190  16.4777

          k = 0.4375 0.2564 0.0000 (  5681 PWs)   bands (ev):

   -45.1853 -23.7478 -23.4234 -23.0603 -20.4688 -12.0543  -3.1037  -2.5302
    -2.3977  -2.3003  -0.5773   0.7583   3.4796   6.4427   7.0355   7.6084
     8.2892   9.4263  10.1255  11.1809  12.0821  12.6636  13.3548  14.7910
    15.1556  15.7475

          k = 0.4375 0.3297 0.0000 (  5704 PWs)   bands (ev):

   -45.1827 -23.7566 -23.4158 -23.0826 -20.4665 -12.0119  -3.1024  -2.5998
    -2.4251  -2.2696  -0.5655   0.5696   3.5600   6.5593   6.9974   7.5799
     8.2339   9.9207  10.3302  11.3638  11.9561  12.6005  13.4406  14.3827
    14.9996  15.5668

          k = 0.4375 0.4030 0.0000 (  5693 PWs)   bands (ev):

   -45.1803 -23.7384 -23.4078 -23.1370 -20.4594 -11.9733  -3.0375  -2.6781
    -2.4262  -2.1635  -0.5664   0.1303   3.7888   6.6333   6.9676   7.4861
     7.9868  10.3139  10.9047  11.7753  11.9054  12.6191  13.4806  14.2341
    15.0512  15.3375

          k = 0.4375 0.4762 0.0000 (  5702 PWs)   bands (ev):

   -45.1784 -23.7006 -23.4011 -23.2069 -20.4509 -11.9441  -2.9709  -2.6902
    -2.4116  -2.0107  -0.5995  -0.3671   4.0704   6.6148   6.8026   7.5173
     7.7741  10.5116  11.2409  12.1573  12.3792  12.7924  13.4834  14.3634
    14.9539  15.5611

          k = 0.4375 0.5495 0.0000 (  5701 PWs)   bands (ev):

   -45.1774 -23.6655 -23.3967 -23.2614 -20.4453 -11.9286  -2.9568  -2.6491
    -2.3948  -1.8323  -0.8579  -0.5331   4.2864   6.4485   6.7440   7.4763
     7.7750  10.6144  11.2532  12.1206  12.9512  13.4971  13.6885  14.2097
    14.8612  15.4731

          k = 0.4375-0.1832 0.0000 (  5711 PWs)   bands (ev):

   -45.1878 -23.7152 -23.4280 -23.0732 -20.4656 -12.0940  -3.0431  -2.5127
    -2.4247  -2.1438  -0.5979   0.6209   3.5855   6.3789   6.9567   7.5211
     8.0739   9.3070  10.1538  11.2554  12.1572  12.7477  13.5570  14.9429
    15.3363  16.0771

          k = 0.4375-0.1099 0.0000 (  5707 PWs)   bands (ev):

   -45.1897 -23.6720 -23.4268 -23.1103 -20.4595 -12.1245  -2.9577  -2.5199
    -2.4505  -1.9010  -0.6235   0.2859   3.7953   6.2685   6.7602   7.4136
     7.9357   9.3263  10.2917  11.5662  12.3131  12.7748  14.0200  14.6862
    15.4892  16.5509

          k = 0.4375-0.0366 0.0000 (  5722 PWs)   bands (ev):

   -45.1907 -23.6406 -23.4210 -23.1452 -20.4550 -12.1411  -2.8950  -2.5379
    -2.4580  -1.6826  -0.6518  -0.0049   3.9737   6.0233   6.8122   7.2355
     7.9391   9.3365  10.4016  11.7807  12.5824  12.9647  14.1738  14.7769
    15.1103  16.1565

          k =-0.5000-0.2931 0.0000 (  5692 PWs)   bands (ev):

   -45.1829 -23.7691 -23.4164 -23.0652 -20.4693 -12.0130  -3.1386  -2.5817
    -2.4024  -2.3455  -0.5609   0.7302   3.4680   6.5534   7.0108   7.6435
     8.4193   9.7746  10.2009  11.3008  11.8044  12.5496  13.5228  14.2972
    14.9682  15.5729

          k =-0.5000-0.2198 0.0000 (  5697 PWs)   bands (ev):

   -45.1829 -23.7552 -23.4161 -23.0833 -20.4662 -12.0137  -3.1005  -2.5987
    -2.4246  -2.2654  -0.5664   0.5628   3.5644   6.5531   7.0203   7.5681
     8.2368   9.8961  10.3190  11.3633  11.9743  12.5961  13.4294  14.4014
    15.0231  15.5477

          k =-0.5000-0.1465 0.0000 (  5713 PWs)   bands (ev):

   -45.1829 -23.7184 -23.4146 -23.1307 -20.4588 -12.0152  -3.0139  -2.6207
    -2.4306  -2.1076  -0.5826   0.1636   3.7919   6.5456   6.8821   7.4875
     7.9763  10.0857  10.4952  11.6993  12.2981  12.7564  13.3478  14.4299
    15.0923  15.8429

          k =-0.5000-0.0733 0.0000 (  5710 PWs)   bands (ev):

   -45.1829 -23.6754 -23.4118 -23.1857 -20.4515 -12.0168  -2.9427  -2.6194
    -2.4247  -1.9063  -0.6180  -0.2515   4.0361   6.3541   6.7935   7.4022
     7.9068  10.1886  10.6184  12.0985  12.5298  13.0451  13.6251  14.3280
    15.1752  15.9964

          k =-0.5000-0.0000 0.0000 (  5716 PWs)   bands (ev):

   -45.1829 -23.6549 -23.4096 -23.2120 -20.4485 -12.0174  -2.9200  -2.6123
    -2.4201  -1.7854  -0.6723  -0.4168   4.1517   6.1954   6.8301   7.3234
     7.9237  10.2126  10.6785  12.1491  12.6169  13.3675  13.9405  14.4377
    14.9137  15.5029

     highest occupied, lowest unoccupied level (ev):     4.4492    5.5961

!    total energy              =    -571.23403476 Ry
     total all-electron energy =    -12610.611446 Ry
     estimated scf accuracy    <          5.6E-11 Ry

     The total energy is the sum of the following terms:
     one-electron contribution =    -279.39428064 Ry
     hartree contribution      =     148.33904503 Ry
     xc contribution           =     -36.37000724 Ry
     ewald contribution        =      -6.95215585 Ry
     one-center paw contrib.   =    -396.85663607 Ry

     convergence has been achieved in   5 iterations

     negative rho (up, down):  2.820E-05 0.000E+00

     Forces acting on atoms (cartesian axes, Ry/au):

     atom    1 type  1   force =     0.00000000    0.00005854    0.00004576
     atom    2 type  2   force =     0.00000000   -0.00004778   -0.00006815
     atom    3 type  3   force =     0.00000000   -0.00001076    0.00002239
     The non-local contrib.  to forces
     atom    1 type  1   force =     0.00000000   -0.00280544   -0.02407224
     atom    2 type  2   force =     0.00000000   -0.02138358   -1.02198764
     atom    3 type  3   force =     0.00000000   -0.00118872    0.21134955
     The ionic contribution  to forces
     atom    1 type  1   force =    -0.00000001   -0.15823406   -0.67664533
     atom    2 type  2   force =     0.00000001    0.11743364   25.03233278
     atom    3 type  3   force =     0.00000000    0.04080042  -24.35568745
     The local contribution  to forces
     atom    1 type  1   force =    -0.00000000    0.16098095    0.69675200
     atom    2 type  2   force =     0.00000027   -0.09616587  -24.01371996
     atom    3 type  3   force =    -0.00000000   -0.03951659   24.14681971
     The core correction contribution to forces
     atom    1 type  1   force =     0.00000000    0.00011715    0.00402816
     atom    2 type  2   force =     0.00000000    0.00006857    0.00331154
     atom    3 type  3   force =    -0.00000000   -0.00010558   -0.00246183
     The Hubbard contrib.    to forces
     atom    1 type  1   force =     0.00000000    0.00000000    0.00000000
     atom    2 type  2   force =     0.00000000    0.00000000    0.00000000
     atom    3 type  3   force =     0.00000000    0.00000000    0.00000000
     The SCF correction term to forces
     atom    1 type  1   force =    -0.00000000   -0.00000004   -0.00001704
     atom    2 type  2   force =    -0.00000000   -0.00000053   -0.00000507
     atom    3 type  3   force =    -0.00000000   -0.00000027    0.00000219

     Total force =     0.000114     Total SCF correction =     0.000018
     SCF correction compared to forces is large: reduce conv_thr to get better values
     Energy error            =      8.6E-08 Ry
     Gradient error          =      6.8E-05 Ry/Bohr

     bfgs converged in  12 scf cycles and  11 bfgs steps
     (criteria: energy <  1.0E-05 Ry, force <  1.0E-04 Ry/Bohr)

     End of BFGS Geometry Optimization

     Final energy             =    -571.2340347646 Ry

     File ./tmp/ZrFBr.bfgs deleted, as requested
Begin final coordinates

ATOMIC_POSITIONS (angstrom)
Zr           -0.0000000000        0.0172893204       10.1024709987
F            -0.0000000020        1.9202252407       11.4195327473
Br           -0.0000000020        1.9242932022        8.1961749670
End final coordinates



     Writing all to output data dir ./tmp/ZrFBr.save/

     init_run     :      0.60s CPU      0.64s WALL (       1 calls)
     electrons    :    117.47s CPU    120.47s WALL (      12 calls)
     update_pot   :      1.26s CPU      1.36s WALL (      11 calls)
     forces       :      2.17s CPU      2.18s WALL (      12 calls)

     Called by init_run:
     wfcinit      :      0.42s CPU      0.44s WALL (       1 calls)
     potinit      :      0.09s CPU      0.10s WALL (       1 calls)
     hinit0       :      0.07s CPU      0.07s WALL (       1 calls)

     Called by electrons:
     c_bands      :    100.14s CPU    102.04s WALL (      84 calls)
     sum_band     :     13.75s CPU     14.12s WALL (      84 calls)
     v_of_rho     :      0.28s CPU      0.28s WALL (      84 calls)
     newd         :      0.46s CPU      0.52s WALL (      84 calls)
     PAW_pot      :      3.81s CPU      4.65s WALL (      95 calls)
     mix_rho      :      0.02s CPU      0.02s WALL (      84 calls)

     Called by c_bands:
     init_us_2    :      0.70s CPU      0.71s WALL (   14016 calls)
     init_us_2:cp :      0.68s CPU      0.70s WALL (   14016 calls)
     cegterg      :     98.45s CPU    100.32s WALL (    6132 calls)

     Called by *egterg:
     cdiaghg      :     15.01s CPU     15.14s WALL (   18501 calls)
     h_psi        :     57.78s CPU     59.31s WALL (   20253 calls)
     s_psi        :      2.81s CPU      2.86s WALL (   20253 calls)
     g_psi        :      0.13s CPU      0.14s WALL (   14048 calls)

     Called by h_psi:
     h_psi:calbec :      5.11s CPU      5.24s WALL (   20253 calls)
     vloc_psi     :     49.72s CPU     51.07s WALL (   20253 calls)
     add_vuspsi   :      2.81s CPU      2.86s WALL (   20253 calls)

     General routines
     calbec       :      8.81s CPU      9.01s WALL (   30692 calls)
     fft          :      0.17s CPU      0.17s WALL (    1079 calls)
     ffts         :      0.01s CPU      0.01s WALL (      84 calls)
     fftw         :     56.21s CPU     57.72s WALL (  894340 calls)

     Parallel routines

     PWSCF        :   2m 3.06s CPU   2m 6.51s WALL


   This run was terminated on:   9: 6:38  18Sep2026            

=------------------------------------------------------------------------------=
   JOB DONE.
=------------------------------------------------------------------------------=
Note: The following floating-point exceptions are signalling: IEEE_INVALID_FLAG
