
     Program PWSCF v.7.2 starts on 18Sep2026 at  9: 9: 8 

     This program is part of the open-source Quantum ESPRESSO suite
     for quantum simulation of materials; please cite
         "P. Giannozzi et al., J. Phys.:Condens. Matter 21 395502 (2009);
         "P. Giannozzi et al., J. Phys.:Condens. Matter 29 465901 (2017);
         "P. Giannozzi et al., J. Chem. Phys. 152 154105 (2020);
          URL http://www.quantum-espresso.org", 
     in publications or presentations arising from this work. More details at
     http://www.quantum-espresso.org/quote

     Parallel version (MPI), running on    32 processors

     MPI processes distributed on     1 nodes
     228825 MiB available memory on the printing compute node when the environment starts

     Waiting for input...
     Reading input from standard input

     Current dimensions of program PWSCF are:
     Max number of different atomic species (ntypx) = 10
     Max number of k-points (npk) =  40000
     Max angular momentum in pseudopotentials (lmaxx) =  4
     file Zr.pbe-spn-kjpaw_psl.1.0.0.UPF: wavefunction(s)  4S 4P renormalized
     file F.pbe-n-kjpaw_psl.1.0.0.UPF: wavefunction(s)  2S 2P renormalized
     file Cl.pbe-n-kjpaw_psl.1.0.0.UPF: wavefunction(s)  3S 3P renormalized
     Message from routine setup:
     using ibrav=0 with symmetry is DISCOURAGED, use correct ibrav instead

     R & G space division:  proc/nbgrp/npool/nimage =      32
     Subspace diagonalization in iterative solution of the eigenvalue problem:
     a serial algorithm will be used


     Parallelization info
     --------------------
     sticks:   dense  smooth     PW     G-vecs:    dense   smooth      PW
     Min          21      21      6                 1381     1381     218
     Max          22      22      7                 1394     1394     233
     Sum         681     681    199                44325    44325    7147

     Using Slab Decomposition



     bravais-lattice index     =            0
     lattice parameter (alat)  =       6.2200  a.u.
     unit-cell volume          =     626.8781 (a.u.)^3
     number of atoms/cell      =            3
     number of atomic types    =            3
     number of electrons       =        26.00
     number of Kohn-Sham states=           26
     kinetic-energy cutoff     =      65.0000  Ry
     charge density cutoff     =     260.0000  Ry
     scf convergence threshold =      1.0E-08
     mixing beta               =       0.7000
     number of iterations used =            8  plain     mixing
     energy convergence thresh.=      1.0E-05
     force convergence thresh. =      1.0E-04
     Exchange-correlation= SLA  PW   PBX  PBC
                           (   1   4   3   4   0   0   0)
     nstep                     =           50


     celldm(1)=   6.219958  celldm(2)=   0.000000  celldm(3)=   0.000000
     celldm(4)=   0.000000  celldm(5)=   0.000000  celldm(6)=   0.000000

     crystal axes: (cart. coord. in units of alat)
               a(1) = (   1.000000   0.000000   0.000000 )  
               a(2) = (  -0.500000   0.857451   0.000000 )  
               a(3) = (   0.000000   0.000000   3.038165 )  

     reciprocal axes: (cart. coord. in units 2 pi/alat)
               b(1) = (  1.000000  0.583124 -0.000000 )  
               b(2) = (  0.000000  1.166248  0.000000 )  
               b(3) = (  0.000000 -0.000000  0.329146 )  


     PseudoPot. # 1 for Zr read from file:
     /mgpfs/home/rabdillah/repo/qe/pseudo/Zr.pbe-spn-kjpaw_psl.1.0.0.UPF
     MD5 check sum: 02112c41713a0468aff2bb39ef194e36
     Pseudo is Projector augmented-wave + core cor, Zval = 12.0
     Generated using &quot;atomic&quot; code by A. Dal Corso  v.6.2.2
     Shape of augmentation charge: PSQ
     Using radial grid of 1225 points,  6 beta functions with: 
                l(1) =   0
                l(2) =   0
                l(3) =   1
                l(4) =   1
                l(5) =   2
                l(6) =   2
     Q(r) pseudized with 0 coefficients 


     PseudoPot. # 2 for F  read from file:
     /mgpfs/home/rabdillah/repo/qe/pseudo/F.pbe-n-kjpaw_psl.1.0.0.UPF
     MD5 check sum: 66d718ea72839a4268ab2a9540e8cdd4
     Pseudo is Projector augmented-wave + core cor, Zval =  7.0
     Generated using &quot;atomic&quot; code by A. Dal Corso  v.6.3
     Shape of augmentation charge: PSQ
     Using radial grid of 1105 points,  4 beta functions with: 
                l(1) =   0
                l(2) =   0
                l(3) =   1
                l(4) =   1
     Q(r) pseudized with 0 coefficients 


     PseudoPot. # 3 for Cl read from file:
     /mgpfs/home/rabdillah/repo/qe/pseudo/Cl.pbe-n-kjpaw_psl.1.0.0.UPF
     MD5 check sum: 530da96d25dcb7781b0586ca00827062
     Pseudo is Projector augmented-wave + core cor, Zval =  7.0
     Generated using &quot;atomic&quot; code by A. Dal Corso  v.6.3
     Shape of augmentation charge: PSQ
     Using radial grid of 1157 points,  6 beta functions with: 
                l(1) =   0
                l(2) =   0
                l(3) =   1
                l(4) =   1
                l(5) =   2
                l(6) =   2
     Q(r) pseudized with 0 coefficients 


     atomic species   valence    mass     pseudopotential
        Zr            12.00    91.22400     Zr( 1.00)
        F              7.00    18.99800     F ( 1.00)
        Cl             7.00    35.45300     Cl( 1.00)

      2 Sym. Ops. (no inversion) found



   Cartesian axes

     site n.     atom                  positions (alat units)
         1           Zr  tau(   1) = (   0.0000000   0.0000000   2.9076346  )
         2           F   tau(   2) = (  -0.0000000   0.5716339   3.3126122  )
         3           Cl  tau(   3) = (  -0.0000000   0.5716339   2.3735604  )

     number of k points=    73
                       cart. coord. in units 2pi/alat
        k(    1) = (   0.0000000   0.0000000   0.0000000), wk =   0.0078125
        k(    2) = (   0.0000000   0.0728905   0.0000000), wk =   0.0156250
        k(    3) = (   0.0000000   0.1457809   0.0000000), wk =   0.0156250
        k(    4) = (   0.0000000   0.2186714   0.0000000), wk =   0.0156250
        k(    5) = (   0.0000000   0.2915619   0.0000000), wk =   0.0156250
        k(    6) = (   0.0000000   0.3644524   0.0000000), wk =   0.0156250
        k(    7) = (   0.0000000   0.4373428   0.0000000), wk =   0.0156250
        k(    8) = (   0.0000000   0.5102333   0.0000000), wk =   0.0156250
        k(    9) = (   0.0000000  -0.5831238   0.0000000), wk =   0.0078125
        k(   10) = (   0.0625000   0.0364452   0.0000000), wk =   0.0312500
        k(   11) = (   0.0625000   0.1093357   0.0000000), wk =   0.0312500
        k(   12) = (   0.0625000   0.1822262   0.0000000), wk =   0.0312500
        k(   13) = (   0.0625000   0.2551167   0.0000000), wk =   0.0312500
        k(   14) = (   0.0625000   0.3280071   0.0000000), wk =   0.0312500
        k(   15) = (   0.0625000   0.4008976   0.0000000), wk =   0.0312500
        k(   16) = (   0.0625000   0.4737881   0.0000000), wk =   0.0312500
        k(   17) = (   0.0625000   0.5466785   0.0000000), wk =   0.0312500
        k(   18) = (   0.1250000   0.0728905   0.0000000), wk =   0.0312500
        k(   19) = (   0.1250000   0.1457809   0.0000000), wk =   0.0312500
        k(   20) = (   0.1250000   0.2186714   0.0000000), wk =   0.0312500
        k(   21) = (   0.1250000   0.2915619   0.0000000), wk =   0.0312500
        k(   22) = (   0.1250000   0.3644524   0.0000000), wk =   0.0312500
        k(   23) = (   0.1250000   0.4373428   0.0000000), wk =   0.0312500
        k(   24) = (   0.1250000   0.5102333   0.0000000), wk =   0.0312500
        k(   25) = (   0.1250000   0.5831238   0.0000000), wk =   0.0156250
        k(   26) = (   0.1250000   0.0000000   0.0000000), wk =   0.0156250
        k(   27) = (   0.1875000   0.1093357   0.0000000), wk =   0.0312500
        k(   28) = (   0.1875000   0.1822262   0.0000000), wk =   0.0312500
        k(   29) = (   0.1875000   0.2551167   0.0000000), wk =   0.0312500
        k(   30) = (   0.1875000   0.3280071   0.0000000), wk =   0.0312500
        k(   31) = (   0.1875000   0.4008976   0.0000000), wk =   0.0312500
        k(   32) = (   0.1875000   0.4737881   0.0000000), wk =   0.0312500
        k(   33) = (   0.1875000   0.5466785   0.0000000), wk =   0.0312500
        k(   34) = (   0.1875000  -0.0364452   0.0000000), wk =   0.0312500
        k(   35) = (   0.2500000   0.1457809   0.0000000), wk =   0.0312500
        k(   36) = (   0.2500000   0.2186714   0.0000000), wk =   0.0312500
        k(   37) = (   0.2500000   0.2915619   0.0000000), wk =   0.0312500
        k(   38) = (   0.2500000   0.3644524   0.0000000), wk =   0.0312500
        k(   39) = (   0.2500000   0.4373428   0.0000000), wk =   0.0312500
        k(   40) = (   0.2500000   0.5102333   0.0000000), wk =   0.0312500
        k(   41) = (   0.2500000   0.5831238   0.0000000), wk =   0.0156250
        k(   42) = (   0.2500000  -0.0728905   0.0000000), wk =   0.0312500
        k(   43) = (   0.2500000   0.0000000   0.0000000), wk =   0.0156250
        k(   44) = (   0.3125000   0.1822262   0.0000000), wk =   0.0312500
        k(   45) = (   0.3125000   0.2551167   0.0000000), wk =   0.0312500
        k(   46) = (   0.3125000   0.3280071   0.0000000), wk =   0.0312500
        k(   47) = (   0.3125000   0.4008976   0.0000000), wk =   0.0312500
        k(   48) = (   0.3125000   0.4737881   0.0000000), wk =   0.0312500
        k(   49) = (   0.3125000   0.5466785   0.0000000), wk =   0.0312500
        k(   50) = (   0.3125000  -0.1093357   0.0000000), wk =   0.0312500
        k(   51) = (   0.3125000  -0.0364452   0.0000000), wk =   0.0312500
        k(   52) = (   0.3750000   0.2186714   0.0000000), wk =   0.0312500
        k(   53) = (   0.3750000   0.2915619   0.0000000), wk =   0.0312500
        k(   54) = (   0.3750000   0.3644524   0.0000000), wk =   0.0312500
        k(   55) = (   0.3750000   0.4373428   0.0000000), wk =   0.0312500
        k(   56) = (   0.3750000   0.5102333   0.0000000), wk =   0.0312500
        k(   57) = (   0.3750000   0.5831238   0.0000000), wk =   0.0156250
        k(   58) = (   0.3750000  -0.1457809   0.0000000), wk =   0.0312500
        k(   59) = (   0.3750000  -0.0728905   0.0000000), wk =   0.0312500
        k(   60) = (   0.3750000   0.0000000   0.0000000), wk =   0.0156250
        k(   61) = (   0.4375000   0.2551167   0.0000000), wk =   0.0312500
        k(   62) = (   0.4375000   0.3280071   0.0000000), wk =   0.0312500
        k(   63) = (   0.4375000   0.4008976   0.0000000), wk =   0.0312500
        k(   64) = (   0.4375000   0.4737881   0.0000000), wk =   0.0312500
        k(   65) = (   0.4375000   0.5466785   0.0000000), wk =   0.0312500
        k(   66) = (   0.4375000  -0.1822262   0.0000000), wk =   0.0312500
        k(   67) = (   0.4375000  -0.1093357   0.0000000), wk =   0.0312500
        k(   68) = (   0.4375000  -0.0364452   0.0000000), wk =   0.0312500
        k(   69) = (  -0.5000000  -0.2915619   0.0000000), wk =   0.0156250
        k(   70) = (  -0.5000000  -0.2186714   0.0000000), wk =   0.0312500
        k(   71) = (  -0.5000000  -0.1457809   0.0000000), wk =   0.0312500
        k(   72) = (  -0.5000000  -0.0728905   0.0000000), wk =   0.0312500
        k(   73) = (  -0.5000000   0.0000000   0.0000000), wk =   0.0156250

     Dense  grid:    44325 G-vectors     FFT dimensions: (  32,  32, 100)

     Estimated max dynamical RAM per process >      13.99 MB

     Estimated total dynamical RAM >     447.58 MB

     Check: negative core charge=   -0.000005

     Initial potential from superposition of free atoms

     starting charge      25.9978, renormalised to      26.0000

     negative rho (up, down):  5.466E-06 0.000E+00
     Starting wfcs are   21 randomized atomic wfcs +    5 random wfcs
     Checking if some PAW data can be deallocated... 

     total cpu time spent up to now is        1.0 secs

     Self-consistent Calculation

     iteration #  1     ecut=    65.00 Ry     beta= 0.70
     Davidson diagonalization with overlap
     ethr =  1.00E-02,  avg # of iterations =  6.3

     Threshold (ethr) on eigenvalues was too large:
     Diagonalizing with lowered threshold

     Davidson diagonalization with overlap
     ethr =  7.94E-04,  avg # of iterations =  1.1

     negative rho (up, down):  6.128E-05 0.000E+00

     total cpu time spent up to now is        4.2 secs

     total energy              =    -446.15648801 Ry
     estimated scf accuracy    <       0.20844530 Ry

     iteration #  2     ecut=    65.00 Ry     beta= 0.70
     Davidson diagonalization with overlap
     ethr =  8.02E-04,  avg # of iterations =  3.6

     negative rho (up, down):  3.982E-05 0.000E+00

     total cpu time spent up to now is        5.9 secs

     total energy              =    -446.16092948 Ry
     estimated scf accuracy    <       0.34797619 Ry

     iteration #  3     ecut=    65.00 Ry     beta= 0.70
     Davidson diagonalization with overlap
     ethr =  8.02E-04,  avg # of iterations =  2.3

     negative rho (up, down):  4.957E-05 0.000E+00

     total cpu time spent up to now is        7.3 secs

     total energy              =    -446.24006219 Ry
     estimated scf accuracy    <       0.02342994 Ry

     iteration #  4     ecut=    65.00 Ry     beta= 0.70
     Davidson diagonalization with overlap
     ethr =  9.01E-05,  avg # of iterations =  2.4

     negative rho (up, down):  7.045E-05 0.000E+00

     total cpu time spent up to now is        8.6 secs

     total energy              =    -446.24436869 Ry
     estimated scf accuracy    <       0.00157661 Ry

     iteration #  5     ecut=    65.00 Ry     beta= 0.70
     Davidson diagonalization with overlap
     ethr =  6.06E-06,  avg # of iterations =  5.4

     negative rho (up, down):  8.089E-05 0.000E+00

     total cpu time spent up to now is       10.4 secs

     total energy              =    -446.24462327 Ry
     estimated scf accuracy    <       0.00108574 Ry

     iteration #  6     ecut=    65.00 Ry     beta= 0.70
     Davidson diagonalization with overlap
     ethr =  4.18E-06,  avg # of iterations =  2.3

     negative rho (up, down):  8.404E-05 0.000E+00

     total cpu time spent up to now is       11.7 secs

     total energy              =    -446.24485203 Ry
     estimated scf accuracy    <       0.00002079 Ry

     iteration #  7     ecut=    65.00 Ry     beta= 0.70
     Davidson diagonalization with overlap
     ethr =  8.00E-08,  avg # of iterations =  2.7

     negative rho (up, down):  8.467E-05 0.000E+00

     total cpu time spent up to now is       13.0 secs

     total energy              =    -446.24485742 Ry
     estimated scf accuracy    <       0.00000047 Ry

     iteration #  8     ecut=    65.00 Ry     beta= 0.70
     Davidson diagonalization with overlap
     ethr =  1.81E-09,  avg # of iterations =  2.1

     negative rho (up, down):  8.486E-05 0.000E+00

     total cpu time spent up to now is       14.4 secs

     total energy              =    -446.24485755 Ry
     estimated scf accuracy    <       0.00000003 Ry

     iteration #  9     ecut=    65.00 Ry     beta= 0.70
     Davidson diagonalization with overlap
     ethr =  1.08E-10,  avg # of iterations =  2.2

     negative rho (up, down):  8.488E-05 0.000E+00

     total cpu time spent up to now is       15.8 secs

     End of self-consistent calculation

          k = 0.0000 0.0000 0.0000 (  5487 PWs)   bands (ev):

   -45.7689 -24.3060 -23.4413 -23.4258 -21.1193 -13.6456  -3.7255  -2.8989
    -2.8784  -1.7708  -0.1484  -0.0945   3.3907   5.2935   5.4177   5.6474
     6.4946   6.5532   7.6627   8.4979  10.9100  13.5617  14.3353  14.4887
    15.3187  16.9670

          k = 0.0000 0.0729 0.0000 (  5487 PWs)   bands (ev):

   -45.7658 -24.2952 -23.4646 -23.4475 -21.1093 -13.6225  -3.6880  -2.9214
    -2.8993  -1.7584  -0.2503  -0.1782   3.3998   5.3518   5.3710   5.7395
     6.5100   6.5426   7.7850   8.6961  11.0345  13.6365  14.1913  14.4373
    15.1451  16.9326

          k = 0.0000 0.1458 0.0000 (  5503 PWs)   bands (ev):

   -45.7572 -24.2648 -23.5705 -23.4650 -21.0846 -13.5558  -3.5880  -3.0300
    -2.9020  -1.7396  -0.6495  -0.2601   3.4013   5.2996   5.5303   5.8659
     6.5913   6.6715   8.1219   9.1470  11.3973  13.5109  13.8250  14.7412
    14.8541  16.8286

          k = 0.0000 0.2187 0.0000 (  5526 PWs)   bands (ev):

   -45.7442 -24.2216 -23.7169 -23.4911 -21.0574 -13.4531  -3.4675  -3.1555
    -2.9105  -1.7679  -1.1335  -0.3749   3.3468   5.3298   5.8332   5.9016
     6.8464   6.9622   8.6047   9.6604  11.8616  13.0470  13.5893  15.0437
    15.2361  16.6553

          k = 0.0000 0.2916 0.0000 (  5542 PWs)   bands (ev):

   -45.7288 -24.1827 -23.8647 -23.5216 -21.0375 -13.3269  -3.4379  -3.1974
    -2.9271  -1.9980  -1.4430  -0.4996   3.2353   5.5034   5.9969   6.2481
     7.0345   7.4717   9.1333  10.1483  11.8982  12.9781  13.5810  15.5512
    15.8530  16.4482

          k = 0.0000 0.3645 0.0000 (  5526 PWs)   bands (ev):

   -45.7134 -24.1926 -23.9519 -23.5520 -21.0289 -13.1947  -3.5343  -3.1407
    -2.9503  -2.4106  -1.5091  -0.6141   3.1194   5.7408   6.2215   6.7157
     7.2362   8.0492   9.5846  10.5554  11.7653  12.7844  14.2856  15.2312
    15.8794  16.2031

          k = 0.0000 0.4373 0.0000 (  5532 PWs)   bands (ev):

   -45.7003 -24.2680 -23.9506 -23.5775 -21.0292 -13.0774  -3.6406  -3.1206
    -2.9745  -2.7481  -1.5141  -0.7042   3.0408   5.9642   6.4981   7.0607
     7.5417   8.6832   9.8834  10.8800  11.8557  12.7056  13.9503  14.8308
    15.4344  15.6923

          k = 0.0000 0.5102 0.0000 (  5556 PWs)   bands (ev):

   -45.6915 -24.3370 -23.9274 -23.5945 -21.0330 -12.9961  -3.7213  -3.1743
    -2.9930  -2.9044  -1.5091  -0.7611   3.0039   6.1457   6.6702   7.1958
     7.9094   9.3301  10.0989  11.1559  11.9336  12.6073  13.1808  14.5528
    14.9846  15.0086

          k = 0.0000-0.5831 0.0000 (  5554 PWs)   bands (ev):

   -45.6884 -24.3627 -23.9171 -23.6004 -21.0350 -12.9669  -3.7529  -3.2152
    -2.9999  -2.9352  -1.5064  -0.7805   2.9945   6.2246   6.7103   7.2303
     8.0704   9.6966  10.1753  11.4210  11.6807  12.3645  13.2416  14.2010
    14.7905  14.8292

          k = 0.0625 0.0364 0.0000 (  5496 PWs)   bands (ev):

   -45.7660 -24.2955 -23.4763 -23.4345 -21.1094 -13.6232  -3.6886  -2.9369
    -2.8825  -1.7593  -0.2909  -0.1332   3.3973   5.2729   5.4575   5.7352
     6.4703   6.5905   7.7805   8.6898  11.0313  13.6347  14.0952  14.5564
    15.1317  16.9902

          k = 0.0625 0.1093 0.0000 (  5497 PWs)   bands (ev):

   -45.7601 -24.2749 -23.5403 -23.4547 -21.0921 -13.5783  -3.6194  -3.0014
    -2.8955  -1.7436  -0.5381  -0.2189   3.4026   5.2717   5.5186   5.8459
     6.5048   6.6645   8.0105   9.0105  11.2779  13.6345  13.8343  14.6213
    14.9540  16.8624

          k = 0.0625 0.1822 0.0000 (  5525 PWs)   bands (ev):

   -45.7493 -24.2378 -23.6614 -23.4816 -21.0664 -13.4935  -3.5048  -3.1147
    -2.9086  -1.7442  -0.9599  -0.3404   3.3795   5.2495   5.7597   5.9151
     6.6915   6.8772   8.4216   9.4810  11.7344  13.1582  13.6850  14.7309
    15.2293  16.6568

          k = 0.0625 0.2551 0.0000 (  5564 PWs)   bands (ev):

   -45.7351 -24.1951 -23.8051 -23.5145 -21.0434 -13.3788  -3.4118  -3.2081
    -2.9287  -1.8543  -1.3557  -0.4807   3.3045   5.3423   5.9333   6.1770
     6.9085   7.2872   8.9321   9.9770  12.0718  12.9319  13.3850  15.1614
    15.7571  16.4293

          k = 0.0625 0.3280 0.0000 (  5542 PWs)   bands (ev):

   -45.7197 -24.1752 -23.9231 -23.5494 -21.0296 -13.2490  -3.4655  -3.1716
    -2.9582  -2.2022  -1.4995  -0.6194   3.2037   5.5756   6.0545   6.6238
     7.1141   7.8330   9.4332  10.4372  11.9014  12.8743  13.7794  15.4258
    15.9187  16.2389

          k = 0.0625 0.4009 0.0000 (  5554 PWs)   bands (ev):

   -45.7054 -24.2238 -23.9558 -23.5814 -21.0260 -13.1234  -3.5716  -3.1211
    -2.9967  -2.5722  -1.5205  -0.7389   3.1225   5.8690   6.2587   6.9724
     7.3814   8.4802   9.8177  10.8129  11.8530  12.7275  14.4028  14.6391
    15.4116  16.1773

          k = 0.0625 0.4738 0.0000 (  5554 PWs)   bands (ev):

   -45.6945 -24.3005 -23.9358 -23.6057 -21.0284 -13.0232  -3.6616  -3.1619
    -3.0218  -2.7890  -1.5185  -0.8257   3.0797   6.1106   6.5030   7.1333
     7.6848   9.2081  10.0797  11.1053  11.9633  12.7184  13.4598  14.6047
    14.9142  15.6429

          k = 0.0625 0.5467 0.0000 (  5554 PWs)   bands (ev):

   -45.6885 -24.3478 -23.9173 -23.6188 -21.0315 -12.9674  -3.7156  -3.2415
    -3.0256  -2.8576  -1.5145  -0.8712   3.0657   6.2469   6.6608   7.1891
     7.8817   9.8342  10.2592  11.3594  11.8565  12.4531  13.1803  14.2171
    14.7457  15.0493

          k = 0.1250 0.0729 0.0000 (  5514 PWs)   bands (ev):

   -45.7577 -24.2660 -23.5793 -23.4517 -21.0850 -13.5584  -3.5900  -3.0420
    -2.8858  -1.7427  -0.6816  -0.2126   3.3909   5.2359   5.6187   5.8528
     6.5699   6.7139   8.1078   9.1328  11.3850  13.4794  13.7900  14.8287
    14.8539  16.8968

          k = 0.1250 0.1458 0.0000 (  5541 PWs)   bands (ev):

   -45.7497 -24.2388 -23.6655 -23.4742 -21.0666 -13.4954  -3.5061  -3.1202
    -2.9003  -1.7467  -0.9761  -0.3120   3.3703   5.2365   5.7908   5.9066
     6.6928   6.8867   8.4128   9.4738  11.7255  13.1429  13.6724  14.7347
    15.2601  16.6858

          k = 0.1250 0.2187 0.0000 (  5547 PWs)   bands (ev):

   -45.7377 -24.2013 -23.7812 -23.5111 -21.0456 -13.3984  -3.4015  -3.2122
    -2.9303  -1.8115  -1.3090  -0.4770   3.3339   5.2407   5.9529   6.1855
     6.8300   7.2409   8.8554   9.9162  12.2444  12.7442  13.3625  14.9646
    15.7837  16.3998

          k = 0.1250 0.2916 0.0000 (  5544 PWs)   bands (ev):

   -45.7234 -24.1714 -23.8929 -23.5561 -21.0295 -13.2794  -3.3946  -3.2113
    -2.9754  -2.0534  -1.4931  -0.6664   3.2890   5.3550   6.0603   6.6003
     7.0230   7.7447   9.3519  10.3901  12.2867  12.8839  13.1748  15.2063
    15.8160  16.7481

          k = 0.1250 0.3645 0.0000 (  5539 PWs)   bands (ev):

   -45.7091 -24.1882 -23.9489 -23.6015 -21.0216 -13.1551  -3.4863  -3.1343
    -3.0365  -2.3854  -1.5364  -0.8468   3.2543   5.6137   6.1871   6.8632
     7.3270   8.4067   9.8081  10.8437  12.0766  12.7628  13.8445  14.7424
    15.5821  16.1713

          k = 0.1250 0.4373 0.0000 (  5547 PWs)   bands (ev):

   -45.6970 -24.2524 -23.9400 -23.6402 -21.0207 -13.0450  -3.5708  -3.1655
    -3.0548  -2.6251  -1.5423  -0.9950   3.2431   5.9799   6.2989   7.0161
     7.5666   9.2164  10.1590  11.2112  12.0559  12.7159  13.9232  14.3589
    14.8405  16.0559

          k = 0.1250 0.5102 0.0000 (  5560 PWs)   bands (ev):

   -45.6889 -24.3087 -23.9176 -23.6663 -21.0229 -12.9688  -3.6274  -3.2790
    -3.0368  -2.7288  -1.5408  -1.0924   3.2491   6.3041   6.4166   7.1180
     7.6334  10.0381  10.4232  11.4377  12.0653  12.7018  13.1552  14.2118
    14.6879  15.5736

          k = 0.1250 0.5831 0.0000 (  5572 PWs)   bands (ev):

   -45.6860 -24.3295 -23.9080 -23.6755 -21.0242 -12.9415  -3.6476  -3.3295
    -3.0324  -2.7534  -1.5398  -1.1263   3.2542   6.3525   6.5739   7.1417
     7.6266  10.3306  10.7227  11.6513  11.7684  12.4388  13.1948  14.0443
    14.8155  15.0427

          k = 0.1250 0.0000 0.0000 (  5508 PWs)   bands (ev):

   -45.7605 -24.2757 -23.5467 -23.4451 -21.0923 -13.5802  -3.6209  -3.0111
    -2.8827  -1.7458  -0.5586  -0.1883   3.3972   5.2135   5.5946   5.8346
     6.5072   6.6809   7.9990   8.9987  11.2692  13.6119  13.7982  14.6913
    14.9658  16.9106

          k = 0.1875 0.1093 0.0000 (  5541 PWs)   bands (ev):

   -45.7452 -24.2242 -23.7226 -23.4762 -21.0577 -13.4586  -3.4707  -3.1647
    -2.8935  -1.7750  -1.1560  -0.3211   3.3263   5.2972   5.8771   5.9167
     6.8796   6.9502   8.5812   9.6440  11.8421  13.0178  13.5634  15.0184
    15.3296  16.7254

          k = 0.1875 0.1822 0.0000 (  5556 PWs)   bands (ev):

   -45.7360 -24.1975 -23.8093 -23.5022 -21.0436 -13.3837  -3.4141  -3.2145
    -2.9157  -1.8641  -1.3700  -0.4341   3.2840   5.3386   5.9321   6.2027
     6.9292   7.2812   8.9146   9.9674  12.0633  12.9011  13.3662  15.1447
    15.8099  16.4636

          k = 0.1875 0.2551 0.0000 (  5552 PWs)   bands (ev):

   -45.7240 -24.1729 -23.8948 -23.5495 -21.0295 -13.2825  -3.3961  -3.2134
    -2.9691  -2.0611  -1.4972  -0.6412   3.2770   5.3578   6.0593   6.6070
     7.0352   7.7404   9.3433  10.3875  12.2911  12.8711  13.1513  15.1968
    15.8226  16.6927

          k = 0.1875 0.3280 0.0000 (  5538 PWs)   bands (ev):

   -45.7109 -24.1764 -23.9430 -23.6095 -21.0196 -13.1684  -3.4428  -3.1488
    -3.0506  -2.3037  -1.5500  -0.8910   3.3156   5.4547   6.2433   6.7754
     7.3333   8.3854   9.8048  10.8598  12.3786  12.7353  13.3786  14.6778
    15.9517  16.0485

          k = 0.1875 0.4009 0.0000 (  5549 PWs)   bands (ev):

   -45.6987 -24.2173 -23.9401 -23.6702 -21.0150 -13.0586  -3.5033  -3.1634
    -3.0782  -2.4963  -1.5769  -1.1279   3.3861   5.6771   6.3961   6.8507
     7.5715   9.2197  10.2350  11.3211  12.3405  12.6437  13.8896  14.1214
    15.0264  15.8619

          k = 0.1875 0.4738 0.0000 (  5548 PWs)   bands (ev):

   -45.6894 -24.2632 -23.9177 -23.7193 -21.0143 -12.9713  -3.5550  -3.2741
    -3.0390  -2.6000  -1.5981  -1.3067   3.4606   6.0099   6.4336   6.9999
     7.5817  10.1316  10.5692  11.6450  12.2411  12.7620  13.5423  14.1695
    14.5164  15.6928

          k = 0.1875 0.5467 0.0000 (  5565 PWs)   bands (ev):

   -45.6844 -24.2903 -23.9014 -23.7469 -21.0150 -12.9228  -3.5867  -3.3440
    -3.0232  -2.6362  -1.6166  -1.3975   3.5082   6.3224   6.4269   7.1272
     7.4388  10.5649  11.1736  11.7590  12.0952  12.6216  13.2182  14.1239
    14.6645  15.4062

          k = 0.1875-0.0364 0.0000 (  5537 PWs)   bands (ev):

   -45.7502 -24.2400 -23.6654 -23.4699 -21.0666 -13.4983  -3.5078  -3.1228
    -2.8935  -1.7491  -0.9745  -0.3029   3.3673   5.2028   5.8387   5.9029
     6.7282   6.8641   8.3983   9.4637  11.7153  13.1364  13.6624  14.7516
    15.2853  16.6963

          k = 0.2500 0.1458 0.0000 (  5551 PWs)   bands (ev):

   -45.7305 -24.1866 -23.8677 -23.5049 -21.0374 -13.3361  -3.4413  -3.2040
    -2.9084  -2.0108  -1.4544  -0.4390   3.2084   5.4951   5.9797   6.3051
     7.0690   7.4534   9.1037  10.1339  11.8888  12.9471  13.5366  15.5118
    15.9292  16.5161

          k = 0.2500 0.2187 0.0000 (  5543 PWs)   bands (ev):

   -45.7212 -24.1789 -23.9263 -23.5335 -21.0294 -13.2577  -3.4690  -3.1758
    -2.9419  -2.2170  -1.5082  -0.5604   3.1761   5.5782   6.0487   6.6487
     7.1426   7.8188   9.4106  10.4305  11.8941  12.8513  13.7201  15.3836
    15.9237  16.2120

          k = 0.2500 0.2916 0.0000 (  5547 PWs)   bands (ev):

   -45.7103 -24.1907 -23.9514 -23.5898 -21.0212 -13.1619  -3.4889  -3.1340
    -3.0282  -2.3958  -1.5414  -0.8041   3.2340   5.6162   6.1856   6.8742
     7.3419   8.3992   9.7948  10.8453  12.0741  12.7533  13.7850  14.7166
    15.5230  16.1662

          k = 0.2500 0.3645 0.0000 (  5552 PWs)   bands (ev):

   -45.6994 -24.2182 -23.9416 -23.6643 -21.0146 -13.0623  -3.5041  -3.1570
    -3.0814  -2.5000  -1.5781  -1.1082   3.3768   5.6755   6.3975   6.8550
     7.5756   9.2164  10.2295  11.3268  12.3458  12.6418  13.8572  14.0899
    14.9768  15.8909

          k = 0.2500 0.4373 0.0000 (  5541 PWs)   bands (ev):

   -45.6901 -24.2420 -23.9183 -23.7409 -21.0104 -12.9748  -3.5346  -3.2531
    -3.0407  -2.5367  -1.6495  -1.3741   3.5595   5.8227   6.5055   6.9155
     7.5982  10.1445  10.6317  11.7072  12.4669  12.7137  13.7696  14.1298
    14.3754  15.2826

          k = 0.2500 0.5102 0.0000 (  5572 PWs)   bands (ev):

   -45.6839 -24.2538 -23.8985 -23.7999 -21.0085 -12.9147  -3.5864  -3.2820
    -3.0116  -2.5355  -1.7853  -1.4961   3.7118   6.0595   6.4665   7.0599
     7.4500  10.6918  11.2098  11.7811  12.6054  12.9993  13.3935  14.0161
    14.4333  15.0806

          k = 0.2500 0.5831 0.0000 (  5578 PWs)   bands (ev):

   -45.6817 -24.2567 -23.8908 -23.8225 -21.0080 -12.8933  -3.6125  -3.2817
    -3.0009  -2.5288  -1.8596  -1.5217   3.7707   6.2165   6.4385   7.0649
     7.3788  10.7034  11.7707  12.1514  12.1829  12.8299  13.4465  13.9753
    14.5965  15.3332

          k = 0.2500-0.0729 0.0000 (  5546 PWs)   bands (ev):

   -45.7367 -24.1986 -23.8059 -23.5014 -21.0431 -13.3872  -3.4148  -3.2139
    -2.9122  -1.8613  -1.3627  -0.4381   3.2871   5.3197   5.9358   6.2273
     6.9455   7.2665   8.9006   9.9597  12.0609  12.9064  13.3682  15.1602
    15.7932  16.4539

          k = 0.2500 0.0000 0.0000 (  5548 PWs)   bands (ev):

   -45.7388 -24.2036 -23.7784 -23.5051 -21.0452 -13.4048  -3.4038  -3.2138
    -2.9205  -1.8132  -1.3027  -0.4651   3.3300   5.2136   5.9633   6.2228
     6.8605   7.2207   8.8292   9.9017  12.2288  12.7497  13.3575  14.9706
    15.7922  16.4034

          k = 0.3125 0.1822 0.0000 (  5547 PWs)   bands (ev):

   -45.7157 -24.1955 -23.9549 -23.5333 -21.0280 -13.2079  -3.5377  -3.1439
    -2.9293  -2.4204  -1.5191  -0.5474   3.0903   5.7460   6.2050   6.7501
     7.2699   8.0254   9.5545  10.5465  11.7501  12.7570  14.2039  15.1477
    15.9541  16.1445

          k = 0.3125 0.2551 0.0000 (  5547 PWs)   bands (ev):

   -45.7076 -24.2261 -23.9600 -23.5629 -21.0250 -13.1361  -3.5757  -3.1204
    -2.9799  -2.5824  -1.5300  -0.6721   3.0925   5.8748   6.2475   6.9950
     7.4052   8.4625   9.7963  10.8124  11.8326  12.7006  14.2939  14.5795
    15.4367  16.1320

          k = 0.3125 0.3280 0.0000 (  5546 PWs)   bands (ev):

   -45.6988 -24.2538 -23.9440 -23.6252 -21.0196 -13.0557  -3.5740  -3.1533
    -3.0561  -2.6292  -1.5493  -0.9425   3.2198   5.9781   6.2962   7.0313
     7.5758   9.2058  10.1463  11.2229  12.0395  12.6980  13.8493  14.2929
    14.8134  16.0136

          k = 0.3125 0.4009 0.0000 (  5558 PWs)   bands (ev):

   -45.6907 -24.2634 -23.9208 -23.7097 -21.0132 -12.9790  -3.5550  -3.2680
    -3.0406  -2.6003  -1.5981  -1.2785   3.4481   5.9979   6.4392   7.0074
     7.5863  10.1179  10.5626  11.6684  12.2480  12.7474  13.4625  14.1438
    14.4617  15.7213

          k = 0.3125 0.4738 0.0000 (  5557 PWs)   bands (ev):

   -45.6845 -24.2531 -23.9002 -23.7960 -21.0077 -12.9186  -3.5844  -3.2805
    -3.0120  -2.5349  -1.7753  -1.4947   3.7091   6.0478   6.4706   7.0632
     7.4534  10.6748  11.2089  11.7955  12.6344  12.9737  13.3285  14.0385
    14.4069  15.0962

          k = 0.3125 0.5467 0.0000 (  5570 PWs)   bands (ev):

   -45.6811 -24.2365 -23.8884 -23.8547 -21.0046 -12.8854  -3.6316  -3.2333
    -2.9857  -2.4546  -2.0174  -1.5451   3.8925   6.1391   6.4427   6.9749
     7.4326  10.7101  11.7603  12.1416  12.9662  13.0803  13.2355  13.6656
    14.6189  15.3099

          k = 0.3125-0.1093 0.0000 (  5549 PWs)   bands (ev):

   -45.7219 -24.1782 -23.9232 -23.5345 -21.0286 -13.2613  -3.4670  -3.1757
    -2.9400  -2.2050  -1.5066  -0.5708   3.1840   5.5728   6.0529   6.6536
     7.1453   7.8096   9.3984  10.4230  11.8995  12.8543  13.7379  15.3894
    15.8993  16.2145

          k = 0.3125-0.0364 0.0000 (  5566 PWs)   bands (ev):

   -45.7252 -24.1735 -23.8890 -23.5486 -21.0283 -13.2896  -3.3937  -3.2140
    -2.9633  -2.0459  -1.4926  -0.6497   3.2848   5.3419   6.0714   6.6231
     7.0439   7.7245   9.3187  10.3747  12.3017  12.8769  13.1613  15.1908
    15.7812  16.7020

          k = 0.3750 0.2187 0.0000 (  5548 PWs)   bands (ev):

   -45.7031 -24.2678 -23.9562 -23.5572 -21.0274 -13.0942  -3.6446  -3.1182
    -2.9513  -2.7538  -1.5257  -0.6329   3.0109   5.9719   6.4887   7.0843
     7.5605   8.6536   9.8575  10.8719  11.8241  12.6678  13.8546  14.7579
    15.5159  15.6146

          k = 0.3750 0.2916 0.0000 (  5547 PWs)   bands (ev):

   -45.6972 -24.3003 -23.9418 -23.5857 -21.0265 -13.0394  -3.6667  -3.1514
    -3.0120  -2.7894  -1.5297  -0.7555   3.0498   6.1186   6.4891   7.1593
     7.6893   9.1881  10.0626  11.1025  11.9247  12.6750  13.3813  14.5536
    14.8988  15.6251

          k = 0.3750 0.3645 0.0000 (  5566 PWs)   bands (ev):

   -45.6912 -24.3077 -23.9232 -23.6499 -21.0209 -12.9830  -3.6308  -3.2667
    -3.0359  -2.7239  -1.5495  -1.0373   3.2269   6.3133   6.3975   7.1388
     7.6322  10.0126  10.4208  11.4505  12.0251  12.6519  13.1089  14.1832
    14.6299  15.5487

          k = 0.3750 0.4373 0.0000 (  5558 PWs)   bands (ev):

   -45.6862 -24.2880 -23.9058 -23.7361 -21.0130 -12.9340  -3.5846  -3.3371
    -3.0231  -2.6300  -1.6123  -1.3735   3.4982   6.2967   6.4372   7.1430
     7.4383  10.5262  11.1771  11.7958  12.0503  12.5932  13.1803  14.0782
    14.6372  15.3738

          k = 0.3750 0.5102 0.0000 (  5558 PWs)   bands (ev):

   -45.6828 -24.2529 -23.8938 -23.8182 -21.0063 -12.9006  -3.6084  -3.2771
    -3.0004  -2.5216  -1.8464  -1.5257   3.7725   6.1985   6.4397   7.0683
     7.3852  10.6688  11.7957  12.0965  12.1566  12.8816  13.4117  13.9631
    14.5968  15.3003

          k = 0.3750 0.5831 0.0000 (  5558 PWs)   bands (ev):

   -45.6817 -24.2331 -23.8894 -23.8550 -21.0038 -12.8888  -3.6297  -3.2297
    -2.9846  -2.4449  -2.0196  -1.5489   3.8979   6.1370   6.4368   6.9724
     7.4363  10.6916  11.7710  12.0643  13.0206  13.0502  13.3261  13.6091
    14.6048  15.2899

          k = 0.3750-0.1458 0.0000 (  5536 PWs)   bands (ev):

   -45.7081 -24.2228 -23.9596 -23.5645 -21.0240 -13.1393  -3.5727  -3.1208
    -2.9788  -2.5691  -1.5303  -0.6837   3.1016   5.8778   6.2553   6.9907
     7.3990   8.4491   9.7843  10.8042  11.8375  12.7012  14.3097  14.6033
    15.4030  16.1540

          k = 0.3750-0.0729 0.0000 (  5562 PWs)   bands (ev):

   -45.7115 -24.1861 -23.9492 -23.5919 -21.0195 -13.1688  -3.4839  -3.1350
    -3.0234  -2.3717  -1.5412  -0.8226   3.2489   5.6122   6.1939   6.8838
     7.3288   8.3792   9.7710  10.8311  12.0880  12.7567  13.8173  14.7025
    15.5335  16.1387

          k = 0.3750 0.0000 0.0000 (  5568 PWs)   bands (ev):

   -45.7127 -24.1728 -23.9401 -23.6080 -21.0175 -13.1790  -3.4378  -3.1499
    -3.0421  -2.2786  -1.5505  -0.8986   3.3259   5.4459   6.2543   6.7922
     7.3243   8.3615   9.7714  10.8441  12.4064  12.7463  13.3709  14.6534
    15.9106  16.0312

          k = 0.4375 0.2551 0.0000 (  5550 PWs)   bands (ev):

   -45.6947 -24.3349 -23.9346 -23.5730 -21.0305 -13.0153  -3.7266  -3.1653
    -2.9680  -2.9085  -1.5221  -0.6869   2.9735   6.1507   6.6722   7.2226
     7.9015   9.2946  10.0771  11.1378  11.8813  12.5386  13.1323  14.4892
    14.8996  15.1147

          k = 0.4375 0.3280 0.0000 (  5543 PWs)   bands (ev):

   -45.6916 -24.3456 -23.9245 -23.5984 -21.0288 -12.9860  -3.7210  -3.2282
    -3.0171  -2.8497  -1.5270  -0.8012   3.0373   6.2518   6.6583   7.2162
     7.8668   9.8006  10.2523  11.3407  11.7868  12.3936  13.1483  14.1749
    14.6923  15.0878

          k = 0.4375 0.4009 0.0000 (  5573 PWs)   bands (ev):

   -45.6888 -24.3262 -23.9145 -23.6594 -21.0215 -12.9581  -3.6498  -3.3159
    -3.0299  -2.7421  -1.5492  -1.0749   3.2357   6.3542   6.5694   7.1651
     7.6125  10.2771  10.7309  11.6526  11.6988  12.4006  13.1677  14.0011
    14.7667  15.0515

          k = 0.4375 0.4738 0.0000 (  5562 PWs)   bands (ev):

   -45.6866 -24.2848 -23.9064 -23.7376 -21.0123 -12.9363  -3.5833  -3.3332
    -3.0222  -2.6228  -1.6122  -1.3819   3.5043   6.3125   6.4256   7.1537
     7.4203  10.5125  11.1163  11.7860  12.0986  12.5985  13.1776  14.0904
    14.6459  15.3896

          k = 0.4375 0.5467 0.0000 (  5564 PWs)   bands (ev):

   -45.6854 -24.2461 -23.9016 -23.7982 -21.0062 -12.9243  -3.5821  -3.2717
    -3.0102  -2.5168  -1.7805  -1.5055   3.7212   6.0547   6.4551   7.0794
     7.4343  10.6497  11.1260  11.8081  12.6081  13.0240  13.3665  14.0226
    14.4101  15.1070

          k = 0.4375-0.1822 0.0000 (  5552 PWs)   bands (ev):

   -45.6975 -24.2973 -23.9422 -23.5871 -21.0257 -13.0416  -3.6639  -3.1519
    -3.0113  -2.7801  -1.5302  -0.7642   3.0567   6.1175   6.5073   7.1541
     7.6813   9.1649  10.0491  11.0964  11.9301  12.6708  13.3909  14.5837
    14.8776  15.6426

          k = 0.4375-0.1093 0.0000 (  5552 PWs)   bands (ev):

   -45.6997 -24.2470 -23.9446 -23.6282 -21.0179 -13.0612  -3.5689  -3.1522
    -3.0527  -2.6093  -1.5499  -0.9613   3.2346   5.9859   6.2991   7.0423
     7.5518   9.1741  10.1181  11.2078  12.0513  12.6919  13.8680  14.3269
    14.8186  16.0295

          k = 0.4375-0.0364 0.0000 (  5540 PWs)   bands (ev):

   -45.7009 -24.2093 -23.9420 -23.6667 -21.0122 -13.0716  -3.4982  -3.1506
    -3.0789  -2.4705  -1.5792  -1.1289   3.3947   5.6741   6.3946   6.8807
     7.5478   9.1810  10.1900  11.3084  12.3678  12.6422  13.8728  14.0963
    15.0024  15.8583

          k =-0.5000-0.2916 0.0000 (  5556 PWs)   bands (ev):

   -45.6917 -24.3599 -23.9249 -23.5786 -21.0322 -12.9871  -3.7589  -3.2041
    -2.9743  -2.9382  -1.5200  -0.7054   2.9638   6.2269   6.7190   7.2585
     8.0505   9.6536  10.1649  11.3972  11.6000  12.3067  13.2005  14.1515
    14.7003  14.9421

          k =-0.5000-0.2187 0.0000 (  5555 PWs)   bands (ev):

   -45.6917 -24.3444 -23.9247 -23.5989 -21.0286 -12.9868  -3.7198  -3.2282
    -3.0169  -2.8468  -1.5272  -0.8045   3.0398   6.2492   6.6705   7.2124
     7.8648   9.7812  10.2473  11.3356  11.8008  12.3926  13.1431  14.1830
    14.7109  15.0773

          k =-0.5000-0.1458 0.0000 (  5555 PWs)   bands (ev):

   -45.6917 -24.3034 -23.9239 -23.6518 -21.0199 -12.9861  -3.6274  -3.2643
    -3.0345  -2.7140  -1.5498  -1.0490   3.2357   6.3056   6.4211   7.1430
     7.6134   9.9782  10.3895  11.4404  12.0476  12.6490  13.1149  14.2024
    14.6493  15.5578

          k =-0.5000-0.0729 0.0000 (  5559 PWs)   bands (ev):

   -45.6917 -24.2552 -23.9221 -23.7128 -21.0113 -12.9854  -3.5510  -3.2598
    -3.0385  -2.5796  -1.5983  -1.2989   3.4637   6.0089   6.4263   7.0338
     7.5536  10.0802  10.5077  11.6535  12.2569  12.7489  13.4982  14.1590
    14.4923  15.7233

          k =-0.5000 0.0000 0.0000 (  5546 PWs)   bands (ev):

   -45.6917 -24.2320 -23.9207 -23.7419 -21.0078 -12.9851  -3.5302  -3.2404
    -3.0394  -2.5094  -1.6501  -1.3906   3.5752   5.8218   6.4880   6.9537
     7.5662  10.1012  10.5657  11.7048  12.4438  12.7602  13.7754  14.1232
    14.3887  15.2918

     highest occupied, lowest unoccupied level (ev):     3.8979    5.2028

!    total energy              =    -446.24485756 Ry
     total all-electron energy =     -8320.715137 Ry
     estimated scf accuracy    <          1.3E-09 Ry

     The total energy is the sum of the following terms:
     one-electron contribution =    -301.87140054 Ry
     hartree contribution      =     159.00903420 Ry
     xc contribution           =     -38.49771043 Ry
     ewald contribution        =       1.73934581 Ry
     one-center paw contrib.   =    -266.62412660 Ry

     convergence has been achieved in   9 iterations

     negative rho (up, down):  8.488E-05 0.000E+00

     Forces acting on atoms (cartesian axes, Ry/au):

     atom    1 type  1   force =     0.00000000   -0.00056873   -0.00004514
     atom    2 type  2   force =     0.00000000    0.00004928   -0.00161900
     atom    3 type  3   force =     0.00000000    0.00051945    0.00166413
     The non-local contrib.  to forces
     atom    1 type  1   force =     0.00000000   -0.00247521   -0.02189808
     atom    2 type  2   force =     0.00000000   -0.01411622   -1.08428709
     atom    3 type  3   force =     0.00000000   -0.00042777    0.22395535
     The ionic contribution  to forces
     atom    1 type  1   force =    -0.00000001   -0.11802742   -0.32405753
     atom    2 type  2   force =     0.00000001    0.07847584   26.40058595
     atom    3 type  3   force =     0.00000000    0.03955159  -26.07652841
     The local contribution  to forces
     atom    1 type  1   force =    -0.00000000    0.11984149    0.34203894
     atom    2 type  2   force =     0.00000032   -0.06436052  -25.32156170
     atom    3 type  3   force =     0.00000004   -0.03851861   25.86173782
     The core correction contribution to forces
     atom    1 type  1   force =    -0.00000000    0.00008534    0.00372053
     atom    2 type  2   force =     0.00000000    0.00004272    0.00350678
     atom    3 type  3   force =    -0.00000000   -0.00009351   -0.00757436
     The Hubbard contrib.    to forces
     atom    1 type  1   force =     0.00000000    0.00000000    0.00000000
     atom    2 type  2   force =     0.00000000    0.00000000    0.00000000
     atom    3 type  3   force =     0.00000000    0.00000000    0.00000000
     The SCF correction term to forces
     atom    1 type  1   force =     0.00000000    0.00000022    0.00007397
     atom    2 type  2   force =     0.00000000    0.00000060    0.00006004
     atom    3 type  3   force =     0.00000000    0.00000090   -0.00000329

     Total force =     0.002447     Total SCF correction =     0.000095

     BFGS Geometry Optimization
     Energy error            =      0.0E+00 Ry
     Gradient error          =      1.7E-03 Ry/Bohr

     number of scf cycles    =   1
     number of bfgs steps    =   0

     energy             new  =    -446.2448575575 Ry

     new trust radius        =       0.0017433187 bohr
     new conv_thr            =       0.0000000100 Ry


ATOMIC_POSITIONS (angstrom)
Zr            0.0000000000       -0.0003009586        9.5703399573
F            -0.0000000020        1.8815364310       10.9024745864
Cl           -0.0000000020        1.8817852362        7.8133603648



     Writing config-only to output data dir ./tmp/ZrFCl.save/
     NEW-OLD atomic charge density approx. for the potential

     Check: negative core charge=   -0.000005

     negative rho (up, down):  8.506E-05 0.000E+00

     total cpu time spent up to now is       16.2 secs

     Self-consistent Calculation

     iteration #  1     ecut=    65.00 Ry     beta= 0.70
     Davidson diagonalization with overlap
     ethr =  1.00E-06,  avg # of iterations =  2.4

     Threshold (ethr) on eigenvalues was too large:
     Diagonalizing with lowered threshold

     Davidson diagonalization with overlap
     ethr =  1.51E-09,  avg # of iterations =  4.0

     negative rho (up, down):  8.515E-05 0.000E+00

     total cpu time spent up to now is       19.3 secs

     total energy              =    -446.24486278 Ry
     estimated scf accuracy    <       0.00000046 Ry

     iteration #  2     ecut=    65.00 Ry     beta= 0.70
     Davidson diagonalization with overlap
     ethr =  1.77E-09,  avg # of iterations =  2.0

     negative rho (up, down):  8.505E-05 0.000E+00

     total cpu time spent up to now is       20.7 secs

     total energy              =    -446.24486280 Ry
     estimated scf accuracy    <       0.00000081 Ry

     iteration #  3     ecut=    65.00 Ry     beta= 0.70
     Davidson diagonalization with overlap
     ethr =  1.77E-09,  avg # of iterations =  1.9

     negative rho (up, down):  8.501E-05 0.000E+00

     total cpu time spent up to now is       21.9 secs

     total energy              =    -446.24486298 Ry
     estimated scf accuracy    <       0.00000004 Ry

     iteration #  4     ecut=    65.00 Ry     beta= 0.70
     Davidson diagonalization with overlap
     ethr =  1.58E-10,  avg # of iterations =  2.0

     negative rho (up, down):  8.500E-05 0.000E+00

     total cpu time spent up to now is       23.1 secs

     End of self-consistent calculation

          k = 0.0000 0.0000 0.0000 (  5487 PWs)   bands (ev):

   -45.7657 -24.3041 -23.4384 -23.4229 -21.1201 -13.6459  -3.7273  -2.9018
    -2.8808  -1.7701  -0.1510  -0.0962   3.3958   5.2970   5.4222   5.6480
     6.4975   6.5541   7.6618   8.4975  10.9098  13.5591  14.3369  14.4903
    15.3264  16.9689

          k = 0.0000 0.0729 0.0000 (  5487 PWs)   bands (ev):

   -45.7626 -24.2933 -23.4617 -23.4446 -21.1100 -13.6229  -3.6898  -2.9237
    -2.9021  -1.7577  -0.2519  -0.1808   3.4049   5.3553   5.3755   5.7402
     6.5110   6.5456   7.7842   8.6955  11.0344  13.6342  14.1929  14.4388
    15.1519  16.9344

          k = 0.0000 0.1458 0.0000 (  5503 PWs)   bands (ev):

   -45.7540 -24.2629 -23.5678 -23.4621 -21.0853 -13.5563  -3.5898  -3.0322
    -2.9048  -1.7390  -0.6509  -0.2626   3.4059   5.3042   5.5336   5.8667
     6.5922   6.6748   8.1215   9.1461  11.3976  13.5124  13.8244  14.7425
    14.8585  16.8306

          k = 0.0000 0.2187 0.0000 (  5526 PWs)   bands (ev):

   -45.7410 -24.2197 -23.7143 -23.4882 -21.0579 -13.4536  -3.4696  -3.1575
    -2.9133  -1.7676  -1.1343  -0.3773   3.3508   5.3343   5.8364   5.9029
     6.8500   6.9630   8.6050   9.6594  11.8626  13.0484  13.5909  15.0446
    15.2370  16.6575

          k = 0.0000 0.2916 0.0000 (  5542 PWs)   bands (ev):

   -45.7256 -24.1809 -23.8621 -23.5188 -21.0380 -13.3275  -3.4401  -3.1990
    -2.9298  -1.9986  -1.4425  -0.5018   3.2390   5.5074   5.9990   6.2511
     7.0385   7.4726   9.1346  10.1474  11.8995  12.9806  13.5813  15.5512
    15.8532  16.4508

          k = 0.0000 0.3645 0.0000 (  5526 PWs)   bands (ev):

   -45.7102 -24.1909 -23.9492 -23.5492 -21.0293 -13.1954  -3.5364  -3.1423
    -2.9529  -2.4115  -1.5081  -0.6162   3.1229   5.7438   6.2245   6.7185
     7.2404   8.0508   9.5868  10.5547  11.7659  12.7872  14.2853  15.2315
    15.8807  16.2033

          k = 0.0000 0.4373 0.0000 (  5532 PWs)   bands (ev):

   -45.6970 -24.2664 -23.9479 -23.5747 -21.0297 -13.0782  -3.6425  -3.1220
    -2.9771  -2.7491  -1.5131  -0.7062   3.0443   5.9667   6.5011   7.0642
     7.5454   8.6860   9.8853  10.8794  11.8567  12.7076  13.9498  14.8308
    15.4362  15.6945

          k = 0.0000 0.5102 0.0000 (  5556 PWs)   bands (ev):

   -45.6883 -24.3355 -23.9247 -23.5917 -21.0335 -12.9969  -3.7230  -3.1753
    -2.9956  -2.9057  -1.5081  -0.7630   3.0075   6.1484   6.6728   7.1999
     7.9125   9.3342  10.0995  11.1565  11.9350  12.6077  13.1806  14.5535
    14.9862  15.0106

          k = 0.0000-0.5831 0.0000 (  5554 PWs)   bands (ev):

   -45.6852 -24.3611 -23.9144 -23.5976 -21.0355 -12.9677  -3.7545  -3.2161
    -3.0024  -2.9366  -1.5055  -0.7824   2.9981   6.2274   6.7127   7.2346
     8.0733   9.7011  10.1759  11.4232  11.6795  12.3656  13.2410  14.2032
    14.7909  14.8313

          k = 0.0625 0.0364 0.0000 (  5496 PWs)   bands (ev):

   -45.7628 -24.2936 -23.4735 -23.4316 -21.1101 -13.6235  -3.6904  -2.9397
    -2.8850  -1.7586  -0.2932  -0.1351   3.4022   5.2766   5.4619   5.7359
     6.4728   6.5918   7.7797   8.6894  11.0312  13.6324  14.0972  14.5578
    15.1380  16.9803

          k = 0.0625 0.1093 0.0000 (  5497 PWs)   bands (ev):

   -45.7569 -24.2730 -23.5376 -23.4518 -21.0928 -13.5787  -3.6212  -3.0039
    -2.8982  -1.7430  -0.5398  -0.2212   3.4072   5.2760   5.5224   5.8468
     6.5063   6.6669   8.0100   9.0098  11.2780  13.6350  13.8341  14.6231
    14.9584  16.8633

          k = 0.0625 0.1822 0.0000 (  5525 PWs)   bands (ev):

   -45.7461 -24.2360 -23.6587 -23.4788 -21.0670 -13.4939  -3.5067  -3.1169
    -2.9113  -1.7437  -0.9610  -0.3427   3.3836   5.2541   5.7631   5.9162
     6.6938   6.8792   8.4217   9.4800  11.7350  13.1601  13.6861  14.7319
    15.2309  16.6585

          k = 0.0625 0.2551 0.0000 (  5564 PWs)   bands (ev):

   -45.7319 -24.1933 -23.8026 -23.5117 -21.0439 -13.3793  -3.4140  -3.2099
    -2.9313  -1.8546  -1.3557  -0.4829   3.3081   5.3468   5.9350   6.1799
     6.9121   7.2883   8.9330   9.9760  12.0732  12.9334  13.3867  15.1611
    15.7577  16.4315

          k = 0.0625 0.3280 0.0000 (  5542 PWs)   bands (ev):

   -45.7165 -24.1735 -23.9205 -23.5466 -21.0301 -13.2496  -3.4677  -3.1732
    -2.9608  -2.2031  -1.4987  -0.6215   3.2070   5.5795   6.0568   6.6266
     7.1183   7.8341   9.4351  10.4363  11.9023  12.8771  13.7796  15.4264
    15.9191  16.2390

          k = 0.0625 0.4009 0.0000 (  5554 PWs)   bands (ev):

   -45.7022 -24.2222 -23.9531 -23.5786 -21.0264 -13.1241  -3.5736  -3.1227
    -2.9992  -2.5731  -1.5197  -0.7408   3.1258   5.8720   6.2616   6.9757
     7.3853   8.4820   9.8201  10.8121  11.8536  12.7298  14.4025  14.6398
    15.4128  16.1784

          k = 0.0625 0.4738 0.0000 (  5554 PWs)   bands (ev):

   -45.6912 -24.2990 -23.9331 -23.6029 -21.0288 -13.0240  -3.6633  -3.1634
    -3.0240  -2.7902  -1.5176  -0.8275   3.0832   6.1132   6.5059   7.1372
     7.6884   9.2110  10.0812  11.1052  11.9646  12.7197  13.4594  14.6056
    14.9153  15.6451

          k = 0.0625 0.5467 0.0000 (  5554 PWs)   bands (ev):

   -45.6853 -24.3462 -23.9146 -23.6161 -21.0319 -12.9682  -3.7171  -3.2428
    -3.0276  -2.8591  -1.5137  -0.8729   3.0692   6.2498   6.6631   7.1933
     7.8853   9.8379  10.2599  11.3604  11.8570  12.4538  13.1800  14.2186
    14.7466  15.0511

          k = 0.1250 0.0729 0.0000 (  5514 PWs)   bands (ev):

   -45.7545 -24.2641 -23.5767 -23.4488 -21.0856 -13.5588  -3.5918  -3.0446
    -2.8882  -1.7421  -0.6834  -0.2145   3.3951   5.2402   5.6227   5.8541
     6.5716   6.7158   8.1076   9.1322  11.3852  13.4811  13.7895  14.8311
    14.8561  16.8986

          k = 0.1250 0.1458 0.0000 (  5541 PWs)   bands (ev):

   -45.7465 -24.2369 -23.6629 -23.4713 -21.0672 -13.4959  -3.5079  -3.1225
    -2.9028  -1.7464  -0.9773  -0.3141   3.3741   5.2411   5.7944   5.9080
     6.6947   6.8887   8.4129   9.4730  11.7260  13.1448  13.6733  14.7355
    15.2615  16.6879

          k = 0.1250 0.2187 0.0000 (  5547 PWs)   bands (ev):

   -45.7344 -24.1994 -23.7787 -23.5083 -21.0461 -13.3989  -3.4036  -3.2142
    -2.9327  -1.8117  -1.3093  -0.4790   3.3372   5.2455   5.9547   6.1884
     6.8332   7.2421   8.8562   9.9152  12.2454  12.7459  13.3644  14.9640
    15.7844  16.4019

          k = 0.1250 0.2916 0.0000 (  5544 PWs)   bands (ev):

   -45.7202 -24.1696 -23.8904 -23.5533 -21.0299 -13.2800  -3.3967  -3.2131
    -2.9778  -2.0543  -1.4925  -0.6682   3.2920   5.3597   6.0622   6.6031
     7.0271   7.7457   9.3536  10.3891  12.2878  12.8866  13.1755  15.2066
    15.8162  16.7487

          k = 0.1250 0.3645 0.0000 (  5539 PWs)   bands (ev):

   -45.7059 -24.1866 -23.9462 -23.5988 -21.0220 -13.1557  -3.4883  -3.1361
    -3.0389  -2.3863  -1.5357  -0.8484   3.2572   5.6179   6.1893   6.8666
     7.3307   8.4080   9.8106  10.8428  12.0771  12.7651  13.8453  14.7439
    15.5823  16.1710

          k = 0.1250 0.4373 0.0000 (  5547 PWs)   bands (ev):

   -45.6938 -24.2508 -23.9373 -23.6375 -21.0212 -13.0457  -3.5726  -3.1676
    -3.0566  -2.6260  -1.5417  -0.9964   3.2462   5.9834   6.3016   7.0200
     7.5702   9.2180  10.1616  11.2105  12.0568  12.7175  13.9238  14.3597
    14.8412  16.0572

          k = 0.1250 0.5102 0.0000 (  5560 PWs)   bands (ev):

   -45.6857 -24.3071 -23.9149 -23.6636 -21.0234 -12.9696  -3.6291  -3.2809
    -3.0386  -2.7300  -1.5402  -1.0937   3.2523   6.3069   6.4195   7.1220
     7.6375  10.0401  10.4249  11.4378  12.0671  12.7024  13.1551  14.2130
    14.6885  15.5755

          k = 0.1250 0.5831 0.0000 (  5572 PWs)   bands (ev):

   -45.6828 -24.3280 -23.9053 -23.6728 -21.0247 -12.9423  -3.6492  -3.3314
    -3.0341  -2.7546  -1.5393  -1.1275   3.2574   6.3557   6.5759   7.1459
     7.6311  10.3321  10.7253  11.6531  11.7672  12.4404  13.1946  14.0452
    14.8167  15.0440

          k = 0.1250 0.0000 0.0000 (  5508 PWs)   bands (ev):

   -45.7573 -24.2739 -23.5440 -23.4421 -21.0930 -13.5806  -3.6227  -3.0138
    -2.8851  -1.7452  -0.5607  -0.1900   3.4015   5.2175   5.5988   5.8357
     6.5094   6.6821   7.9986   8.9982  11.2693  13.6129  13.7980  14.6934
    14.9692  16.9099

          k = 0.1875 0.1093 0.0000 (  5541 PWs)   bands (ev):

   -45.7420 -24.2223 -23.7202 -23.4734 -21.0582 -13.4591  -3.4726  -3.1669
    -2.8959  -1.7750  -1.1568  -0.3230   3.3296   5.3019   5.8792   5.9201
     6.8821   6.9513   8.5817   9.6434  11.8430  13.0193  13.5645  15.0186
    15.3305  16.7271

          k = 0.1875 0.1822 0.0000 (  5556 PWs)   bands (ev):

   -45.7328 -24.1956 -23.8069 -23.4994 -21.0440 -13.3842  -3.4162  -3.2164
    -2.9180  -1.8647  -1.3699  -0.4359   3.2870   5.3433   5.9343   6.2058
     6.9322   7.2823   8.9156   9.9667  12.0647  12.9024  13.3675  15.1444
    15.8103  16.4658

          k = 0.1875 0.2551 0.0000 (  5552 PWs)   bands (ev):

   -45.7208 -24.1711 -23.8923 -23.5467 -21.0299 -13.2831  -3.3982  -3.2151
    -2.9715  -2.0622  -1.4965  -0.6429   3.2797   5.3626   6.0615   6.6098
     7.0390   7.7414   9.3451  10.3866  12.2924  12.8731  13.1520  15.1973
    15.8228  16.6936

          k = 0.1875 0.3280 0.0000 (  5538 PWs)   bands (ev):

   -45.7077 -24.1748 -23.9404 -23.6068 -21.0199 -13.1691  -3.4448  -3.1506
    -3.0529  -2.3046  -1.5494  -0.8924   3.3180   5.4595   6.2456   6.7788
     7.3369   8.3864   9.8074  10.8588  12.3793  12.7371  13.3797  14.6797
    15.9514  16.0486

          k = 0.1875 0.4009 0.0000 (  5549 PWs)   bands (ev):

   -45.6955 -24.2158 -23.9373 -23.6675 -21.0154 -13.0593  -3.5052  -3.1657
    -3.0800  -2.4971  -1.5765  -1.1289   3.3885   5.6814   6.3988   6.8545
     7.5751   9.2206  10.2381  11.3201  12.3411  12.6450  13.8912  14.1233
    15.0264  15.8619

          k = 0.1875 0.4738 0.0000 (  5548 PWs)   bands (ev):

   -45.6862 -24.2617 -23.9149 -23.7166 -21.0147 -12.9721  -3.5568  -3.2761
    -3.0406  -2.6008  -1.5982  -1.3072   3.4632   6.0133   6.4369   7.0037
     7.5858  10.1321  10.5720  11.6445  12.2428  12.7630  13.5430  14.1701
    14.5172  15.6925

          k = 0.1875 0.5467 0.0000 (  5565 PWs)   bands (ev):

   -45.6812 -24.2888 -23.8986 -23.7442 -21.0154 -12.9237  -3.5885  -3.3458
    -3.0248  -2.6371  -1.6170  -1.3976   3.5109   6.3246   6.4307   7.1311
     7.4438  10.5662  11.1752  11.7591  12.0968  12.6223  13.2185  14.1245
    14.6655  15.4070

          k = 0.1875-0.0364 0.0000 (  5537 PWs)   bands (ev):

   -45.7470 -24.2381 -23.6629 -23.4669 -21.0672 -13.4988  -3.5096  -3.1252
    -2.8958  -1.7489  -0.9759  -0.3045   3.3707   5.2074   5.8420   5.9053
     6.7298   6.8658   8.3985   9.4632  11.7158  13.1385  13.6631  14.7518
    15.2867  16.6972

          k = 0.2500 0.1458 0.0000 (  5551 PWs)   bands (ev):

   -45.7273 -24.1848 -23.8653 -23.5020 -21.0378 -13.3367  -3.4435  -3.2057
    -2.9107  -2.0119  -1.4538  -0.4407   3.2111   5.4995   5.9824   6.3083
     7.0721   7.4546   9.1052  10.1335  11.8900  12.9488  13.5368  15.5115
    15.9294  16.4665

          k = 0.2500 0.2187 0.0000 (  5543 PWs)   bands (ev):

   -45.7180 -24.1772 -23.9238 -23.5307 -21.0298 -13.2583  -3.4712  -3.1774
    -2.9442  -2.2181  -1.5074  -0.5621   3.1787   5.5825   6.0516   6.6517
     7.1462   7.8200   9.4126  10.4301  11.8950  12.8532  13.7203  15.3845
    15.9236  16.2120

          k = 0.2500 0.2916 0.0000 (  5547 PWs)   bands (ev):

   -45.7071 -24.1891 -23.9488 -23.5870 -21.0216 -13.1625  -3.4910  -3.1357
    -3.0305  -2.3967  -1.5407  -0.8055   3.2362   5.6207   6.1884   6.8773
     7.3456   8.4003   9.7975  10.8446  12.0749  12.7547  13.7856  14.7182
    15.5229  16.1660

          k = 0.2500 0.3645 0.0000 (  5552 PWs)   bands (ev):

   -45.6962 -24.2167 -23.9388 -23.6616 -21.0150 -13.0631  -3.5061  -3.1592
    -3.0831  -2.5008  -1.5777  -1.1091   3.3789   5.6799   6.4008   6.8584
     7.5793   9.2172  10.2329  11.3258  12.3467  12.6423  13.8583  14.0920
    14.9766  15.8911

          k = 0.2500 0.4373 0.0000 (  5541 PWs)   bands (ev):

   -45.6868 -24.2406 -23.9155 -23.7382 -21.0108 -12.9756  -3.5365  -3.2550
    -3.0424  -2.5373  -1.6498  -1.3742   3.5615   5.8266   6.5095   6.9188
     7.6024  10.1445  10.6351  11.7065  12.4676  12.7152  13.7712  14.1307
    14.3754  15.2819

          k = 0.2500 0.5102 0.0000 (  5572 PWs)   bands (ev):

   -45.6806 -24.2524 -23.8957 -23.7972 -21.0089 -12.9155  -3.5885  -3.2837
    -3.0132  -2.5363  -1.7862  -1.4955   3.7139   6.0623   6.4707   7.0636
     7.4550  10.6933  11.2106  11.7814  12.6069  13.0004  13.3936  14.0163
    14.4346  15.0797

          k = 0.2500 0.5831 0.0000 (  5578 PWs)   bands (ev):

   -45.6784 -24.2552 -23.8880 -23.8199 -21.0083 -12.8941  -3.6146  -3.2834
    -3.0025  -2.5297  -1.8605  -1.5210   3.7729   6.2181   6.4430   7.0694
     7.3839  10.7051  11.7717  12.1521  12.1820  12.8315  13.4472  13.9759
    14.5966  15.3334

          k = 0.2500-0.0729 0.0000 (  5546 PWs)   bands (ev):

   -45.7335 -24.1967 -23.8036 -23.4985 -21.0436 -13.3877  -3.4168  -3.2158
    -2.9144  -1.8621  -1.3627  -0.4397   3.2897   5.3245   5.9383   6.2306
     6.9479   7.2680   8.9018   9.9592  12.0621  12.9077  13.3693  15.1592
    15.7942  16.4555

          k = 0.2500 0.0000 0.0000 (  5548 PWs)   bands (ev):

   -45.7356 -24.2017 -23.7760 -23.5022 -21.0456 -13.4054  -3.4058  -3.2159
    -2.9226  -1.8137  -1.3031  -0.4666   3.3325   5.2185   5.9659   6.2258
     6.8626   7.2224   8.8303   9.9012  12.2295  12.7517  13.3588  14.9694
    15.7934  16.4045

          k = 0.3125 0.1822 0.0000 (  5547 PWs)   bands (ev):

   -45.7125 -24.1939 -23.9523 -23.5304 -21.0284 -13.2085  -3.5398  -3.1454
    -2.9314  -2.4215  -1.5182  -0.5490   3.0927   5.7496   6.2085   6.7529
     7.2735   8.0271   9.5569  10.5464  11.7506  12.7587  14.2040  15.1473
    15.9550  16.1447

          k = 0.3125 0.2551 0.0000 (  5547 PWs)   bands (ev):

   -45.7044 -24.2247 -23.9573 -23.5600 -21.0254 -13.1368  -3.5777  -3.1218
    -2.9821  -2.5833  -1.5293  -0.6737   3.0948   5.8784   6.2510   6.9982
     7.4089   8.4643   9.7990  10.8122  11.8332  12.7019  14.2947  14.5788
    15.4377  16.1331

          k = 0.3125 0.3280 0.0000 (  5546 PWs)   bands (ev):

   -45.6956 -24.2523 -23.9413 -23.6224 -21.0200 -13.0565  -3.5759  -3.1553
    -3.0577  -2.6299  -1.5487  -0.9437   3.2220   5.9818   6.2998   7.0347
     7.5796   9.2072  10.1492  11.2225  12.0405  12.6987  13.8497  14.2937
    14.8140  16.0150

          k = 0.3125 0.4009 0.0000 (  5558 PWs)   bands (ev):

   -45.6875 -24.2620 -23.9180 -23.7069 -21.0136 -12.9798  -3.5568  -3.2700
    -3.0421  -2.6010  -1.5979  -1.2791   3.4501   6.0014   6.4435   7.0107
     7.5906  10.1183  10.5658  11.6677  12.2497  12.7479  13.4628  14.1448
    14.4622  15.7214

          k = 0.3125 0.4738 0.0000 (  5557 PWs)   bands (ev):

   -45.6813 -24.2517 -23.8974 -23.7933 -21.0081 -12.9195  -3.5865  -3.2822
    -3.0136  -2.5356  -1.7760  -1.4943   3.7110   6.0506   6.4752   7.0668
     7.4584  10.6763  11.2096  11.7957  12.6356  12.9749  13.3287  14.0389
    14.4080  15.0953

          k = 0.3125 0.5467 0.0000 (  5570 PWs)   bands (ev):

   -45.6779 -24.2352 -23.8855 -23.8520 -21.0050 -12.8862  -3.6338  -3.2349
    -2.9872  -2.4555  -2.0179  -1.5445   3.8944   6.1406   6.4476   6.9797
     7.4377  10.7120  11.7611  12.1410  12.9658  13.0800  13.2376  13.6675
    14.6189  15.3099

          k = 0.3125-0.1093 0.0000 (  5549 PWs)   bands (ev):

   -45.7187 -24.1765 -23.9208 -23.5317 -21.0290 -13.2619  -3.4692  -3.1773
    -2.9421  -2.2063  -1.5058  -0.5723   3.1863   5.5772   6.0560   6.6562
     7.1485   7.8113   9.4006  10.4229  11.9003  12.8561  13.7380  15.3897
    15.8995  16.2142

          k = 0.3125-0.0364 0.0000 (  5566 PWs)   bands (ev):

   -45.7220 -24.1717 -23.8867 -23.5457 -21.0287 -13.2903  -3.3959  -3.2157
    -2.9653  -2.0471  -1.4920  -0.6511   3.2868   5.3469   6.0745   6.6253
     7.0469   7.7262   9.3208  10.3742  12.3029  12.8785  13.1619  15.1907
    15.7817  16.7023

          k = 0.3750 0.2187 0.0000 (  5548 PWs)   bands (ev):

   -45.6999 -24.2664 -23.9534 -23.5543 -21.0278 -13.0949  -3.6466  -3.1195
    -2.9533  -2.7547  -1.5250  -0.6344   3.0132   5.9755   6.4922   7.0875
     7.5638   8.6566   9.8596  10.8721  11.8248  12.6688  13.8547  14.7573
    15.5173  15.6161

          k = 0.3750 0.2916 0.0000 (  5547 PWs)   bands (ev):

   -45.6940 -24.2990 -23.9390 -23.5828 -21.0269 -13.0402  -3.6686  -3.1528
    -3.0138  -2.7903  -1.5291  -0.7569   3.0521   6.1223   6.4921   7.1630
     7.6929   9.1910  10.0642  11.1029  11.9258  12.6754  13.3810  14.5538
    14.9000  15.6266

          k = 0.3750 0.3645 0.0000 (  5566 PWs)   bands (ev):

   -45.6880 -24.3064 -23.9204 -23.6471 -21.0213 -12.9839  -3.6326  -3.2684
    -3.0374  -2.7247  -1.5491  -1.0384   3.2291   6.3171   6.4007   7.1424
     7.6365  10.0148  10.4224  11.4508  12.0267  12.6517  13.1088  14.1842
    14.6305  15.5500

          k = 0.3750 0.4373 0.0000 (  5558 PWs)   bands (ev):

   -45.6830 -24.2867 -23.9030 -23.7334 -21.0134 -12.9349  -3.5864  -3.3389
    -3.0245  -2.6307  -1.6124  -1.3738   3.5002   6.2989   6.4419   7.1465
     7.4435  10.5279  11.1784  11.7956  12.0519  12.5938  13.1806  14.0790
    14.6381  15.3741

          k = 0.3750 0.5102 0.0000 (  5558 PWs)   bands (ev):

   -45.6796 -24.2517 -23.8909 -23.8154 -21.0067 -12.9015  -3.6104  -3.2788
    -3.0019  -2.5223  -1.8469  -1.5253   3.7743   6.2001   6.4447   7.0726
     7.3905  10.6705  11.7968  12.0961  12.1565  12.8835  13.4125  13.9639
    14.5966  15.3005

          k = 0.3750 0.5831 0.0000 (  5558 PWs)   bands (ev):

   -45.6784 -24.2319 -23.8865 -23.8522 -21.0041 -12.8896  -3.6318  -3.2313
    -2.9861  -2.4457  -2.0199  -1.5484   3.8996   6.1384   6.4418   6.9772
     7.4415  10.6933  11.7720  12.0637  13.0202  13.0496  13.3289  13.6110
    14.6044  15.2897

          k = 0.3750-0.1458 0.0000 (  5536 PWs)   bands (ev):

   -45.7049 -24.2214 -23.9569 -23.5617 -21.0244 -13.1400  -3.5747  -3.1222
    -2.9808  -2.5701  -1.5295  -0.6851   3.1038   5.8816   6.2589   6.9934
     7.4023   8.4515   9.7868  10.8043  11.8379  12.7026  14.3107  14.6024
    15.4038  16.1548

          k = 0.3750-0.0729 0.0000 (  5562 PWs)   bands (ev):

   -45.7083 -24.1846 -23.9466 -23.5891 -21.0199 -13.1695  -3.4860  -3.1366
    -3.0253  -2.3728  -1.5406  -0.8238   3.2508   5.6168   6.1974   6.8862
     7.3319   8.3811   9.7738  10.8308  12.0886  12.7581  13.8178  14.7042
    15.5330  16.1383

          k = 0.3750 0.0000 0.0000 (  5568 PWs)   bands (ev):

   -45.7095 -24.1712 -23.9375 -23.6051 -21.0178 -13.1797  -3.4398  -3.1516
    -3.0439  -2.2799  -1.5499  -0.8996   3.3275   5.4508   6.2580   6.7943
     7.3273   8.3632   9.7743  10.8436  12.4073  12.7470  13.3718  14.6554
    15.9096  16.0314

          k = 0.4375 0.2551 0.0000 (  5550 PWs)   bands (ev):

   -45.6915 -24.3336 -23.9318 -23.5702 -21.0309 -13.0162  -3.7285  -3.1662
    -2.9700  -2.9095  -1.5215  -0.6884   2.9759   6.1547   6.6751   7.2263
     7.9042   9.2994  10.0775  11.1389  11.8824  12.5385  13.1323  14.4895
    14.9009  15.1159

          k = 0.4375 0.3280 0.0000 (  5543 PWs)   bands (ev):

   -45.6884 -24.3443 -23.9217 -23.5955 -21.0293 -12.9868  -3.7228  -3.2293
    -3.0188  -2.8509  -1.5265  -0.8026   3.0397   6.2561   6.6607   7.2201
     7.8703   9.8050  10.2528  11.3417  11.7872  12.3940  13.1479  14.1760
    14.6929  15.0890

          k = 0.4375 0.4009 0.0000 (  5573 PWs)   bands (ev):

   -45.6855 -24.3248 -23.9116 -23.6566 -21.0219 -12.9590  -3.6516  -3.3174
    -3.0314  -2.7430  -1.5489  -1.0759   3.2379   6.3585   6.5717   7.1689
     7.6169  10.2795  10.7328  11.6537  11.6982  12.4020  13.1673  14.0020
    14.7678  15.0520

          k = 0.4375 0.4738 0.0000 (  5562 PWs)   bands (ev):

   -45.6833 -24.2835 -23.9036 -23.7348 -21.0127 -12.9371  -3.5852  -3.3349
    -3.0236  -2.6236  -1.6123  -1.3822   3.5062   6.3146   6.4303   7.1573
     7.4254  10.5140  11.1177  11.7860  12.1003  12.5994  13.1779  14.0909
    14.6465  15.3899

          k = 0.4375 0.5467 0.0000 (  5564 PWs)   bands (ev):

   -45.6822 -24.2449 -23.8988 -23.7954 -21.0065 -12.9252  -3.5840  -3.2734
    -3.0117  -2.5175  -1.7811  -1.5051   3.7229   6.0574   6.4599   7.0829
     7.4394  10.6509  11.1268  11.8088  12.6092  13.0260  13.3667  14.0230
    14.4103  15.1058

          k = 0.4375-0.1822 0.0000 (  5552 PWs)   bands (ev):

   -45.6943 -24.2960 -23.9394 -23.5843 -21.0262 -13.0424  -3.6658  -3.1531
    -3.0131  -2.7812  -1.5296  -0.7656   3.0590   6.1213   6.5107   7.1574
     7.6844   9.1684  10.0504  11.0970  11.9313  12.6714  13.3909  14.5837
    14.8789  15.6437

          k = 0.4375-0.1093 0.0000 (  5552 PWs)   bands (ev):

   -45.6965 -24.2457 -23.9419 -23.6253 -21.0183 -13.0620  -3.5707  -3.1538
    -3.0543  -2.6103  -1.5494  -0.9624   3.2366   5.9898   6.3030   7.0454
     7.5550   9.1762  10.1206  11.2078  12.0523  12.6929  13.8686  14.3275
    14.8189  16.0303

          k = 0.4375-0.0364 0.0000 (  5540 PWs)   bands (ev):

   -45.6977 -24.2080 -23.9393 -23.6638 -21.0126 -13.0724  -3.5001  -3.1524
    -3.0805  -2.4715  -1.5789  -1.1296   3.3963   5.6785   6.3988   6.8834
     7.5509   9.1824  10.1932  11.3079  12.3686  12.6431  13.8734  14.0987
    15.0018  15.8580

          k =-0.5000-0.2916 0.0000 (  5556 PWs)   bands (ev):

   -45.6885 -24.3586 -23.9221 -23.5758 -21.0327 -12.9879  -3.7606  -3.2048
    -2.9764  -2.9393  -1.5195  -0.7068   2.9663   6.2313   6.7214   7.2625
     8.0531   9.6592  10.1653  11.3990  11.5991  12.3074  13.2000  14.1530
    14.7007  14.9435

          k =-0.5000-0.2187 0.0000 (  5555 PWs)   bands (ev):

   -45.6885 -24.3431 -23.9219 -23.5961 -21.0290 -12.9876  -3.7216  -3.2292
    -3.0185  -2.8480  -1.5267  -0.8058   3.0422   6.2535   6.6731   7.2162
     7.8681   9.7859  10.2476  11.3366  11.8013  12.3930  13.1429  14.1839
    14.7118  15.0782

          k =-0.5000-0.1458 0.0000 (  5555 PWs)   bands (ev):

   -45.6885 -24.3021 -23.9211 -23.6490 -21.0203 -12.9869  -3.6292  -3.2658
    -3.0360  -2.7149  -1.5494  -1.0500   3.2379   6.3095   6.4244   7.1466
     7.6172   9.9810  10.3906  11.4410  12.0495  12.6492  13.1151  14.2028
    14.6500  15.5586

          k =-0.5000-0.0729 0.0000 (  5559 PWs)   bands (ev):

   -45.6885 -24.2539 -23.9193 -23.7100 -21.0117 -12.9862  -3.5528  -3.2616
    -3.0400  -2.5804  -1.5982  -1.2993   3.4655   6.0124   6.4307   7.0372
     7.5574  10.0811  10.5103  11.6534  12.2587  12.7501  13.4985  14.1596
    14.4923  15.7230

          k =-0.5000 0.0000 0.0000 (  5546 PWs)   bands (ev):

   -45.6885 -24.2308 -23.9179 -23.7391 -21.0082 -12.9859  -3.5320  -3.2421
    -3.0410  -2.5102  -1.6503  -1.3906   3.5767   5.8257   6.4926   6.9567
     7.5700  10.1015  10.5688  11.7047  12.4443  12.7629  13.7764  14.1242
    14.3881  15.2906

     highest occupied, lowest unoccupied level (ev):     3.8996    5.2074

!    total energy              =    -446.24486298 Ry
     total all-electron energy =     -8320.715143 Ry
     estimated scf accuracy    <          4.7E-09 Ry

     The total energy is the sum of the following terms:
     one-electron contribution =    -302.04326000 Ry
     hartree contribution      =     159.09567626 Ry
     xc contribution           =     -38.49851165 Ry
     ewald contribution        =       1.82539001 Ry
     one-center paw contrib.   =    -266.62415759 Ry

     convergence has been achieved in   4 iterations

     negative rho (up, down):  8.500E-05 0.000E+00

     Forces acting on atoms (cartesian axes, Ry/au):

     atom    1 type  1   force =     0.00000000   -0.00043080   -0.00004672
     atom    2 type  2   force =     0.00000000    0.00001743   -0.00131173
     atom    3 type  3   force =     0.00000000    0.00041337    0.00135845
     The non-local contrib.  to forces
     atom    1 type  1   force =     0.00000000   -0.00237326   -0.02193926
     atom    2 type  2   force =     0.00000000   -0.01394575   -1.08338344
     atom    3 type  3   force =     0.00000000   -0.00047248    0.22375729
     The ionic contribution  to forces
     atom    1 type  1   force =    -0.00000001   -0.11581729   -0.32019280
     atom    2 type  2   force =     0.00000001    0.07722173   26.40605209
     atom    3 type  3   force =     0.00000000    0.03859555  -26.08585928
     The local contribution  to forces
     atom    1 type  1   force =    -0.00000000    0.11766770    0.33790136
     atom    2 type  2   force =     0.00000032   -0.06330873  -25.32765626
     atom    3 type  3   force =     0.00000004   -0.03762562   25.87096041
     The core correction contribution to forces
     atom    1 type  1   force =    -0.00000000    0.00008459    0.00372292
     atom    2 type  2   force =     0.00000000    0.00004234    0.00350256
     atom    3 type  3   force =    -0.00000000   -0.00009114   -0.00756618
     The Hubbard contrib.    to forces
     atom    1 type  1   force =     0.00000000    0.00000000    0.00000000
     atom    2 type  2   force =     0.00000000    0.00000000    0.00000000
     atom    3 type  3   force =     0.00000000    0.00000000    0.00000000
     The SCF correction term to forces
     atom    1 type  1   force =     0.00000000    0.00000025    0.00035802
     atom    2 type  2   force =     0.00000000    0.00000063    0.00007029
     atom    3 type  3   force =    -0.00000000   -0.00000015   -0.00003682

     Total force =     0.001981     Total SCF correction =     0.000367
     SCF correction compared to forces is large: reduce conv_thr to get better values
     Energy error            =      5.4E-06 Ry
     Gradient error          =      1.4E-03 Ry/Bohr

     number of scf cycles    =   2
     number of bfgs steps    =   1

     energy             old  =    -446.2448575575 Ry
     energy             new  =    -446.2448629837 Ry

     CASE: energy            _new < energy            _old


     WARNING: bfgs curvature condition failed, Theta= 0.988
     new trust radius        =       0.0019176505 bohr
     new conv_thr            =            1.0E-10 Ry


ATOMIC_POSITIONS (angstrom)
Zr            0.0000000000       -0.0006091005        9.5703066489
F            -0.0000000020        1.8815490716       10.9015370955
Cl           -0.0000000020        1.8820807375        7.8143311641



     Writing config-only to output data dir ./tmp/ZrFCl.save/
     NEW-OLD atomic charge density approx. for the potential

     Check: negative core charge=   -0.000005

     negative rho (up, down):  8.520E-05 0.000E+00

     total cpu time spent up to now is       23.6 secs

     Self-consistent Calculation

     iteration #  1     ecut=    65.00 Ry     beta= 0.70
     Davidson diagonalization with overlap
     ethr =  1.00E-06,  avg # of iterations =  2.0

     Threshold (ethr) on eigenvalues was too large:
     Diagonalizing with lowered threshold

     Davidson diagonalization with overlap
     ethr =  2.19E-09,  avg # of iterations =  4.0

     negative rho (up, down):  8.531E-05 0.000E+00

     total cpu time spent up to now is       26.6 secs

     total energy              =    -446.24486728 Ry
     estimated scf accuracy    <       0.00000063 Ry

     iteration #  2     ecut=    65.00 Ry     beta= 0.70
     Davidson diagonalization with overlap
     ethr =  2.42E-09,  avg # of iterations =  2.0

     negative rho (up, down):  8.520E-05 0.000E+00

     total cpu time spent up to now is       27.9 secs

     total energy              =    -446.24486727 Ry
     estimated scf accuracy    <       0.00000136 Ry

     iteration #  3     ecut=    65.00 Ry     beta= 0.70
     Davidson diagonalization with overlap
     ethr =  2.42E-09,  avg # of iterations =  1.9

     negative rho (up, down):  8.515E-05 0.000E+00

     total cpu time spent up to now is       29.2 secs

     total energy              =    -446.24486756 Ry
     estimated scf accuracy    <       0.00000004 Ry

     iteration #  4     ecut=    65.00 Ry     beta= 0.70
     Davidson diagonalization with overlap
     ethr =  1.60E-10,  avg # of iterations =  2.0

     negative rho (up, down):  8.514E-05 0.000E+00

     total cpu time spent up to now is       30.4 secs

     total energy              =    -446.24486757 Ry
     estimated scf accuracy    <          3.6E-09 Ry

     iteration #  5     ecut=    65.00 Ry     beta= 0.70
     Davidson diagonalization with overlap
     ethr =  1.40E-11,  avg # of iterations =  2.0

     negative rho (up, down):  8.514E-05 0.000E+00

     total cpu time spent up to now is       31.7 secs

     total energy              =    -446.24486757 Ry
     estimated scf accuracy    <          9.5E-10 Ry

     iteration #  6     ecut=    65.00 Ry     beta= 0.70
     Davidson diagonalization with overlap
     ethr =  3.66E-12,  avg # of iterations =  2.0

     negative rho (up, down):  8.513E-05 0.000E+00

     total cpu time spent up to now is       33.0 secs

     End of self-consistent calculation

          k = 0.0000 0.0000 0.0000 (  5487 PWs)   bands (ev):

   -45.7622 -24.3022 -23.4353 -23.4196 -21.1215 -13.6459  -3.7294  -2.9054
    -2.8840  -1.7692  -0.1534  -0.0977   3.4015   5.3010   5.4272   5.6486
     6.5007   6.5553   7.6607   8.4971  10.9096  13.5563  14.3390  14.4923
    15.3349  16.9713

          k = 0.0000 0.0729 0.0000 (  5487 PWs)   bands (ev):

   -45.7591 -24.2914 -23.4585 -23.4415 -21.1114 -13.6229  -3.6920  -2.9269
    -2.9058  -1.7568  -0.2533  -0.1832   3.4103   5.3591   5.3804   5.7407
     6.5122   6.5489   7.7833   8.6949  11.0344  13.6316  14.1951  14.4408
    15.1595  16.9367

          k = 0.0000 0.1458 0.0000 (  5503 PWs)   bands (ev):

   -45.7505 -24.2609 -23.5648 -23.4590 -21.0865 -13.5563  -3.5921  -3.0352
    -2.9084  -1.7382  -0.6520  -0.2649   3.4109   5.3093   5.5374   5.8675
     6.5933   6.6783   8.1212   9.1452  11.3980  13.5141  13.8238  14.7442
    14.8634  16.8330

          k = 0.0000 0.2187 0.0000 (  5526 PWs)   bands (ev):

   -45.7375 -24.2177 -23.7115 -23.4851 -21.0590 -13.4536  -3.4721  -3.1602
    -2.9168  -1.7672  -1.1347  -0.3795   3.3552   5.3394   5.8399   5.9043
     6.8539   6.9639   8.6054   9.6584  11.8638  13.0501  13.5928  15.0456
    15.2383  16.6601

          k = 0.0000 0.2916 0.0000 (  5542 PWs)   bands (ev):

   -45.7221 -24.1789 -23.8593 -23.5157 -21.0390 -13.3276  -3.4430  -3.2013
    -2.9332  -1.9991  -1.4417  -0.5039   3.2429   5.5118   6.0014   6.2544
     7.0428   7.4736   9.1360  10.1465  11.9010  12.9834  13.5818  15.5513
    15.8537  16.4538

          k = 0.0000 0.3645 0.0000 (  5526 PWs)   bands (ev):

   -45.7067 -24.1892 -23.9463 -23.5461 -21.0303 -13.1956  -3.5391  -3.1445
    -2.9562  -2.4121  -1.5070  -0.6182   3.1268   5.7470   6.2278   6.7217
     7.2450   8.0523   9.5892  10.5539  11.7667  12.7903  14.2851  15.2316
    15.8825  16.2037

          k = 0.0000 0.4373 0.0000 (  5532 PWs)   bands (ev):

   -45.6935 -24.2647 -23.9450 -23.5716 -21.0307 -13.0785  -3.6449  -3.1240
    -2.9804  -2.7499  -1.5119  -0.7080   3.0481   5.9696   6.5044   7.0681
     7.5494   8.6889   9.8875  10.8789  11.8579  12.7098  13.9491  14.8309
    15.4384  15.6971

          k = 0.0000 0.5102 0.0000 (  5556 PWs)   bands (ev):

   -45.6847 -24.3338 -23.9217 -23.5886 -21.0346 -12.9973  -3.7251  -3.1767
    -2.9989  -2.9072  -1.5070  -0.7647   3.0115   6.1515   6.6756   7.2045
     7.9159   9.3387  10.1003  11.1572  11.9366  12.6081  13.1804  14.5542
    14.9879  15.0130

          k = 0.0000-0.5831 0.0000 (  5554 PWs)   bands (ev):

   -45.6816 -24.3594 -23.9114 -23.5946 -21.0366 -12.9681  -3.7565  -3.2172
    -3.0057  -2.9383  -1.5043  -0.7841   3.0021   6.2307   6.7153   7.2393
     8.0765   9.7061  10.1768  11.4257  11.6779  12.3668  13.2402  14.2056
    14.7912  14.8337

          k = 0.0625 0.0364 0.0000 (  5496 PWs)   bands (ev):

   -45.7593 -24.2917 -23.4704 -23.4284 -21.1115 -13.6235  -3.6926  -2.9432
    -2.8882  -1.7577  -0.2954  -0.1367   3.4076   5.2808   5.4667   5.7365
     6.4756   6.5933   7.7789   8.6889  11.0311  13.6298  14.0995  14.5598
    15.1451  16.9828

          k = 0.0625 0.1093 0.0000 (  5497 PWs)   bands (ev):

   -45.7534 -24.2710 -23.5346 -23.4486 -21.0940 -13.5787  -3.6235  -3.0070
    -2.9016  -1.7422  -0.5412  -0.2233   3.4123   5.2807   5.5265   5.8475
     6.5080   6.6697   8.0095   9.0091  11.2782  13.6357  13.8341  14.6254
    14.9635  16.8653

          k = 0.0625 0.1822 0.0000 (  5525 PWs)   bands (ev):

   -45.7426 -24.2340 -23.6559 -23.4757 -21.0681 -13.4940  -3.5091  -3.1197
    -2.9147  -1.7431  -0.9618  -0.3449   3.3881   5.2592   5.7668   5.9175
     6.6963   6.8813   8.4218   9.4790  11.7358  13.1623  13.6873  14.7330
    15.2329  16.6610

          k = 0.0625 0.2551 0.0000 (  5564 PWs)   bands (ev):

   -45.7284 -24.1913 -23.7998 -23.5086 -21.0449 -13.3794  -3.4168  -3.2124
    -2.9347  -1.8547  -1.3555  -0.4850   3.3121   5.3519   5.9368   6.1832
     6.9161   7.2893   8.9340   9.9749  12.0749  12.9352  13.3888  15.1609
    15.7586  16.4342

          k = 0.0625 0.3280 0.0000 (  5542 PWs)   bands (ev):

   -45.7130 -24.1717 -23.9176 -23.5435 -21.0311 -13.2498  -3.4705  -3.1755
    -2.9641  -2.2037  -1.4977  -0.6233   3.2107   5.5839   6.0592   6.6298
     7.1228   7.8353   9.4372  10.4355  11.9034  12.8803  13.7800  15.4270
    15.9198  16.2391

          k = 0.0625 0.4009 0.0000 (  5554 PWs)   bands (ev):

   -45.6987 -24.2205 -23.9502 -23.5755 -21.0274 -13.1244  -3.5761  -3.1248
    -3.0024  -2.5738  -1.5185  -0.7425   3.1295   5.8753   6.2648   6.9793
     7.3895   8.4840   9.8229  10.8114  11.8544  12.7325  14.4023  14.6406
    15.4144  16.1798

          k = 0.0625 0.4738 0.0000 (  5554 PWs)   bands (ev):

   -45.6877 -24.2973 -23.9301 -23.5999 -21.0299 -13.0244  -3.6656  -3.1653
    -3.0268  -2.7915  -1.5165  -0.8291   3.0869   6.1161   6.5091   7.1415
     7.6923   9.2142  10.0829  11.1051  11.9662  12.7212  13.4587  14.6066
    14.9166  15.6475

          k = 0.0625 0.5467 0.0000 (  5554 PWs)   bands (ev):

   -45.6817 -24.3446 -23.9116 -23.6130 -21.0330 -12.9686  -3.7192  -3.2444
    -3.0303  -2.8608  -1.5126  -0.8744   3.0731   6.2530   6.6657   7.1980
     7.8892   9.8419  10.2609  11.3616  11.8576  12.4545  13.1797  14.2203
    14.7476  15.0530

          k = 0.1250 0.0729 0.0000 (  5514 PWs)   bands (ev):

   -45.7510 -24.2621 -23.5738 -23.4456 -21.0868 -13.5588  -3.5940  -3.0478
    -2.8914  -1.7414  -0.6849  -0.2162   3.3997   5.2449   5.6271   5.8554
     6.5735   6.7179   8.1073   9.1316  11.3855  13.4831  13.7891  14.8338
    14.8588  16.9009

          k = 0.1250 0.1458 0.0000 (  5541 PWs)   bands (ev):

   -45.7430 -24.2349 -23.6601 -23.4682 -21.0683 -13.4959  -3.5103  -3.1255
    -2.9060  -1.7458  -0.9783  -0.3159   3.3783   5.2462   5.7985   5.9094
     6.6968   6.8908   8.4131   9.4722  11.7268  13.1472  13.6745  14.7364
    15.2632  16.6905

          k = 0.1250 0.2187 0.0000 (  5547 PWs)   bands (ev):

   -45.7309 -24.1974 -23.7760 -23.5052 -21.0471 -13.3991  -3.4061  -3.2169
    -2.9360  -1.8118  -1.3093  -0.4809   3.3409   5.2508   5.9567   6.1916
     6.8367   7.2434   8.8571   9.9142  12.2467  12.7481  13.3666  14.9635
    15.7854  16.4046

          k = 0.1250 0.2916 0.0000 (  5544 PWs)   bands (ev):

   -45.7167 -24.1677 -23.8876 -23.5502 -21.0309 -13.2802  -3.3995  -3.2154
    -2.9810  -2.0550  -1.4916  -0.6698   3.2953   5.3650   6.0642   6.6063
     7.0315   7.7468   9.3555  10.3880  12.2892  12.8896  13.1765  15.2069
    15.8167  16.7495

          k = 0.1250 0.3645 0.0000 (  5539 PWs)   bands (ev):

   -45.7024 -24.1849 -23.9432 -23.5957 -21.0230 -13.1560  -3.4909  -3.1384
    -3.0420  -2.3869  -1.5347  -0.8498   3.2603   5.6226   6.1918   6.8703
     7.3347   8.4093   9.8135  10.8419  12.0778  12.7677  13.8464  14.7456
    15.5825  16.1709

          k = 0.1250 0.4373 0.0000 (  5547 PWs)   bands (ev):

   -45.6903 -24.2492 -23.9343 -23.6345 -21.0221 -13.0461  -3.5750  -3.1702
    -3.0591  -2.6268  -1.5408  -0.9976   3.2494   5.9872   6.3046   7.0242
     7.5742   9.2197  10.1645  11.2099  12.0580  12.7193  13.9243  14.3608
    14.8422  16.0587

          k = 0.1250 0.5102 0.0000 (  5560 PWs)   bands (ev):

   -45.6821 -24.3054 -23.9119 -23.6606 -21.0244 -12.9700  -3.6313  -3.2831
    -3.0409  -2.7313  -1.5394  -1.0947   3.2557   6.3100   6.4227   7.1264
     7.6421  10.0423  10.4268  11.4380  12.0692  12.7029  13.1550  14.2144
    14.6893  15.5776

          k = 0.1250 0.5831 0.0000 (  5572 PWs)   bands (ev):

   -45.6793 -24.3263 -23.9023 -23.6699 -21.0257 -12.9428  -3.6513  -3.3334
    -3.0364  -2.7561  -1.5384  -1.1285   3.2609   6.3592   6.5781   7.1504
     7.6361  10.3339  10.7282  11.6552  11.7657  12.4421  13.1943  14.0463
    14.8180  15.0456

          k = 0.1250 0.0000 0.0000 (  5508 PWs)   bands (ev):

   -45.7538 -24.2719 -23.5411 -23.4389 -21.0942 -13.5806  -3.6249  -3.0172
    -2.8882  -1.7445  -0.5626  -0.1914   3.4062   5.2221   5.6033   5.8368
     6.5118   6.6836   7.9982   8.9978  11.2695  13.6140  13.7978  14.6959
    14.9731  16.9120

          k = 0.1875 0.1093 0.0000 (  5541 PWs)   bands (ev):

   -45.7385 -24.2203 -23.7175 -23.4702 -21.0593 -13.4592  -3.4750  -3.1698
    -2.8990  -1.7748  -1.1574  -0.3246   3.3332   5.3070   5.8815   5.9238
     6.8849   6.9525   8.5822   9.6428  11.8441  13.0211  13.5660  15.0189
    15.3318  16.7293

          k = 0.1875 0.1822 0.0000 (  5556 PWs)   bands (ev):

   -45.7293 -24.1936 -23.8042 -23.4962 -21.0450 -13.3843  -3.4188  -3.2190
    -2.9211  -1.8652  -1.3696  -0.4376   3.2903   5.3485   5.9367   6.2093
     6.9356   7.2834   8.9167   9.9660  12.0665  12.9039  13.3692  15.1442
    15.8111  16.4684

          k = 0.1875 0.2551 0.0000 (  5552 PWs)   bands (ev):

   -45.7172 -24.1692 -23.8895 -23.5436 -21.0309 -13.2833  -3.4011  -3.2174
    -2.9745  -2.0630  -1.4956  -0.6444   3.2826   5.3680   6.0638   6.6129
     7.0432   7.7424   9.3471  10.3857  12.2941  12.8755  13.1530  15.1978
    15.8232  16.6945

          k = 0.1875 0.3280 0.0000 (  5538 PWs)   bands (ev):

   -45.7041 -24.1730 -23.9374 -23.6037 -21.0209 -13.1694  -3.4475  -3.1530
    -3.0559  -2.3053  -1.5485  -0.8935   3.3206   5.4647   6.2481   6.7824
     7.3409   8.3875   9.8104  10.8577  12.3802  12.7392  13.3811  14.6819
    15.9512  16.0487

          k = 0.1875 0.4009 0.0000 (  5549 PWs)   bands (ev):

   -45.6920 -24.2141 -23.9344 -23.6645 -21.0163 -13.0597  -3.5077  -3.1685
    -3.0823  -2.4977  -1.5759  -1.1296   3.3911   5.6862   6.4018   6.8587
     7.5790   9.2215  10.2417  11.3190  12.3418  12.6466  13.8930  14.1254
    15.0262  15.8619

          k = 0.1875 0.4738 0.0000 (  5548 PWs)   bands (ev):

   -45.6827 -24.2601 -23.9119 -23.7137 -21.0157 -12.9725  -3.5592  -3.2786
    -3.0429  -2.6016  -1.5979  -1.3074   3.4660   6.0170   6.4406   7.0078
     7.5904  10.1326  10.5753  11.6441  12.2447  12.7643  13.5435  14.1709
    14.5182  15.6922

          k = 0.1875 0.5467 0.0000 (  5565 PWs)   bands (ev):

   -45.6776 -24.2872 -23.8955 -23.7413 -21.0164 -12.9241  -3.5909  -3.3480
    -3.0270  -2.6381  -1.6171  -1.3973   3.5139   6.3269   6.4348   7.1353
     7.4493  10.5679  11.1770  11.7592  12.0986  12.6231  13.2189  14.1252
    14.6666  15.4078

          k = 0.1875-0.0364 0.0000 (  5537 PWs)   bands (ev):

   -45.7435 -24.2361 -23.6602 -23.4637 -21.0683 -13.4988  -3.5118  -3.1283
    -2.8988  -1.7484  -0.9771  -0.3060   3.3744   5.2125   5.8456   5.9078
     6.7315   6.8678   8.3988   9.4626  11.7164  13.1411  13.6641  14.7522
    15.2886  16.6990

          k = 0.2500 0.1458 0.0000 (  5551 PWs)   bands (ev):

   -45.7238 -24.1828 -23.8626 -23.4988 -21.0388 -13.3369  -3.4462  -3.2080
    -2.9137  -2.0128  -1.4529  -0.4422   3.2140   5.5043   5.9853   6.3118
     7.0755   7.4558   9.1068  10.1332  11.8915  12.9508  13.5372  15.5113
    15.9301  16.4677

          k = 0.2500 0.2187 0.0000 (  5543 PWs)   bands (ev):

   -45.7145 -24.1754 -23.9210 -23.5275 -21.0308 -13.2585  -3.4740  -3.1796
    -2.9472  -2.2190  -1.5064  -0.5636   3.1814   5.5872   6.0547   6.6551
     7.1502   7.8212   9.4149  10.4296  11.8963  12.8553  13.7206  15.3854
    15.9237  16.2119

          k = 0.2500 0.2916 0.0000 (  5547 PWs)   bands (ev):

   -45.7036 -24.1875 -23.9459 -23.5839 -21.0225 -13.1629  -3.4936  -3.1379
    -3.0334  -2.3974  -1.5398  -0.8067   3.2388   5.6256   6.1915   6.8808
     7.3496   8.4015   9.8006  10.8439  12.0759  12.7564  13.7864  14.7201
    15.5228  16.1660

          k = 0.2500 0.3645 0.0000 (  5552 PWs)   bands (ev):

   -45.6926 -24.2152 -23.9358 -23.6586 -21.0159 -13.0634  -3.5087  -3.1619
    -3.0853  -2.5014  -1.5771  -1.1098   3.3811   5.6848   6.4043   6.8621
     7.5834   9.2180  10.2366  11.3248  12.3479  12.6431  13.8598  14.0945
    14.9763  15.8914

          k = 0.2500 0.4373 0.0000 (  5541 PWs)   bands (ev):

   -45.6833 -24.2390 -23.9125 -23.7353 -21.0117 -12.9761  -3.5391  -3.2575
    -3.0447  -2.5380  -1.6498  -1.3740   3.5637   5.8309   6.5138   6.9225
     7.6070  10.1445  10.6390  11.7058  12.4683  12.7171  13.7730  14.1318
    14.3753  15.2811

          k = 0.2500 0.5102 0.0000 (  5572 PWs)   bands (ev):

   -45.6771 -24.2509 -23.8926 -23.7943 -21.0098 -12.9160  -3.5912  -3.2859
    -3.0154  -2.5370  -1.7867  -1.4946   3.7163   6.0654   6.4754   7.0676
     7.4605  10.6951  11.2114  11.7819  12.6086  13.0018  13.3936  14.0165
    14.4359  15.0789

          k = 0.2500 0.5831 0.0000 (  5578 PWs)   bands (ev):

   -45.6749 -24.2538 -23.8849 -23.8170 -21.0092 -12.8946  -3.6173  -3.2855
    -3.0047  -2.5304  -1.8611  -1.5200   3.7753   6.2199   6.4480   7.0742
     7.3896  10.7072  11.7728  12.1529  12.1809  12.8333  13.4479  13.9768
    14.5967  15.3336

          k = 0.2500-0.0729 0.0000 (  5546 PWs)   bands (ev):

   -45.7299 -24.1946 -23.8010 -23.4953 -21.0446 -13.3879  -3.4194  -3.2184
    -2.9173  -1.8626  -1.3624  -0.4411   3.2926   5.3299   5.9409   6.2341
     6.9505   7.2696   8.9031   9.9587  12.0636  12.9094  13.3707  15.1583
    15.7955  16.4574

          k = 0.2500 0.0000 0.0000 (  5548 PWs)   bands (ev):

   -45.7321 -24.1997 -23.7735 -23.4990 -21.0466 -13.4055  -3.4082  -3.2187
    -2.9255  -1.8140  -1.3032  -0.4679   3.3354   5.2240   5.9687   6.2292
     6.8649   7.2241   8.8316   9.9006  12.2304  12.7542  13.3605  14.9681
    15.7950  16.4064

          k = 0.3125 0.1822 0.0000 (  5547 PWs)   bands (ev):

   -45.7089 -24.1923 -23.9494 -23.5273 -21.0293 -13.2089  -3.5425  -3.1475
    -2.9343  -2.4223  -1.5172  -0.5505   3.0953   5.7536   6.2123   6.7561
     7.2774   8.0290   9.5597  10.5464  11.7513  12.7608  14.2044  15.1467
    15.9563  16.1451

          k = 0.3125 0.2551 0.0000 (  5547 PWs)   bands (ev):

   -45.7008 -24.2231 -23.9543 -23.5569 -21.0263 -13.1371  -3.5804  -3.1239
    -2.9849  -2.5839  -1.5283  -0.6750   3.0974   5.8824   6.2547   7.0018
     7.4129   8.4663   9.8020  10.8120  11.8339  12.7035  14.2956  14.5780
    15.4390  16.1346

          k = 0.3125 0.3280 0.0000 (  5546 PWs)   bands (ev):

   -45.6921 -24.2508 -23.9383 -23.6194 -21.0209 -13.0569  -3.5784  -3.1577
    -3.0600  -2.6306  -1.5479  -0.9447   3.2244   5.9859   6.3037   7.0385
     7.5838   9.2087  10.1525  11.2221  12.0416  12.6995  13.8499  14.2948
    14.8147  16.0168

          k = 0.3125 0.4009 0.0000 (  5558 PWs)   bands (ev):

   -45.6839 -24.2605 -23.9149 -23.7040 -21.0145 -12.9803  -3.5593  -3.2724
    -3.0443  -2.6017  -1.5975  -1.2794   3.4523   6.0052   6.4481   7.0143
     7.5954  10.1187  10.5693  11.6671  12.2516  12.7485  13.4631  14.1461
    14.4628  15.7216

          k = 0.3125 0.4738 0.0000 (  5557 PWs)   bands (ev):

   -45.6777 -24.2503 -23.8943 -23.7903 -21.0090 -12.9200  -3.5891  -3.2844
    -3.0157  -2.5362  -1.7763  -1.4936   3.7130   6.0537   6.4802   7.0706
     7.4641  10.6782  11.2103  11.7960  12.6370  12.9763  13.3288  14.0393
    14.4093  15.0943

          k = 0.3125 0.5467 0.0000 (  5570 PWs)   bands (ev):

   -45.6743 -24.2338 -23.8824 -23.8490 -21.0059 -12.8867  -3.6365  -3.2371
    -2.9894  -2.4563  -2.0181  -1.5437   3.8963   6.1423   6.4530   6.9849
     7.4434  10.7141  11.7620  12.1402  12.9651  13.0797  13.2401  13.6696
    14.6189  15.3101

          k = 0.3125-0.1093 0.0000 (  5549 PWs)   bands (ev):

   -45.7151 -24.1747 -23.9181 -23.5285 -21.0299 -13.2622  -3.4719  -3.1795
    -2.9449  -2.2073  -1.5048  -0.5736   3.1888   5.5821   6.0593   6.6591
     7.1520   7.8130   9.4030  10.4227  11.9013  12.8582  13.7383  15.3901
    15.8999  16.2139

          k = 0.3125-0.0364 0.0000 (  5566 PWs)   bands (ev):

   -45.7185 -24.1698 -23.8841 -23.5425 -21.0296 -13.2905  -3.3987  -3.2179
    -2.9680  -2.0482  -1.4911  -0.6521   3.2891   5.3524   6.0778   6.6277
     7.0502   7.7279   9.3231  10.3737  12.3043  12.8805  13.1627  15.1906
    15.7824  16.7026

          k = 0.3750 0.2187 0.0000 (  5548 PWs)   bands (ev):

   -45.6964 -24.2649 -23.9504 -23.5512 -21.0288 -13.0953  -3.6491  -3.1213
    -2.9562  -2.7553  -1.5241  -0.6357   3.0159   5.9793   6.4959   7.0911
     7.5674   8.6599   9.8620  10.8724  11.8257  12.6700  13.8545  14.7567
    15.5190  15.6179

          k = 0.3750 0.2916 0.0000 (  5547 PWs)   bands (ev):

   -45.6904 -24.2975 -23.9360 -23.5797 -21.0279 -13.0406  -3.6710  -3.1546
    -3.0163  -2.7912  -1.5283  -0.7581   3.0547   6.1264   6.4955   7.1671
     7.6968   9.1943  10.0662  11.1034  11.9271  12.6759  13.3806  14.5541
    14.9014  15.6284

          k = 0.3750 0.3645 0.0000 (  5566 PWs)   bands (ev):

   -45.6845 -24.3049 -23.9173 -23.6441 -21.0223 -12.9843  -3.6350  -3.2705
    -3.0395  -2.7257  -1.5484  -1.0393   3.2316   6.3212   6.4042   7.1465
     7.6413  10.0172  10.4244  11.4512  12.0286  12.6516  13.1086  14.1855
    14.6313  15.5515

          k = 0.3750 0.4373 0.0000 (  5558 PWs)   bands (ev):

   -45.6794 -24.2853 -23.8999 -23.7304 -21.0143 -12.9354  -3.5889  -3.3410
    -3.0266  -2.6315  -1.6122  -1.3739   3.5025   6.3013   6.4471   7.1505
     7.4492  10.5299  11.1799  11.7955  12.0536  12.5945  13.1808  14.0799
    14.6391  15.3745

          k = 0.3750 0.5102 0.0000 (  5558 PWs)   bands (ev):

   -45.6761 -24.2504 -23.8878 -23.8124 -21.0076 -12.9020  -3.6131  -3.2810
    -3.0040  -2.5229  -1.8472  -1.5245   3.7763   6.2019   6.4501   7.0773
     7.3964  10.6725  11.7980  12.0955  12.1563  12.8857  13.4135  13.9649
    14.5965  15.3008

          k = 0.3750 0.5831 0.0000 (  5558 PWs)   bands (ev):

   -45.6749 -24.2306 -23.8834 -23.8491 -21.0050 -12.8902  -3.6345  -3.2335
    -2.9883  -2.4465  -2.0199  -1.5476   3.9014   6.1401   6.4473   6.9823
     7.4473  10.6953  11.7731  12.0629  13.0197  13.0487  13.3322  13.6132
    14.6040  15.2897

          k = 0.3750-0.1458 0.0000 (  5536 PWs)   bands (ev):

   -45.7014 -24.2199 -23.9539 -23.5585 -21.0254 -13.1404  -3.5773  -3.1242
    -2.9835  -2.5710  -1.5286  -0.6863   3.1062   5.8857   6.2629   6.9963
     7.4060   8.4541   9.7897  10.8043  11.8385  12.7042  14.3118  14.6015
    15.4048  16.1559

          k = 0.3750-0.0729 0.0000 (  5562 PWs)   bands (ev):

   -45.7048 -24.1830 -23.9437 -23.5859 -21.0208 -13.1698  -3.4886  -3.1388
    -3.0279  -2.3738  -1.5396  -0.8247   3.2529   5.6218   6.2011   6.8889
     7.3353   8.3831   9.7770  10.8305  12.0893  12.7597  13.8185  14.7062
    15.5325  16.1380

          k = 0.3750 0.0000 0.0000 (  5568 PWs)   bands (ev):

   -45.7059 -24.1696 -23.9347 -23.6019 -21.0187 -13.1800  -3.4425  -3.1538
    -3.0464  -2.2809  -1.5490  -0.9003   3.3294   5.4562   6.2620   6.7967
     7.3307   8.3650   9.7776  10.8430  12.4086  12.7480  13.3730  14.6576
    15.9086  16.0316

          k = 0.4375 0.2551 0.0000 (  5550 PWs)   bands (ev):

   -45.6879 -24.3321 -23.9287 -23.5671 -21.0319 -13.0166  -3.7308  -3.1675
    -2.9728  -2.9105  -1.5207  -0.6896   2.9786   6.1591   6.6781   7.2305
     7.9073   9.3045  10.0782  11.1400  11.8836  12.5383  13.1322  14.4898
    14.9023  15.1175

          k = 0.4375 0.3280 0.0000 (  5543 PWs)   bands (ev):

   -45.6848 -24.3429 -23.9186 -23.5924 -21.0303 -12.9873  -3.7250  -3.2306
    -3.0211  -2.8523  -1.5258  -0.8037   3.0423   6.2608   6.6633   7.2245
     7.8742   9.8099  10.2535  11.3430  11.7876  12.3943  13.1475  14.1773
    14.6936  15.0905

          k = 0.4375 0.4009 0.0000 (  5573 PWs)   bands (ev):

   -45.6820 -24.3235 -23.9085 -23.6536 -21.0228 -12.9595  -3.6539  -3.3192
    -3.0335  -2.7441  -1.5482  -1.0767   3.2404   6.3632   6.5741   7.1731
     7.6218  10.2821  10.7351  11.6550  11.6975  12.4034  13.1668  14.0031
    14.7690  15.0527

          k = 0.4375 0.4738 0.0000 (  5562 PWs)   bands (ev):

   -45.6798 -24.2822 -23.9005 -23.7318 -21.0136 -12.9377  -3.5876  -3.3369
    -3.0257  -2.6244  -1.6121  -1.3822   3.5084   6.3170   6.4354   7.1613
     7.4309  10.5158  11.1191  11.7860  12.1022  12.6004  13.1783  14.0916
    14.6472  15.3904

          k = 0.4375 0.5467 0.0000 (  5564 PWs)   bands (ev):

   -45.6786 -24.2436 -23.8956 -23.7923 -21.0074 -12.9257  -3.5866  -3.2755
    -3.0139  -2.5182  -1.7813  -1.5044   3.7247   6.0604   6.4650   7.0867
     7.4451  10.6524  11.1276  11.8096  12.6104  13.0285  13.3668  14.0235
    14.4107  15.1046

          k = 0.4375-0.1822 0.0000 (  5552 PWs)   bands (ev):

   -45.6908 -24.2946 -23.9364 -23.5811 -21.0271 -13.0429  -3.6682  -3.1547
    -3.0155  -2.7824  -1.5288  -0.7667   3.0615   6.1254   6.5144   7.1611
     7.6879   9.1723  10.0520  11.0977  11.9326  12.6720  13.3906  14.5838
    14.8804  15.6451

          k = 0.4375-0.1093 0.0000 (  5552 PWs)   bands (ev):

   -45.6930 -24.2443 -23.9388 -23.6222 -21.0192 -13.0624  -3.5732  -3.1559
    -3.0566  -2.6112  -1.5486  -0.9632   3.2388   5.9941   6.3072   7.0489
     7.5585   9.1785  10.1235  11.2078  12.0534  12.6941  13.8691  14.3282
    14.8193  16.0313

          k = 0.4375-0.0364 0.0000 (  5540 PWs)   bands (ev):

   -45.6942 -24.2066 -23.9363 -23.6607 -21.0135 -13.0728  -3.5026  -3.1547
    -3.0827  -2.4724  -1.5782  -1.1300   3.3981   5.6834   6.4033   6.8864
     7.5544   9.1838  10.1968  11.3074  12.3696  12.6443  13.8742  14.1014
    15.0011  15.8576

          k =-0.5000-0.2916 0.0000 (  5556 PWs)   bands (ev):

   -45.6849 -24.3572 -23.9190 -23.5727 -21.0337 -12.9884  -3.7629  -3.2058
    -2.9791  -2.9406  -1.5187  -0.7080   2.9690   6.2360   6.7241   7.2668
     8.0560   9.6653  10.1658  11.4010  11.5981  12.3082  13.1993  14.1547
    14.7009  14.9451

          k =-0.5000-0.2187 0.0000 (  5555 PWs)   bands (ev):

   -45.6849 -24.3417 -23.9188 -23.5930 -21.0300 -12.9881  -3.7239  -3.2305
    -3.0208  -2.8495  -1.5260  -0.8069   3.0448   6.2581   6.6759   7.2203
     7.8717   9.7910  10.2482  11.3378  11.8019  12.3934  13.1426  14.1849
    14.7127  15.0794

          k =-0.5000-0.1458 0.0000 (  5555 PWs)   bands (ev):

   -45.6850 -24.3007 -23.9180 -23.6459 -21.0212 -12.9874  -3.6315  -3.2676
    -3.0382  -2.7160  -1.5487  -1.0507   3.2403   6.3136   6.4280   7.1505
     7.6215   9.9840  10.3919  11.4416  12.0516  12.6494  13.1151  14.2035
    14.6507  15.5597

          k =-0.5000-0.0729 0.0000 (  5559 PWs)   bands (ev):

   -45.6850 -24.2526 -23.9162 -23.7070 -21.0126 -12.9867  -3.5553  -3.2637
    -3.0422  -2.5812  -1.5978  -1.2995   3.4675   6.0162   6.4355   7.0408
     7.5617  10.0820  10.5132  11.6533  12.2608  12.7515  13.4987  14.1604
    14.4926  15.7227

          k =-0.5000 0.0000 0.0000 (  5546 PWs)   bands (ev):

   -45.6850 -24.2295 -23.9148 -23.7360 -21.0091 -12.9864  -3.5346  -3.2443
    -3.0432  -2.5110  -1.6502  -1.3903   3.5785   5.8299   6.4976   6.9601
     7.5744  10.1017  10.5723  11.7047  12.4448  12.7659  13.7776  14.1253
    14.3874  15.2894

     highest occupied, lowest unoccupied level (ev):     3.9014    5.2125

!    total energy              =    -446.24486757 Ry
     total all-electron energy =     -8320.715147 Ry
     estimated scf accuracy    <          6.3E-11 Ry

     The total energy is the sum of the following terms:
     one-electron contribution =    -302.23238663 Ry
     hartree contribution      =     159.19123364 Ry
     xc contribution           =     -38.49945754 Ry
     ewald contribution        =       1.91993152 Ry
     one-center paw contrib.   =    -266.62418857 Ry

     convergence has been achieved in   6 iterations

     negative rho (up, down):  8.513E-05 0.000E+00

     Forces acting on atoms (cartesian axes, Ry/au):

     atom    1 type  1   force =     0.00000000   -0.00029139    0.00003981
     atom    2 type  2   force =     0.00000000   -0.00001301   -0.00100486
     atom    3 type  3   force =     0.00000000    0.00030439    0.00096504
     The non-local contrib.  to forces
     atom    1 type  1   force =     0.00000000   -0.00228196   -0.02193284
     atom    2 type  2   force =     0.00000000   -0.01377987   -1.08230859
     atom    3 type  3   force =     0.00000000   -0.00052701    0.22354617
     The ionic contribution  to forces
     atom    1 type  1   force =    -0.00000001   -0.11359093   -0.31593487
     atom    2 type  2   force =     0.00000001    0.07599341   26.41207015
     atom    3 type  3   force =     0.00000000    0.03759752  -26.09613528
     The local contribution  to forces
     atom    1 type  1   force =     0.00000000    0.11548992    0.33410312
     atom    2 type  2   force =     0.00000032   -0.06227659  -25.33435332
     atom    3 type  3   force =     0.00000004   -0.03668577   25.88102924
     The core correction contribution to forces
     atom    1 type  1   force =    -0.00000000    0.00008469    0.00373187
     atom    2 type  2   force =     0.00000000    0.00004201    0.00349767
     atom    3 type  3   force =    -0.00000000   -0.00008732   -0.00755842
     The Hubbard contrib.    to forces
     atom    1 type  1   force =     0.00000000    0.00000000    0.00000000
     atom    2 type  2   force =     0.00000000    0.00000000    0.00000000
     atom    3 type  3   force =     0.00000000    0.00000000    0.00000000
     The SCF correction term to forces
     atom    1 type  1   force =     0.00000000   -0.00000120   -0.00000992
     atom    2 type  2   force =     0.00000000   -0.00000007    0.00000679
     atom    3 type  3   force =    -0.00000000   -0.00000112    0.00000090

     Total force =     0.001456     Total SCF correction =     0.000012
     Energy error            =      4.6E-06 Ry
     Gradient error          =      1.0E-03 Ry/Bohr

     number of scf cycles    =   3
     number of bfgs steps    =   2

     energy             old  =    -446.2448629837 Ry
     energy             new  =    -446.2448675745 Ry

     CASE: energy            _new < energy            _old

     new trust radius        =       0.0028764758 bohr
     new conv_thr            =            1.0E-10 Ry


ATOMIC_POSITIONS (angstrom)
Zr            0.0000000000       -0.0010542289        9.5703367590
F            -0.0000000020        1.8815401970       10.9000541024
Cl           -0.0000000020        1.8825347405        7.8157840471



     Writing config-only to output data dir ./tmp/ZrFCl.save/
     NEW-OLD atomic charge density approx. for the potential

     Check: negative core charge=   -0.000005

     negative rho (up, down):  8.537E-05 0.000E+00

     total cpu time spent up to now is       33.4 secs

     Self-consistent Calculation

     iteration #  1     ecut=    65.00 Ry     beta= 0.70
     Davidson diagonalization with overlap
     ethr =  1.00E-06,  avg # of iterations =  3.0

     Threshold (ethr) on eigenvalues was too large:
     Diagonalizing with lowered threshold

     Davidson diagonalization with overlap
     ethr =  4.82E-09,  avg # of iterations =  2.7

     negative rho (up, down):  8.559E-05 0.000E+00

     total cpu time spent up to now is       36.5 secs

     total energy              =    -446.24487130 Ry
     estimated scf accuracy    <       0.00000136 Ry

     iteration #  2     ecut=    65.00 Ry     beta= 0.70
     Davidson diagonalization with overlap
     ethr =  5.25E-09,  avg # of iterations =  2.0

     negative rho (up, down):  8.542E-05 0.000E+00

     total cpu time spent up to now is       37.8 secs

     total energy              =    -446.24487135 Ry
     estimated scf accuracy    <       0.00000225 Ry

     iteration #  3     ecut=    65.00 Ry     beta= 0.70
     Davidson diagonalization with overlap
     ethr =  5.25E-09,  avg # of iterations =  1.9

     negative rho (up, down):  8.536E-05 0.000E+00

     total cpu time spent up to now is       39.0 secs

     total energy              =    -446.24487187 Ry
     estimated scf accuracy    <       0.00000014 Ry

     iteration #  4     ecut=    65.00 Ry     beta= 0.70
     Davidson diagonalization with overlap
     ethr =  5.25E-10,  avg # of iterations =  2.0

     negative rho (up, down):  8.534E-05 0.000E+00

     total cpu time spent up to now is       40.3 secs

     total energy              =    -446.24487189 Ry
     estimated scf accuracy    <       0.00000001 Ry

     iteration #  5     ecut=    65.00 Ry     beta= 0.70
     Davidson diagonalization with overlap
     ethr =  4.96E-11,  avg # of iterations =  2.0

     negative rho (up, down):  8.534E-05 0.000E+00

     total cpu time spent up to now is       41.6 secs

     total energy              =    -446.24487190 Ry
     estimated scf accuracy    <          2.7E-09 Ry

     iteration #  6     ecut=    65.00 Ry     beta= 0.70
     Davidson diagonalization with overlap
     ethr =  1.05E-11,  avg # of iterations =  2.0

     negative rho (up, down):  8.533E-05 0.000E+00

     total cpu time spent up to now is       42.9 secs

     total energy              =    -446.24487190 Ry
     estimated scf accuracy    <          1.5E-10 Ry

     iteration #  7     ecut=    65.00 Ry     beta= 0.70
     Davidson diagonalization with overlap
     ethr =  5.74E-13,  avg # of iterations =  2.0

     negative rho (up, down):  8.533E-05 0.000E+00

     total cpu time spent up to now is       44.1 secs

     End of self-consistent calculation

          k = 0.0000 0.0000 0.0000 (  5487 PWs)   bands (ev):

   -45.7568 -24.2992 -23.4304 -23.4146 -21.1237 -13.6457  -3.7328  -2.9113
    -2.8893  -1.7677  -0.1568  -0.0997   3.4103   5.3072   5.4348   5.6494
     6.5057   6.5572   7.6591   8.4964  10.9094  13.5519  14.3422  14.4954
    15.3473  16.9749

          k = 0.0000 0.0729 0.0000 (  5487 PWs)   bands (ev):

   -45.7537 -24.2884 -23.4537 -23.4366 -21.1134 -13.6227  -3.6954  -2.9320
    -2.9116  -1.7554  -0.2552  -0.1865   3.4189   5.3653   5.3881   5.7416
     6.5142   6.5540   7.7820   8.6940  11.0345  13.6276  14.1983  14.4439
    15.1706  16.9402

          k = 0.0000 0.1458 0.0000 (  5503 PWs)   bands (ev):

   -45.7451 -24.2579 -23.5602 -23.4541 -21.0884 -13.5561  -3.5957  -3.0400
    -2.9141  -1.7368  -0.6534  -0.2681   3.4187   5.3171   5.5433   5.8688
     6.5951   6.6838   8.1206   9.1438  11.3988  13.5167  13.8230  14.7469
    14.8705  16.8367

          k = 0.0000 0.2187 0.0000 (  5526 PWs)   bands (ev):

   -45.7321 -24.2147 -23.7071 -23.4803 -21.0607 -13.4536  -3.4761  -3.1645
    -2.9224  -1.7663  -1.1353  -0.3825   3.3621   5.3472   5.8455   5.9067
     6.8600   6.9652   8.6060   9.6567  11.8658  13.0527  13.5956  15.0471
    15.2404  16.6640

          k = 0.0000 0.2916 0.0000 (  5542 PWs)   bands (ev):

   -45.7167 -24.1761 -23.8550 -23.5109 -21.0406 -13.3277  -3.4476  -3.2048
    -2.9387  -1.9996  -1.4404  -0.5068   3.2491   5.5184   6.0054   6.2595
     7.0496   7.4749   9.1381  10.1451  11.9035  12.9876  13.5827  15.5514
    15.8546  16.4583

          k = 0.0000 0.3645 0.0000 (  5526 PWs)   bands (ev):

   -45.7012 -24.1866 -23.9418 -23.5413 -21.0319 -13.1959  -3.5434  -3.1478
    -2.9616  -2.4129  -1.5050  -0.6208   3.1327   5.7518   6.2333   6.7266
     7.2523   8.0546   9.5930  10.5527  11.7680  12.7949  14.2851  15.2317
    15.8852  16.2043

          k = 0.0000 0.4373 0.0000 (  5532 PWs)   bands (ev):

   -45.6881 -24.2623 -23.9404 -23.5668 -21.0322 -13.0789  -3.6488  -3.1269
    -2.9857  -2.7510  -1.5099  -0.7104   3.0541   5.9738   6.5097   7.0739
     7.5558   8.6933   9.8910  10.8781  11.8597  12.7131  13.9479  14.8310
    15.4419  15.7009

          k = 0.0000 0.5102 0.0000 (  5556 PWs)   bands (ev):

   -45.6792 -24.3314 -23.9171 -23.5839 -21.0361 -12.9977  -3.7286  -3.1786
    -3.0040  -2.9093  -1.5050  -0.7670   3.0176   6.1561   6.6799   7.2114
     7.9212   9.3457  10.1015  11.1582  11.9391  12.6086  13.1799  14.5552
    14.9906  15.0168

          k = 0.0000-0.5831 0.0000 (  5554 PWs)   bands (ev):

   -45.6761 -24.3570 -23.9068 -23.5898 -21.0382 -12.9686  -3.7597  -3.2189
    -3.0109  -2.9409  -1.5024  -0.7864   3.0083   6.2356   6.7191   7.2466
     8.0815   9.7139  10.1782  11.4294  11.6756  12.3686  13.2390  14.2090
    14.7918  14.8376

          k = 0.0625 0.0364 0.0000 (  5496 PWs)   bands (ev):

   -45.7539 -24.2887 -23.4656 -23.4234 -21.1136 -13.6233  -3.6960  -2.9488
    -2.8935  -1.7563  -0.2983  -0.1389   3.4160   5.2873   5.4741   5.7375
     6.4798   6.5959   7.7776   8.6882  11.0312  13.6258  14.1031  14.5628
    15.1554  16.9867

          k = 0.0625 0.1093 0.0000 (  5497 PWs)   bands (ev):

   -45.7480 -24.2680 -23.5299 -23.4437 -21.0960 -13.5786  -3.6270  -3.0122
    -2.9072  -1.7408  -0.5431  -0.2261   3.4201   5.2881   5.5331   5.8488
     6.5107   6.6740   8.0087   9.0080  11.2788  13.6366  13.8343  14.6288
    14.9709  16.8689

          k = 0.0625 0.1822 0.0000 (  5525 PWs)   bands (ev):

   -45.7372 -24.2309 -23.6514 -23.4708 -21.0699 -13.4940  -3.5128  -3.1244
    -2.9202  -1.7420  -0.9629  -0.3478   3.3951   5.2671   5.7726   5.9196
     6.7001   6.8847   8.4219   9.4775  11.7371  13.1657  13.6892  14.7348
    15.2358  16.6647

          k = 0.0625 0.2551 0.0000 (  5564 PWs)   bands (ev):

   -45.7230 -24.1883 -23.7955 -23.5038 -21.0465 -13.3795  -3.4211  -3.2163
    -2.9401  -1.8547  -1.3549  -0.4877   3.3182   5.3596   5.9398   6.1885
     6.9222   7.2909   8.9355   9.9733  12.0775  12.9379  13.3918  15.1605
    15.7600  16.4383

          k = 0.0625 0.3280 0.0000 (  5542 PWs)   bands (ev):

   -45.7075 -24.1690 -23.9132 -23.5388 -21.0326 -13.2500  -3.4749  -3.1789
    -2.9694  -2.2045  -1.4960  -0.6259   3.2164   5.5905   6.0633   6.6347
     7.1299   7.8370   9.4403  10.4341  11.9051  12.8850  13.7808  15.4280
    15.9208  16.2392

          k = 0.0625 0.4009 0.0000 (  5554 PWs)   bands (ev):

   -45.6932 -24.2181 -23.9456 -23.5708 -21.0289 -13.1248  -3.5802  -3.1282
    -3.0075  -2.5748  -1.5166  -0.7448   3.1352   5.8802   6.2702   6.9848
     7.3962   8.4869   9.8270  10.8102  11.8557  12.7364  14.4020  14.6416
    15.4168  16.1822

          k = 0.0625 0.4738 0.0000 (  5554 PWs)   bands (ev):

   -45.6822 -24.2948 -23.9255 -23.5951 -21.0314 -13.0248  -3.6693  -3.1682
    -3.0313  -2.7933  -1.5146  -0.8312   3.0928   6.1205   6.5141   7.1481
     7.6984   9.2190  10.0856  11.1051  11.9687  12.7233  13.4577  14.6082
    14.9188  15.6513

          k = 0.0625 0.5467 0.0000 (  5554 PWs)   bands (ev):

   -45.6763 -24.3421 -23.9070 -23.6083 -21.0346 -12.9691  -3.7225  -3.2468
    -3.0345  -2.8635  -1.5108  -0.8764   3.0790   6.2579   6.6696   7.2050
     7.8954   9.8483  10.2624  11.3632  11.8584  12.4556  13.1793  14.2226
    14.7493  15.0560

          k = 0.1250 0.0729 0.0000 (  5514 PWs)   bands (ev):

   -45.7456 -24.2591 -23.5693 -23.4406 -21.0887 -13.5587  -3.5975  -3.0531
    -2.8966  -1.7402  -0.6870  -0.2184   3.4069   5.2523   5.6338   5.8574
     6.5764   6.7212   8.1068   9.1307  11.3862  13.4861  13.7884  14.8377
    14.8631  16.9044

          k = 0.1250 0.1458 0.0000 (  5541 PWs)   bands (ev):

   -45.7375 -24.2318 -23.6557 -23.4633 -21.0700 -13.4959  -3.5139  -3.1304
    -2.9113  -1.7449  -0.9795  -0.3184   3.3848   5.2541   5.8047   5.9117
     6.7002   6.8942   8.4133   9.4709  11.7281  13.1507  13.6762  14.7379
    15.2659  16.6943

          k = 0.1250 0.2187 0.0000 (  5547 PWs)   bands (ev):

   -45.7255 -24.1944 -23.7718 -23.5004 -21.0487 -13.3991  -3.4102  -3.2213
    -2.9412  -1.8117  -1.3091  -0.4833   3.3466   5.2591   5.9598   6.1969
     6.8422   7.2453   8.8585   9.9126  12.2487  12.7514  13.3699  14.9627
    15.7871  16.4085

          k = 0.1250 0.2916 0.0000 (  5544 PWs)   bands (ev):

   -45.7113 -24.1649 -23.8833 -23.5455 -21.0324 -13.2804  -3.4041  -3.2190
    -2.9860  -2.0557  -1.4902  -0.6720   3.3004   5.3731   6.0675   6.6111
     7.0385   7.7482   9.3584  10.3864  12.2913  12.8942  13.1781  15.2074
    15.8176  16.7508

          k = 0.1250 0.3645 0.0000 (  5539 PWs)   bands (ev):

   -45.6970 -24.1824 -23.9387 -23.5910 -21.0244 -13.1563  -3.4951  -3.1421
    -3.0468  -2.3877  -1.5331  -0.8516   3.2653   5.6299   6.1957   6.8760
     7.3411   8.4112   9.8178  10.8404  12.0790  12.7716  13.8481  14.7483
    15.5826  16.1709

          k = 0.1250 0.4373 0.0000 (  5547 PWs)   bands (ev):

   -45.6848 -24.2468 -23.9297 -23.6298 -21.0236 -13.0465  -3.5789  -3.1742
    -3.0630  -2.6280  -1.5392  -0.9991   3.2545   5.9929   6.3095   7.0307
     7.5803   9.2222  10.1689  11.2089  12.0598  12.7219  13.9251  14.3624
    14.8437  16.0613

          k = 0.1250 0.5102 0.0000 (  5560 PWs)   bands (ev):

   -45.6767 -24.3030 -23.9072 -23.6560 -21.0259 -12.9705  -3.6349  -3.2865
    -3.0446  -2.7332  -1.5379  -1.0960   3.2610   6.3146   6.4276   7.1332
     7.6491  10.0456  10.4298  11.4384  12.0725  12.7037  13.1547  14.2163
    14.6905  15.5808

          k = 0.1250 0.5831 0.0000 (  5572 PWs)   bands (ev):

   -45.6738 -24.3239 -23.8976 -23.6652 -21.0272 -12.9433  -3.6547  -3.3366
    -3.0400  -2.7583  -1.5370  -1.1297   3.2663   6.3646   6.5814   7.1574
     7.6439  10.3368  10.7327  11.6583  11.7634  12.4448  13.1941  14.0477
    14.8201  15.0478

          k = 0.1250 0.0000 0.0000 (  5508 PWs)   bands (ev):

   -45.7484 -24.2689 -23.5366 -23.4339 -21.0961 -13.5805  -3.6283  -3.0227
    -2.8933  -1.7432  -0.5651  -0.1934   3.4136   5.2292   5.6104   5.8385
     6.5156   6.6861   7.9975   8.9971  11.2699  13.6156  13.7977  14.6996
    14.9788  16.9151

          k = 0.1875 0.1093 0.0000 (  5541 PWs)   bands (ev):

   -45.7331 -24.2172 -23.7133 -23.4652 -21.0609 -13.4592  -3.4787  -3.1745
    -2.9040  -1.7744  -1.1581  -0.3267   3.3389   5.3150   5.8849   5.9298
     6.8893   6.9543   8.5830   9.6418  11.8459  13.0240  13.5681  15.0192
    15.3339  16.7326

          k = 0.1875 0.1822 0.0000 (  5556 PWs)   bands (ev):

   -45.7239 -24.1906 -23.8001 -23.4914 -21.0466 -13.3844  -3.4230  -3.2232
    -2.9262  -1.8657  -1.3689  -0.4398   3.2956   5.3565   5.9404   6.2148
     6.9409   7.2851   8.9184   9.9648  12.0692  12.9063  13.3717  15.1438
    15.8123  16.4723

          k = 0.1875 0.2551 0.0000 (  5552 PWs)   bands (ev):

   -45.7118 -24.1664 -23.8853 -23.5388 -21.0323 -13.2834  -3.4056  -3.2211
    -2.9794  -2.0640  -1.4940  -0.6464   3.2873   5.3762   6.0675   6.6178
     7.0500   7.7438   9.3501  10.3843  12.2967  12.8789  13.1546  15.1986
    15.8240  16.6959

          k = 0.1875 0.3280 0.0000 (  5538 PWs)   bands (ev):

   -45.6987 -24.1705 -23.9329 -23.5990 -21.0223 -13.1697  -3.4518  -3.1567
    -3.0605  -2.3061  -1.5470  -0.8950   3.3248   5.4729   6.2520   6.7881
     7.3472   8.3890   9.8149  10.8561  12.3816  12.7423  13.3833  14.6852
    15.9509  16.0488

          k = 0.1875 0.4009 0.0000 (  5549 PWs)   bands (ev):

   -45.6865 -24.2118 -23.9297 -23.6599 -21.0177 -13.0601  -3.5118  -3.1729
    -3.0860  -2.4986  -1.5748  -1.1304   3.3952   5.6935   6.4064   6.8651
     7.5851   9.2228  10.2471  11.3175  12.3430  12.6489  13.8958  14.1288
    15.0257  15.8619

          k = 0.1875 0.4738 0.0000 (  5548 PWs)   bands (ev):

   -45.6772 -24.2578 -23.9072 -23.7091 -21.0171 -12.9730  -3.5632  -3.2824
    -3.0465  -2.6028  -1.5974  -1.3075   3.4703   6.0228   6.4463   7.0143
     7.5973  10.1333  10.5803  11.6435  12.2477  12.7661  13.5443  14.1720
    14.5198  15.6918

          k = 0.1875 0.5467 0.0000 (  5565 PWs)   bands (ev):

   -45.6721 -24.2849 -23.8908 -23.7368 -21.0178 -12.9247  -3.5949  -3.3513
    -3.0304  -2.6396  -1.6171  -1.3967   3.5185   6.3306   6.4411   7.1418
     7.4577  10.5705  11.1797  11.7596  12.1013  12.6242  13.2194  14.1261
    14.6683  15.4090

          k = 0.1875-0.0364 0.0000 (  5537 PWs)   bands (ev):

   -45.7381 -24.2330 -23.6560 -23.4588 -21.0700 -13.4988  -3.5154  -3.1334
    -2.9038  -1.7476  -0.9786  -0.3079   3.3804   5.2204   5.8511   5.9117
     6.7343   6.8708   8.3992   9.4617  11.7175  13.1449  13.6654  14.7528
    15.2914  16.7020

          k = 0.2500 0.1458 0.0000 (  5551 PWs)   bands (ev):

   -45.7183 -24.1799 -23.8585 -23.4939 -21.0403 -13.3370  -3.4506  -3.2116
    -2.9185  -2.0140  -1.4514  -0.4443   3.2187   5.5116   5.9901   6.3173
     7.0810   7.4575   9.1093  10.1326  11.8939  12.9538  13.5380  15.5108
    15.9312  16.4694

          k = 0.2500 0.2187 0.0000 (  5543 PWs)   bands (ev):

   -45.7091 -24.1727 -23.9167 -23.5227 -21.0322 -13.2588  -3.4784  -3.1830
    -2.9520  -2.2201  -1.5046  -0.5655   3.1859   5.5944   6.0596   6.6602
     7.1566   7.8228   9.4184  10.4289  11.8982  12.8585  13.7213  15.3868
    15.9240  16.2119

          k = 0.2500 0.2916 0.0000 (  5547 PWs)   bands (ev):

   -45.6981 -24.1850 -23.9414 -23.5792 -21.0239 -13.1632  -3.4979  -3.1414
    -3.0381  -2.3983  -1.5381  -0.8082   3.2428   5.6332   6.1963   6.8862
     7.3560   8.4033   9.8053  10.8427  12.0775  12.7589  13.7878  14.7229
    15.5226  16.1663

          k = 0.2500 0.3645 0.0000 (  5552 PWs)   bands (ev):

   -45.6872 -24.2129 -23.9312 -23.6540 -21.0173 -13.0638  -3.5128  -3.1662
    -3.0889  -2.5021  -1.5759  -1.1106   3.3848   5.6923   6.4097   6.8680
     7.5896   9.2193  10.2423  11.3232  12.3498  12.6442  13.8619  14.0982
    14.9758  15.8919

          k = 0.2500 0.4373 0.0000 (  5541 PWs)   bands (ev):

   -45.6778 -24.2368 -23.9078 -23.7307 -21.0131 -12.9766  -3.5433  -3.2612
    -3.0482  -2.5388  -1.6497  -1.3735   3.5671   5.8375   6.5203   6.9282
     7.6139  10.1443  10.6449  11.7049  12.4694  12.7200  13.7758  14.1335
    14.3751  15.2798

          k = 0.2500 0.5102 0.0000 (  5572 PWs)   bands (ev):

   -45.6716 -24.2487 -23.8879 -23.7898 -21.0111 -12.9166  -3.5955  -3.2893
    -3.0188  -2.5380  -1.7874  -1.4930   3.7199   6.0701   6.4825   7.0739
     7.4687  10.6978  11.2125  11.7828  12.6111  13.0038  13.3936  14.0169
    14.4380  15.0775

          k = 0.2500 0.5831 0.0000 (  5578 PWs)   bands (ev):

   -45.6694 -24.2516 -23.8801 -23.8124 -21.0106 -12.8952  -3.6216  -3.2887
    -3.0080  -2.5315  -1.8618  -1.5182   3.7791   6.2227   6.4557   7.0819
     7.3980  10.7104  11.7748  12.1541  12.1791  12.8362  13.4491  13.9780
    14.5968  15.3340

          k = 0.2500-0.0729 0.0000 (  5546 PWs)   bands (ev):

   -45.7245 -24.1916 -23.7970 -23.4903 -21.0461 -13.3880  -3.4235  -3.2226
    -2.9221  -1.8633  -1.3618  -0.4429   3.2973   5.3381   5.9450   6.2396
     6.9548   7.2719   8.9050   9.9579  12.0660  12.9120  13.3728  15.1569
    15.7976  16.4605

          k = 0.2500 0.0000 0.0000 (  5548 PWs)   bands (ev):

   -45.7267 -24.1966 -23.7695 -23.4941 -21.0481 -13.4056  -3.4121  -3.2232
    -2.9302  -1.8143  -1.3032  -0.4695   3.3400   5.2325   5.9729   6.2344
     6.8687   7.2266   8.8333   9.8997  12.2319  12.7578  13.3629  14.9662
    15.7975  16.4093

          k = 0.3125 0.1822 0.0000 (  5547 PWs)   bands (ev):

   -45.7035 -24.1898 -23.9450 -23.5224 -21.0307 -13.2092  -3.5468  -3.1508
    -2.9390  -2.4233  -1.5154  -0.5523   3.0996   5.7595   6.2186   6.7610
     7.2836   8.0316   9.5638  10.5463  11.7523  12.7637  14.2050  15.1457
    15.9583  16.1457

          k = 0.3125 0.2551 0.0000 (  5547 PWs)   bands (ev):

   -45.6954 -24.2208 -23.9497 -23.5521 -21.0277 -13.1375  -3.5845  -3.1271
    -2.9896  -2.5847  -1.5266  -0.6767   3.1016   5.8883   6.2607   7.0072
     7.4192   8.4691   9.8066  10.8116  11.8350  12.7058  14.2969  14.5769
    15.4410  16.1370

          k = 0.3125 0.3280 0.0000 (  5546 PWs)   bands (ev):

   -45.6866 -24.2486 -23.9336 -23.6147 -21.0223 -13.0573  -3.5824  -3.1615
    -3.0636  -2.6315  -1.5465  -0.9459   3.2283   5.9922   6.3097   7.0444
     7.5902   9.2110  10.1575  11.2214  12.0435  12.7007  13.8503  14.2963
    14.8158  16.0196

          k = 0.3125 0.4009 0.0000 (  5558 PWs)   bands (ev):

   -45.6785 -24.2583 -23.9102 -23.6993 -21.0159 -12.9808  -3.5634  -3.2761
    -3.0476  -2.6026  -1.5967  -1.2797   3.4558   6.0111   6.4551   7.0201
     7.6026  10.1194  10.5748  11.6662  12.2547  12.7494  13.4636  14.1478
    14.4638  15.7219

          k = 0.3125 0.4738 0.0000 (  5557 PWs)   bands (ev):

   -45.6722 -24.2482 -23.8895 -23.7857 -21.0104 -12.9205  -3.5934  -3.2878
    -3.0191  -2.5370  -1.7767  -1.4923   3.7163   6.0585   6.4880   7.0767
     7.4724  10.6811  11.2114  11.7968  12.6391  12.9786  13.3290  14.0399
    14.4111  15.0928

          k = 0.3125 0.5467 0.0000 (  5570 PWs)   bands (ev):

   -45.6689 -24.2318 -23.8776 -23.8444 -21.0072 -12.8873  -3.6408  -3.2405
    -2.9927  -2.4572  -2.0182  -1.5422   3.8995   6.1449   6.4612   6.9933
     7.4517  10.7176  11.7637  12.1389  12.9640  13.0791  13.2440  13.6730
    14.6189  15.3106

          k = 0.3125-0.1093 0.0000 (  5549 PWs)   bands (ev):

   -45.7097 -24.1720 -23.9139 -23.5236 -21.0314 -13.2624  -3.4764  -3.1828
    -2.9495  -2.2085  -1.5031  -0.5753   3.1928   5.5895   6.0646   6.6635
     7.1577   7.8155   9.4067  10.4223  11.9029  12.8613  13.7390  15.3907
    15.9006  16.2135

          k = 0.3125-0.0364 0.0000 (  5566 PWs)   bands (ev):

   -45.7131 -24.1670 -23.8800 -23.5376 -21.0310 -13.2907  -3.4032  -3.2214
    -2.9725  -2.0496  -1.4896  -0.6535   3.2928   5.3609   6.0828   6.6315
     7.0557   7.7304   9.3265  10.3729  12.3066  12.8834  13.1640  15.1905
    15.7837  16.7030

          k = 0.3750 0.2187 0.0000 (  5548 PWs)   bands (ev):

   -45.6909 -24.2627 -23.9458 -23.5463 -21.0302 -13.0958  -3.6531  -3.1242
    -2.9608  -2.7562  -1.5225  -0.6374   3.0201   5.9851   6.5018   7.0964
     7.5733   8.6648   9.8656  10.8726  11.8271  12.6718  13.8542  14.7560
    15.5217  15.6206

          k = 0.3750 0.2916 0.0000 (  5547 PWs)   bands (ev):

   -45.6849 -24.2954 -23.9313 -23.5749 -21.0293 -13.0411  -3.6748  -3.1574
    -3.0202  -2.7926  -1.5268  -0.7596   3.0590   6.1325   6.5008   7.1733
     7.7028   9.1992  10.0693  11.1040  11.9291  12.6766  13.3799  14.5545
    14.9037  15.6311

          k = 0.3750 0.3645 0.0000 (  5566 PWs)   bands (ev):

   -45.6790 -24.3028 -23.9126 -23.6393 -21.0237 -12.9849  -3.6387  -3.2736
    -3.0429  -2.7271  -1.5472  -1.0403   3.2355   6.3273   6.4097   7.1527
     7.6485  10.0209  10.4275  11.4518  12.0315  12.6513  13.1082  14.1872
    14.6325  15.5538

          k = 0.3750 0.4373 0.0000 (  5558 PWs)   bands (ev):

   -45.6740 -24.2832 -23.8951 -23.7258 -21.0157 -12.9359  -3.5928  -3.3442
    -3.0298  -2.6326  -1.6116  -1.3739   3.5061   6.3049   6.4549   7.1565
     7.4579  10.5330  11.1820  11.7953  12.0563  12.5957  13.1811  14.0811
    14.6406  15.3751

          k = 0.3750 0.5102 0.0000 (  5558 PWs)   bands (ev):

   -45.6706 -24.2484 -23.8830 -23.8077 -21.0090 -12.9026  -3.6172  -3.2843
    -3.0072  -2.5238  -1.8475  -1.5232   3.7794   6.2047   6.4583   7.0849
     7.4051  10.6756  11.8001  12.0946  12.1560  12.8892  13.4150  13.9663
    14.5962  15.3012

          k = 0.3750 0.5831 0.0000 (  5558 PWs)   bands (ev):

   -45.6694 -24.2288 -23.8786 -23.8444 -21.0063 -12.8908  -3.6387  -3.2369
    -2.9916  -2.4474  -2.0198  -1.5462   3.9043   6.1425   6.4556   6.9907
     7.4559  10.6984  11.7751  12.0616  13.0189  13.0475  13.3371  13.6166
    14.6034  15.2896

          k = 0.3750-0.1458 0.0000 (  5536 PWs)   bands (ev):

   -45.6959 -24.2176 -23.9494 -23.5537 -21.0268 -13.1408  -3.5815  -3.1273
    -2.9878  -2.5721  -1.5269  -0.6878   3.1102   5.8918   6.2693   7.0008
     7.4120   8.4578   9.7941  10.8043  11.8395  12.7066  14.3135  14.6002
    15.4065  16.1578

          k = 0.3750-0.0729 0.0000 (  5562 PWs)   bands (ev):

   -45.6993 -24.1807 -23.9392 -23.5811 -21.0221 -13.1702  -3.4929  -3.1421
    -3.0320  -2.3750  -1.5381  -0.8258   3.2564   5.6296   6.2070   6.8930
     7.3408   8.3859   9.7818  10.8300  12.0905  12.7621  13.8196  14.7091
    15.5317  16.1378

          k = 0.3750 0.0000 0.0000 (  5568 PWs)   bands (ev):

   -45.7005 -24.1672 -23.9303 -23.5971 -21.0201 -13.1804  -3.4469  -3.1573
    -3.0505  -2.2822  -1.5475  -0.9012   3.3325   5.4646   6.2680   6.8004
     7.3360   8.3676   9.7824  10.8422  12.4104  12.7495  13.3748  14.6610
    15.9073  16.0316

          k = 0.4375 0.2551 0.0000 (  5550 PWs)   bands (ev):

   -45.6824 -24.3301 -23.9240 -23.5622 -21.0334 -13.0172  -3.7344  -3.1693
    -2.9774  -2.9121  -1.5193  -0.6912   2.9830   6.1657   6.6829   7.2368
     7.9122   9.3125  10.0793  11.1418  11.8855  12.5379  13.1320  14.4901
    14.9045  15.1201

          k = 0.4375 0.3280 0.0000 (  5543 PWs)   bands (ev):

   -45.6793 -24.3408 -23.9138 -23.5877 -21.0318 -12.9879  -3.7286  -3.2327
    -3.0247  -2.8544  -1.5244  -0.8051   3.0466   6.2679   6.6672   7.2311
     7.8802   9.8174  10.2546  11.3447  11.7881  12.3949  13.1468  14.1791
    14.6948  15.0928

          k = 0.4375 0.4009 0.0000 (  5573 PWs)   bands (ev):

   -45.6765 -24.3214 -23.9038 -23.6488 -21.0243 -12.9600  -3.6575  -3.3219
    -3.0368  -2.7459  -1.5470  -1.0776   3.2445   6.3704   6.5778   7.1796
     7.6295  10.2863  10.7387  11.6567  11.6964  12.4058  13.1660  14.0046
    14.7708  15.0538

          k = 0.4375 0.4738 0.0000 (  5562 PWs)   bands (ev):

   -45.6743 -24.2802 -23.8957 -23.7271 -21.0150 -12.9382  -3.5915  -3.3400
    -3.0290  -2.6256  -1.6116  -1.3821   3.5120   6.3207   6.4432   7.1675
     7.4394  10.5187  11.1213  11.7862  12.1051  12.6020  13.1788  14.0924
    14.6484  15.3910

          k = 0.4375 0.5467 0.0000 (  5564 PWs)   bands (ev):

   -45.6731 -24.2417 -23.8908 -23.7876 -21.0088 -12.9263  -3.5907  -3.2788
    -3.0172  -2.5191  -1.7815  -1.5031   3.7277   6.0651   6.4729   7.0929
     7.4535  10.6547  11.1287  11.8111  12.6123  13.0321  13.3669  14.0241
    14.4113  15.1027

          k = 0.4375-0.1822 0.0000 (  5552 PWs)   bands (ev):

   -45.6853 -24.2925 -23.9317 -23.5763 -21.0286 -13.0434  -3.6720  -3.1572
    -3.0193  -2.7841  -1.5273  -0.7681   3.0657   6.1315   6.5203   7.1667
     7.6934   9.1781  10.0544  11.0986  11.9347  12.6730  13.3901  14.5839
    14.8828  15.6472

          k = 0.4375-0.1093 0.0000 (  5552 PWs)   bands (ev):

   -45.6875 -24.2422 -23.9342 -23.6174 -21.0206 -13.0629  -3.5772  -3.1592
    -3.0601  -2.6125  -1.5472  -0.9642   3.2425   6.0005   6.3138   7.0542
     7.5641   9.1818  10.1278  11.2078  12.0552  12.6959  13.8699  14.3294
    14.8200  16.0329

          k = 0.4375-0.0364 0.0000 (  5540 PWs)   bands (ev):

   -45.6887 -24.2045 -23.9316 -23.6559 -21.0148 -13.0732  -3.5067  -3.1585
    -3.0861  -2.4735  -1.5771  -1.1304   3.4012   5.6910   6.4102   6.8912
     7.5597   9.1859  10.2022  11.3068  12.3712  12.6460  13.8755  14.1056
    14.9999  15.8572

          k =-0.5000-0.2916 0.0000 (  5556 PWs)   bands (ev):

   -45.6795 -24.3552 -23.9142 -23.5678 -21.0352 -12.9890  -3.7663  -3.2071
    -2.9837  -2.9426  -1.5173  -0.7096   2.9734   6.2432   6.7282   7.2735
     8.0605   9.6748  10.1667  11.4039  11.5964  12.3095  13.1983  14.1570
    14.7014  14.9479

          k =-0.5000-0.2187 0.0000 (  5555 PWs)   bands (ev):

   -45.6795 -24.3397 -23.9140 -23.5882 -21.0315 -12.9887  -3.7274  -3.2324
    -3.0244  -2.8517  -1.5246  -0.8082   3.0491   6.2651   6.6802   7.2267
     7.8774   9.7989  10.2490  11.3394  11.8026  12.3941  13.1422  14.1863
    14.7143  15.0812

          k =-0.5000-0.1458 0.0000 (  5555 PWs)   bands (ev):

   -45.6795 -24.2987 -23.9132 -23.6412 -21.0227 -12.9880  -3.6352  -3.2704
    -3.0415  -2.7177  -1.5475  -1.0516   3.2442   6.3199   6.4337   7.1566
     7.6282   9.9885  10.3940  11.4425  12.0549  12.6496  13.1150  14.2043
    14.6521  15.5613

          k =-0.5000-0.0729 0.0000 (  5559 PWs)   bands (ev):

   -45.6795 -24.2506 -23.9115 -23.7022 -21.0140 -12.9872  -3.5592  -3.2670
    -3.0455  -2.5824  -1.5970  -1.2996   3.4708   6.0222   6.4428   7.0466
     7.5683  10.0833  10.5176  11.6533  12.2641  12.7536  13.4990  14.1614
    14.4930  15.7224

          k =-0.5000 0.0000 0.0000 (  5546 PWs)   bands (ev):

   -45.6795 -24.2275 -23.9100 -23.7313 -21.0104 -12.9869  -3.5386  -3.2477
    -3.0466  -2.5120  -1.6499  -1.3897   3.5814   5.8365   6.5053   6.9654
     7.5809  10.1019  10.5776  11.7048  12.4455  12.7704  13.7795  14.1271
    14.3861  15.2874

     highest occupied, lowest unoccupied level (ev):     3.9043    5.2204

!    total energy              =    -446.24487190 Ry
     total all-electron energy =     -8320.715151 Ry
     estimated scf accuracy    <          2.1E-12 Ry

     The total energy is the sum of the following terms:
     one-electron contribution =    -302.52363281 Ry
     hartree contribution      =     159.33834232 Ry
     xc contribution           =     -38.50087045 Ry
     ewald contribution        =       2.06552544 Ry
     one-center paw contrib.   =    -266.62423639 Ry

     convergence has been achieved in   7 iterations

     negative rho (up, down):  8.533E-05 0.000E+00

     Forces acting on atoms (cartesian axes, Ry/au):

     atom    1 type  1   force =     0.00000000   -0.00008702    0.00000894
     atom    2 type  2   force =     0.00000000   -0.00005177   -0.00045192
     atom    3 type  3   force =     0.00000000    0.00013879    0.00044298
     The non-local contrib.  to forces
     atom    1 type  1   force =     0.00000000   -0.00214278   -0.02193594
     atom    2 type  2   force =     0.00000000   -0.01355228   -1.08056981
     atom    3 type  3   force =     0.00000000   -0.00060351    0.22323662
     The ionic contribution  to forces
     atom    1 type  1   force =    -0.00000001   -0.11044588   -0.30949701
     atom    2 type  2   force =     0.00000001    0.07433845   26.42110712
     atom    3 type  3   force =     0.00000000    0.03610743  -26.11161011
     The local contribution  to forces
     atom    1 type  1   force =    -0.00000000    0.11240706    0.32761765
     atom    2 type  2   force =     0.00000032   -0.06088939  -25.34456545
     atom    3 type  3   force =     0.00000004   -0.03529279   25.89627302
     The core correction contribution to forces
     atom    1 type  1   force =    -0.00000000    0.00008423    0.00373767
     atom    2 type  2   force =     0.00000000    0.00004153    0.00348984
     atom    3 type  3   force =    -0.00000000   -0.00008245   -0.00754396
     The Hubbard contrib.    to forces
     atom    1 type  1   force =     0.00000000    0.00000000    0.00000000
     atom    2 type  2   force =     0.00000000    0.00000000    0.00000000
     atom    3 type  3   force =     0.00000000    0.00000000    0.00000000
     The SCF correction term to forces
     atom    1 type  1   force =     0.00000000    0.00000033   -0.00000076
     atom    2 type  2   force =    -0.00000000   -0.00000011   -0.00000093
     atom    3 type  3   force =    -0.00000000    0.00000010    0.00000010

     Total force =     0.000656     Total SCF correction =     0.000001
     Energy error            =      4.3E-06 Ry
     Gradient error          =      4.5E-04 Ry/Bohr

     number of scf cycles    =   4
     number of bfgs steps    =   3

     energy             old  =    -446.2448675745 Ry
     energy             new  =    -446.2448718991 Ry

     CASE: energy            _new < energy            _old

     new trust radius        =       0.0023603657 bohr
     new conv_thr            =            1.0E-10 Ry


ATOMIC_POSITIONS (angstrom)
Zr            0.0000000000       -0.0013748235        9.5703526740
F            -0.0000000020        1.8814890244       10.8988457447
Cl           -0.0000000020        1.8829065076        7.8169764897



     Writing config-only to output data dir ./tmp/ZrFCl.save/
     NEW-OLD atomic charge density approx. for the potential

     Check: negative core charge=   -0.000005

     negative rho (up, down):  8.555E-05 0.000E+00

     total cpu time spent up to now is       44.6 secs

     Self-consistent Calculation

     iteration #  1     ecut=    65.00 Ry     beta= 0.70
     Davidson diagonalization with overlap
     ethr =  1.00E-06,  avg # of iterations =  2.1

     Threshold (ethr) on eigenvalues was too large:
     Diagonalizing with lowered threshold

     Davidson diagonalization with overlap
     ethr =  3.07E-09,  avg # of iterations =  4.0

     negative rho (up, down):  8.572E-05 0.000E+00

     total cpu time spent up to now is       47.6 secs

     total energy              =    -446.24487259 Ry
     estimated scf accuracy    <       0.00000093 Ry

     iteration #  2     ecut=    65.00 Ry     beta= 0.70
     Davidson diagonalization with overlap
     ethr =  3.57E-09,  avg # of iterations =  2.0

     negative rho (up, down):  8.558E-05 0.000E+00

     total cpu time spent up to now is       49.0 secs

     total energy              =    -446.24487262 Ry
     estimated scf accuracy    <       0.00000158 Ry

     iteration #  3     ecut=    65.00 Ry     beta= 0.70
     Davidson diagonalization with overlap
     ethr =  3.57E-09,  avg # of iterations =  1.9

     negative rho (up, down):  8.553E-05 0.000E+00

     total cpu time spent up to now is       50.2 secs

     total energy              =    -446.24487298 Ry
     estimated scf accuracy    <       0.00000009 Ry

     iteration #  4     ecut=    65.00 Ry     beta= 0.70
     Davidson diagonalization with overlap
     ethr =  3.33E-10,  avg # of iterations =  2.0

     negative rho (up, down):  8.552E-05 0.000E+00

     total cpu time spent up to now is       51.5 secs

     total energy              =    -446.24487299 Ry
     estimated scf accuracy    <          9.1E-09 Ry

     iteration #  5     ecut=    65.00 Ry     beta= 0.70
     Davidson diagonalization with overlap
     ethr =  3.50E-11,  avg # of iterations =  2.0

     negative rho (up, down):  8.552E-05 0.000E+00

     total cpu time spent up to now is       52.7 secs

     total energy              =    -446.24487300 Ry
     estimated scf accuracy    <          1.8E-09 Ry

     iteration #  6     ecut=    65.00 Ry     beta= 0.70
     Davidson diagonalization with overlap
     ethr =  7.09E-12,  avg # of iterations =  2.0

     negative rho (up, down):  8.551E-05 0.000E+00

     total cpu time spent up to now is       54.0 secs

     End of self-consistent calculation

          k = 0.0000 0.0000 0.0000 (  5487 PWs)   bands (ev):

   -45.7524 -24.2969 -23.4265 -23.4106 -21.1253 -13.6455  -3.7355  -2.9159
    -2.8935  -1.7665  -0.1595  -0.1014   3.4174   5.3123   5.4410   5.6502
     6.5095   6.5590   7.6578   8.4958  10.9092  13.5483  14.3447  14.4980
    15.3576  16.9778

          k = 0.0000 0.0729 0.0000 (  5487 PWs)   bands (ev):

   -45.7494 -24.2860 -23.4497 -23.4326 -21.1150 -13.6225  -3.6982  -2.9362
    -2.9161  -1.7542  -0.2568  -0.1892   3.4259   5.3703   5.3943   5.7423
     6.5159   6.5580   7.7809   8.6933  11.0345  13.6244  14.2011  14.4463
    15.1798  16.9432

          k = 0.0000 0.1458 0.0000 (  5503 PWs)   bands (ev):

   -45.7407 -24.2555 -23.5565 -23.4502 -21.0898 -13.5561  -3.5986  -3.0439
    -2.9186  -1.7357  -0.6547  -0.2708   3.4250   5.3235   5.5482   5.8699
     6.5966   6.6881   8.1201   9.1428  11.3995  13.5189  13.8223  14.7491
    14.8763  16.8397

          k = 0.0000 0.2187 0.0000 (  5526 PWs)   bands (ev):

   -45.7277 -24.2123 -23.7036 -23.4763 -21.0620 -13.4536  -3.4792  -3.1680
    -2.9267  -1.7656  -1.1357  -0.3851   3.3675   5.3536   5.8501   5.9087
     6.8648   6.9663   8.6065   9.6554  11.8675  13.0548  13.5978  15.0483
    15.2421  16.6672

          k = 0.0000 0.2916 0.0000 (  5542 PWs)   bands (ev):

   -45.7123 -24.1737 -23.8516 -23.5070 -21.0418 -13.3278  -3.4512  -3.2076
    -2.9430  -2.0000  -1.4393  -0.5091   3.2539   5.5238   6.0088   6.2637
     7.0550   7.4760   9.1398  10.1440  11.9055  12.9910  13.5834  15.5516
    15.8554  16.4620

          k = 0.0000 0.3645 0.0000 (  5526 PWs)   bands (ev):

   -45.6968 -24.1846 -23.9381 -23.5374 -21.0330 -13.1961  -3.5469  -3.1505
    -2.9657  -2.4136  -1.5035  -0.6230   3.1374   5.7557   6.2379   6.7306
     7.2581   8.0564   9.5960  10.5518  11.7691  12.7986  14.2850  15.2318
    15.8874  16.2048

          k = 0.0000 0.4373 0.0000 (  5532 PWs)   bands (ev):

   -45.6836 -24.2603 -23.9367 -23.5630 -21.0334 -13.0792  -3.6519  -3.1293
    -2.9898  -2.7520  -1.5083  -0.7124   3.0589   5.9773   6.5140   7.0787
     7.5609   8.6969   9.8938  10.8775  11.8612  12.7158  13.9471  14.8311
    15.4447  15.7040

          k = 0.0000 0.5102 0.0000 (  5556 PWs)   bands (ev):

   -45.6748 -24.3294 -23.9134 -23.5800 -21.0373 -12.9981  -3.7313  -3.1802
    -3.0081  -2.9110  -1.5034  -0.7689   3.0224   6.1599   6.6835   7.2171
     7.9254   9.3514  10.1025  11.1591  11.9411  12.6090  13.1796  14.5559
    14.9927  15.0198

          k = 0.0000-0.5831 0.0000 (  5554 PWs)   bands (ev):

   -45.6717 -24.3551 -23.9031 -23.5859 -21.0394 -12.9691  -3.7623  -3.2201
    -3.0149  -2.9429  -1.5008  -0.7882   3.0131   6.2398   6.7223   7.2524
     8.0855   9.7204  10.1792  11.4324  11.6738  12.3702  13.2382  14.2117
    14.7923  14.8408

          k = 0.0625 0.0364 0.0000 (  5496 PWs)   bands (ev):

   -45.7495 -24.2863 -23.4618 -23.4194 -21.1151 -13.6232  -3.6987  -2.9533
    -2.8977  -1.7551  -0.3007  -0.1407   3.4228   5.2927   5.4801   5.7383
     6.4832   6.5981   7.7765   8.6876  11.0312  13.6226  14.1061  14.5653
    15.1639  16.9899

          k = 0.0625 0.1093 0.0000 (  5497 PWs)   bands (ev):

   -45.7436 -24.2656 -23.5262 -23.4398 -21.0974 -13.5785  -3.6298  -3.0163
    -2.9115  -1.7397  -0.5448  -0.2284   3.4266   5.2942   5.5384   5.8499
     6.5129   6.6774   8.0081   9.0071  11.2792  13.6372  13.8345  14.6316
    14.9769  16.8719

          k = 0.0625 0.1822 0.0000 (  5525 PWs)   bands (ev):

   -45.7328 -24.2285 -23.6479 -23.4669 -21.0712 -13.4939  -3.5158  -3.1282
    -2.9246  -1.7411  -0.9638  -0.3502   3.4007   5.2736   5.7773   5.9214
     6.7031   6.8874   8.4221   9.4762  11.7382  13.1685  13.6906  14.7362
    15.2382  16.6677

          k = 0.0625 0.2551 0.0000 (  5564 PWs)   bands (ev):

   -45.7186 -24.1859 -23.7921 -23.4999 -21.0477 -13.3795  -3.4245  -3.2194
    -2.9443  -1.8547  -1.3545  -0.4900   3.3231   5.3660   5.9424   6.1928
     6.9271   7.2922   8.9368   9.9720  12.0796  12.9401  13.3943  15.1602
    15.7612  16.4417

          k = 0.0625 0.3280 0.0000 (  5542 PWs)   bands (ev):

   -45.7031 -24.1668 -23.9097 -23.5349 -21.0337 -13.2502  -3.4785  -3.1817
    -2.9735  -2.2051  -1.4946  -0.6279   3.2209   5.5959   6.0668   6.6387
     7.1356   7.8384   9.4429  10.4331  11.9066  12.8887  13.7814  15.4288
    15.9216  16.2393

          k = 0.0625 0.4009 0.0000 (  5554 PWs)   bands (ev):

   -45.6888 -24.2161 -23.9419 -23.5669 -21.0300 -13.1251  -3.5835  -3.1308
    -3.0114  -2.5755  -1.5151  -0.7466   3.1397   5.8842   6.2746   6.9892
     7.4016   8.4893   9.8304  10.8093  11.8568  12.7395  14.4018  14.6424
    15.4187  16.1841

          k = 0.0625 0.4738 0.0000 (  5554 PWs)   bands (ev):

   -45.6778 -24.2929 -23.9218 -23.5913 -21.0325 -13.0252  -3.6722  -3.1705
    -3.0348  -2.7948  -1.5131  -0.8329   3.0974   6.1242   6.5182   7.1534
     7.7033   9.2230  10.0878  11.1051  11.9707  12.7251  13.4569  14.6094
    14.9206  15.6542

          k = 0.0625 0.5467 0.0000 (  5554 PWs)   bands (ev):

   -45.6718 -24.3402 -23.9032 -23.6045 -21.0357 -12.9695  -3.7252  -3.2487
    -3.0378  -2.8656  -1.5093  -0.8781   3.0837   6.2621   6.6727   7.2108
     7.9003   9.8536  10.2636  11.3646  11.8591  12.4565  13.1790  14.2245
    14.7508  15.0584

          k = 0.1250 0.0729 0.0000 (  5514 PWs)   bands (ev):

   -45.7412 -24.2566 -23.5657 -23.4366 -21.0901 -13.5587  -3.6003  -3.0572
    -2.9008  -1.7392  -0.6888  -0.2203   3.4127   5.2583   5.6393   5.8590
     6.5787   6.7241   8.1064   9.1300  11.3867  13.4885  13.7878  14.8408
    14.8668  16.9072

          k = 0.1250 0.1458 0.0000 (  5541 PWs)   bands (ev):

   -45.7331 -24.2294 -23.6522 -23.4593 -21.0713 -13.4959  -3.5169  -3.1342
    -2.9155  -1.7441  -0.9805  -0.3205   3.3902   5.2605   5.8097   5.9137
     6.7028   6.8969   8.4135   9.4698  11.7291  13.1536  13.6775  14.7391
    15.2681  16.6973

          k = 0.1250 0.2187 0.0000 (  5547 PWs)   bands (ev):

   -45.7211 -24.1919 -23.7683 -23.4965 -21.0499 -13.3992  -3.4134  -3.2247
    -2.9452  -1.8116  -1.3090  -0.4854   3.3513   5.2658   5.9622   6.2012
     6.8467   7.2469   8.8596   9.9113  12.2503  12.7541  13.3727  14.9621
    15.7884  16.4117

          k = 0.1250 0.2916 0.0000 (  5544 PWs)   bands (ev):

   -45.7068 -24.1626 -23.8798 -23.5416 -21.0335 -13.2806  -3.4077  -3.2219
    -2.9900  -2.0564  -1.4890  -0.6738   3.3045   5.3797   6.0701   6.6151
     7.0441   7.7494   9.3608  10.3851  12.2931  12.8979  13.1793  15.2078
    15.8184  16.7519

          k = 0.1250 0.3645 0.0000 (  5539 PWs)   bands (ev):

   -45.6925 -24.1804 -23.9350 -23.5872 -21.0255 -13.1566  -3.4985  -3.1450
    -3.0506  -2.3884  -1.5318  -0.8531   3.2692   5.6358   6.1989   6.8806
     7.3462   8.4127   9.8214  10.8393  12.0801  12.7747  13.8494  14.7505
    15.5827  16.1710

          k = 0.1250 0.4373 0.0000 (  5547 PWs)   bands (ev):

   -45.6804 -24.2448 -23.9260 -23.6261 -21.0247 -13.0468  -3.5820  -3.1773
    -3.0660  -2.6290  -1.5380  -1.0003   3.2586   5.9976   6.3135   7.0359
     7.5853   9.2242  10.1726  11.2082  12.0613  12.7241  13.9258  14.3637
    14.8449  16.0634

          k = 0.1250 0.5102 0.0000 (  5560 PWs)   bands (ev):

   -45.6722 -24.3011 -23.9035 -23.6522 -21.0270 -12.9709  -3.6377  -3.2892
    -3.0474  -2.7347  -1.5368  -1.0970   3.2653   6.3184   6.4317   7.1386
     7.6548  10.0484  10.4323  11.4387  12.0752  12.7044  13.1546  14.2178
    14.6915  15.5834

          k = 0.1250 0.5831 0.0000 (  5572 PWs)   bands (ev):

   -45.6694 -24.3220 -23.8938 -23.6615 -21.0283 -12.9437  -3.6574  -3.3391
    -3.0428  -2.7600  -1.5359  -1.1307   3.2707   6.3691   6.5841   7.1630
     7.6502  10.3391  10.7363  11.6608  11.7615  12.4470  13.1939  14.0489
    14.8219  15.0495

          k = 0.1250 0.0000 0.0000 (  5508 PWs)   bands (ev):

   -45.7440 -24.2664 -23.5329 -23.4299 -21.0976 -13.5804  -3.6311  -3.0270
    -2.8975  -1.7422  -0.5673  -0.1950   3.4197   5.2350   5.6161   5.8399
     6.5185   6.6883   7.9969   8.9964  11.2702  13.6167  13.7976  14.7027
    14.9837  16.9177

          k = 0.1875 0.1093 0.0000 (  5541 PWs)   bands (ev):

   -45.7287 -24.2147 -23.7099 -23.4613 -21.0621 -13.4592  -3.4817  -3.1782
    -2.9081  -1.7741  -1.1586  -0.3286   3.3436   5.3215   5.8877   5.9346
     6.8930   6.9558   8.5837   9.6410  11.8474  13.0262  13.5699  15.0195
    15.3357  16.7353

          k = 0.1875 0.1822 0.0000 (  5556 PWs)   bands (ev):

   -45.7195 -24.1882 -23.7968 -23.4874 -21.0477 -13.3845  -3.4263  -3.2264
    -2.9302  -1.8661  -1.3683  -0.4417   3.2998   5.3631   5.9434   6.2193
     6.9453   7.2865   8.9198   9.9639  12.0713  12.9083  13.3737  15.1435
    15.8134  16.4754

          k = 0.1875 0.2551 0.0000 (  5552 PWs)   bands (ev):

   -45.7074 -24.1641 -23.8819 -23.5349 -21.0334 -13.2836  -3.4092  -3.2239
    -2.9833  -2.0648  -1.4928  -0.6480   3.2910   5.3830   6.0705   6.6217
     7.0554   7.7450   9.3526  10.3832  12.2988  12.8818  13.1559  15.1993
    15.8247  16.6970

          k = 0.1875 0.3280 0.0000 (  5538 PWs)   bands (ev):

   -45.6943 -24.1685 -23.9293 -23.5952 -21.0233 -13.1699  -3.4552  -3.1596
    -3.0642  -2.3069  -1.5457  -0.8962   3.3282   5.4796   6.2552   6.7927
     7.3523   8.3902   9.8186  10.8548  12.3828  12.7448  13.3851  14.6878
    15.9507  16.0489

          k = 0.1875 0.4009 0.0000 (  5549 PWs)   bands (ev):

   -45.6821 -24.2098 -23.9260 -23.6561 -21.0187 -13.0604  -3.5150  -3.1763
    -3.0888  -2.4992  -1.5739  -1.1311   3.3985   5.6995   6.4102   6.8702
     7.5900   9.2239  10.2516  11.3163  12.3440  12.6507  13.8980  14.1316
    15.0254  15.8620

          k = 0.1875 0.4738 0.0000 (  5548 PWs)   bands (ev):

   -45.6728 -24.2559 -23.9035 -23.7054 -21.0181 -12.9734  -3.5663  -3.2854
    -3.0492  -2.6037  -1.5969  -1.3075   3.4738   6.0275   6.4510   7.0195
     7.6029  10.1339  10.5844  11.6431  12.2501  12.7676  13.5450  14.1729
    14.5211  15.6914

          k = 0.1875 0.5467 0.0000 (  5565 PWs)   bands (ev):

   -45.6677 -24.2830 -23.8870 -23.7331 -21.0188 -12.9251  -3.5980  -3.3540
    -3.0331  -2.6408  -1.6172  -1.3962   3.5222   6.3335   6.4464   7.1471
     7.4646  10.5726  11.1819  11.7598  12.1035  12.6252  13.2200  14.1268
    14.6696  15.4100

          k = 0.1875-0.0364 0.0000 (  5537 PWs)   bands (ev):

   -45.7337 -24.2305 -23.6525 -23.4548 -21.0712 -13.4988  -3.5183  -3.1374
    -2.9078  -1.7470  -0.9798  -0.3095   3.3853   5.2270   5.8556   5.9148
     6.7365   6.8734   8.3996   9.4610  11.7183  13.1480  13.6665  14.7534
    15.2939  16.7045

          k = 0.2500 0.1458 0.0000 (  5551 PWs)   bands (ev):

   -45.7139 -24.1775 -23.8552 -23.4900 -21.0414 -13.3372  -3.4542  -3.2145
    -2.9224  -2.0149  -1.4502  -0.4460   3.2225   5.5176   5.9939   6.3217
     7.0855   7.4589   9.1113  10.1321  11.8959  12.9563  13.5387  15.5105
    15.9321  16.4708

          k = 0.2500 0.2187 0.0000 (  5543 PWs)   bands (ev):

   -45.7047 -24.1705 -23.9133 -23.5188 -21.0333 -13.2590  -3.4820  -3.1857
    -2.9559  -2.2210  -1.5031  -0.5671   3.1896   5.6002   6.0635   6.6644
     7.1618   7.8242   9.4213  10.4284  11.8997  12.8612  13.7219  15.3879
    15.9243  16.2119

          k = 0.2500 0.2916 0.0000 (  5547 PWs)   bands (ev):

   -45.6937 -24.1831 -23.9377 -23.5753 -21.0250 -13.1635  -3.5013  -3.1441
    -3.0418  -2.3990  -1.5368  -0.8095   3.2461   5.6394   6.2002   6.8905
     7.3612   8.4047   9.8092  10.8418  12.0787  12.7609  13.7889  14.7252
    15.5225  16.1665

          k = 0.2500 0.3645 0.0000 (  5552 PWs)   bands (ev):

   -45.6827 -24.2110 -23.9275 -23.6502 -21.0183 -13.0642  -3.5160  -3.1696
    -3.0917  -2.5028  -1.5749  -1.1113   3.3877   5.6984   6.4141   6.8727
     7.5946   9.2203  10.2470  11.3220  12.3513  12.6451  13.8637  14.1013
    14.9754  15.8922

          k = 0.2500 0.4373 0.0000 (  5541 PWs)   bands (ev):

   -45.6734 -24.2350 -23.9040 -23.7270 -21.0141 -12.9770  -3.5466  -3.2642
    -3.0510  -2.5395  -1.6496  -1.3731   3.5699   5.8429   6.5258   6.9329
     7.6196  10.1442  10.6498  11.7043  12.4703  12.7225  13.7781  14.1349
    14.3750  15.2787

          k = 0.2500 0.5102 0.0000 (  5572 PWs)   bands (ev):

   -45.6672 -24.2469 -23.8840 -23.7861 -21.0121 -12.9170  -3.5989  -3.2919
    -3.0216  -2.5388  -1.7880  -1.4917   3.7228   6.0739   6.4884   7.0790
     7.4754  10.7000  11.2135  11.7836  12.6132  13.0056  13.3936  14.0173
    14.4396  15.0764

          k = 0.2500 0.5831 0.0000 (  5578 PWs)   bands (ev):

   -45.6650 -24.2498 -23.8763 -23.8088 -21.0116 -12.8957  -3.6250  -3.2913
    -3.0107  -2.5324  -1.8623  -1.5169   3.7821   6.2249   6.4620   7.0881
     7.4049  10.7131  11.7763  12.1550  12.1776  12.8387  13.4502  13.9789
    14.5969  15.3342

          k = 0.2500-0.0729 0.0000 (  5546 PWs)   bands (ev):

   -45.7201 -24.1892 -23.7937 -23.4864 -21.0472 -13.3881  -3.4268  -3.2259
    -2.9260  -1.8638  -1.3613  -0.4445   3.3012   5.3448   5.9483   6.2440
     6.9584   7.2737   8.9066   9.9572  12.0679  12.9140  13.3746  15.1558
    15.7993  16.4631

          k = 0.2500 0.0000 0.0000 (  5548 PWs)   bands (ev):

   -45.7223 -24.1942 -23.7662 -23.4901 -21.0493 -13.4057  -3.4152  -3.2267
    -2.9340  -1.8146  -1.3032  -0.4709   3.3438   5.2394   5.9763   6.2385
     6.8719   7.2287   8.8348   9.8989  12.2331  12.7607  13.3649  14.9648
    15.7996  16.4118

          k = 0.3125 0.1822 0.0000 (  5547 PWs)   bands (ev):

   -45.6991 -24.1878 -23.9414 -23.5184 -21.0318 -13.2094  -3.5503  -3.1533
    -2.9428  -2.4242  -1.5139  -0.5539   3.1031   5.7643   6.2235   6.7649
     7.2888   8.0337   9.5671  10.5462  11.7531  12.7661  14.2054  15.1449
    15.9600  16.1463

          k = 0.3125 0.2551 0.0000 (  5547 PWs)   bands (ev):

   -45.6910 -24.2190 -23.9460 -23.5482 -21.0288 -13.1378  -3.5878  -3.1297
    -2.9932  -2.5854  -1.5252  -0.6781   3.1051   5.8931   6.2654   7.0117
     7.4244   8.4715   9.8104  10.8113  11.8359  12.7077  14.2980  14.5760
    15.4426  16.1389

          k = 0.3125 0.3280 0.0000 (  5546 PWs)   bands (ev):

   -45.6822 -24.2468 -23.9299 -23.6108 -21.0234 -13.0577  -3.5856  -3.1645
    -3.0665  -2.6323  -1.5453  -0.9470   3.2316   5.9974   6.3146   7.0492
     7.5953   9.2129  10.1617  11.2209  12.0450  12.7018  13.8506  14.2976
    14.8168  16.0218

          k = 0.3125 0.4009 0.0000 (  5558 PWs)   bands (ev):

   -45.6740 -24.2566 -23.9064 -23.6956 -21.0169 -12.9812  -3.5665  -3.2790
    -3.0503  -2.6033  -1.5960  -1.2800   3.4587   6.0159   6.4608   7.0248
     7.6084  10.1199  10.5793  11.6656  12.2572  12.7502  13.4640  14.1492
    14.4646  15.7220

          k = 0.3125 0.4738 0.0000 (  5557 PWs)   bands (ev):

   -45.6678 -24.2465 -23.8856 -23.7820 -21.0114 -12.9210  -3.5967  -3.2905
    -3.0217  -2.5377  -1.7771  -1.4912   3.7189   6.0623   6.4943   7.0816
     7.4793  10.6834  11.2123  11.7974  12.6407  12.9805  13.3291  14.0405
    14.4125  15.0916

          k = 0.3125 0.5467 0.0000 (  5570 PWs)   bands (ev):

   -45.6644 -24.2302 -23.8737 -23.8407 -21.0082 -12.8878  -3.6443  -3.2432
    -2.9953  -2.4580  -2.0183  -1.5409   3.9020   6.1470   6.4679   7.0000
     7.4586  10.7203  11.7650  12.1378  12.9631  13.0786  13.2472  13.6757
    14.6189  15.3109

          k = 0.3125-0.1093 0.0000 (  5549 PWs)   bands (ev):

   -45.7053 -24.1698 -23.9104 -23.5197 -21.0324 -13.2627  -3.4799  -3.1855
    -2.9532  -2.2096  -1.5017  -0.5767   3.1962   5.5956   6.0689   6.6671
     7.1625   7.8175   9.4096  10.4220  11.9042  12.8639  13.7395  15.3912
    15.9011  16.2132

          k = 0.3125-0.0364 0.0000 (  5566 PWs)   bands (ev):

   -45.7086 -24.1647 -23.8768 -23.5337 -21.0320 -13.2909  -3.4068  -3.2242
    -2.9760  -2.0507  -1.4884  -0.6547   3.2960   5.3679   6.0869   6.6345
     7.0602   7.7324   9.3293  10.3723  12.3084  12.8858  13.1651  15.1904
    15.7847  16.7034

          k = 0.3750 0.2187 0.0000 (  5548 PWs)   bands (ev):

   -45.6865 -24.2609 -23.9420 -23.5424 -21.0313 -13.0962  -3.6563  -3.1265
    -2.9644  -2.7570  -1.5211  -0.6388   3.0236   5.9897   6.5066   7.1008
     7.5781   8.6687   9.8687  10.8729  11.8282  12.6733  13.8539  14.7554
    15.5238  15.6230

          k = 0.3750 0.2916 0.0000 (  5547 PWs)   bands (ev):

   -45.6805 -24.2936 -23.9275 -23.5711 -21.0304 -13.0416  -3.6778  -3.1596
    -3.0234  -2.7938  -1.5256  -0.7609   3.0625   6.1374   6.5050   7.1784
     7.7078   9.2032  10.0718  11.1045  11.9308  12.6772  13.3793  14.5548
    14.9055  15.6334

          k = 0.3750 0.3645 0.0000 (  5566 PWs)   bands (ev):

   -45.6746 -24.3011 -23.9087 -23.6355 -21.0248 -12.9854  -3.6417  -3.2761
    -3.0455  -2.7283  -1.5461  -1.0412   3.2388   6.3322   6.4142   7.1578
     7.6543  10.0238  10.4301  11.4523  12.0339  12.6511  13.1079  14.1886
    14.6334  15.5558

          k = 0.3750 0.4373 0.0000 (  5558 PWs)   bands (ev):

   -45.6695 -24.2816 -23.8912 -23.7220 -21.0167 -12.9364  -3.5959  -3.3468
    -3.0324  -2.6335  -1.6112  -1.3738   3.5090   6.3079   6.4613   7.1615
     7.4649  10.5355  11.1838  11.7952  12.0585  12.5967  13.1814  14.0822
    14.6417  15.3757

          k = 0.3750 0.5102 0.0000 (  5558 PWs)   bands (ev):

   -45.6662 -24.2468 -23.8791 -23.8040 -21.0099 -12.9031  -3.6205  -3.2869
    -3.0098  -2.5245  -1.8477  -1.5221   3.7820   6.2069   6.4651   7.0911
     7.4123  10.6781  11.8018  12.0938  12.1558  12.8921  13.4162  13.9675
    14.5960  15.3015

          k = 0.3750 0.5831 0.0000 (  5558 PWs)   bands (ev):

   -45.6650 -24.2273 -23.8747 -23.8406 -21.0073 -12.8913  -3.6421  -3.2396
    -2.9943  -2.4482  -2.0198  -1.5451   3.9067   6.1445   6.4625   6.9976
     7.4630  10.7009  11.7767  12.0605  13.0181  13.0466  13.3412  13.6194
    14.6030  15.2896

          k = 0.3750-0.1458 0.0000 (  5536 PWs)   bands (ev):

   -45.6915 -24.2158 -23.9457 -23.5498 -21.0278 -13.1411  -3.5848  -3.1298
    -2.9913  -2.5730  -1.5256  -0.6891   3.1135   5.8968   6.2744   7.0044
     7.4169   8.4608   9.7977  10.8043  11.8402  12.7086  14.3148  14.5991
    15.4079  16.1593

          k = 0.3750-0.0729 0.0000 (  5562 PWs)   bands (ev):

   -45.6949 -24.1788 -23.9356 -23.5772 -21.0232 -13.1705  -3.4963  -3.1448
    -3.0354  -2.3760  -1.5368  -0.8268   3.2592   5.6360   6.2116   6.8964
     7.3454   8.3882   9.7856  10.8296  12.0915  12.7641  13.8206  14.7116
    15.5310  16.1377

          k = 0.3750 0.0000 0.0000 (  5568 PWs)   bands (ev):

   -45.6961 -24.1653 -23.9268 -23.5932 -21.0211 -13.1807  -3.4504  -3.1601
    -3.0538  -2.2832  -1.5464  -0.9020   3.3352   5.4715   6.2729   6.8036
     7.3404   8.3696   9.7864  10.8415  12.4119  12.7508  13.3763  14.6639
    15.9062  16.0317

          k = 0.4375 0.2551 0.0000 (  5550 PWs)   bands (ev):

   -45.6780 -24.3284 -23.9202 -23.5583 -21.0346 -13.0176  -3.7373  -3.1708
    -2.9810  -2.9134  -1.5181  -0.6926   2.9866   6.1710   6.6867   7.2420
     7.9162   9.3189  10.0802  11.1431  11.8871  12.5377  13.1319  14.4905
    14.9064  15.1223

          k = 0.4375 0.3280 0.0000 (  5543 PWs)   bands (ev):

   -45.6749 -24.3391 -23.9100 -23.5838 -21.0329 -12.9884  -3.7314  -3.2344
    -3.0276  -2.8562  -1.5233  -0.8063   3.0502   6.2736   6.6704   7.2365
     7.8850   9.8235  10.2556  11.3462  11.7886  12.3954  13.1463  14.1806
    14.6958  15.0948

          k = 0.4375 0.4009 0.0000 (  5573 PWs)   bands (ev):

   -45.6721 -24.3197 -23.8999 -23.6450 -21.0254 -12.9606  -3.6604  -3.3241
    -3.0394  -2.7472  -1.5461  -1.0784   3.2478   6.3762   6.5808   7.1849
     7.6358  10.2897  10.7416  11.6580  11.6957  12.4077  13.1654  14.0058
    14.7723  15.0547

          k = 0.4375 0.4738 0.0000 (  5562 PWs)   bands (ev):

   -45.6699 -24.2786 -23.8918 -23.7233 -21.0160 -12.9388  -3.5946  -3.3425
    -3.0315  -2.6266  -1.6112  -1.3819   3.5149   6.3236   6.4495   7.1726
     7.4464  10.5210  11.1230  11.7863  12.1075  12.6032  13.1792  14.0932
    14.6494  15.3916

          k = 0.4375 0.5467 0.0000 (  5564 PWs)   bands (ev):

   -45.6687 -24.2402 -23.8869 -23.7838 -21.0098 -12.9268  -3.5939  -3.2815
    -3.0199  -2.5198  -1.7818  -1.5021   3.7302   6.0689   6.4792   7.0980
     7.4604  10.6565  11.1295  11.8123  12.6138  13.0351  13.3669  14.0247
    14.4118  15.1012

          k = 0.4375-0.1822 0.0000 (  5552 PWs)   bands (ev):

   -45.6809 -24.2907 -23.9279 -23.5724 -21.0297 -13.0438  -3.6750  -3.1592
    -3.0224  -2.7855  -1.5261  -0.7693   3.0691   6.1365   6.5250   7.1713
     7.6980   9.1827  10.0565  11.0994  11.9364  12.6738  13.3897  14.5840
    14.8848  15.6490

          k = 0.4375-0.1093 0.0000 (  5552 PWs)   bands (ev):

   -45.6831 -24.2405 -23.9304 -23.6135 -21.0217 -13.0633  -3.5804  -3.1619
    -3.0630  -2.6136  -1.5461  -0.9650   3.2455   6.0058   6.3190   7.0586
     7.5687   9.1844  10.1314  11.2078  12.0566  12.6973  13.8705  14.3303
    14.8207  16.0343

          k = 0.4375-0.0364 0.0000 (  5540 PWs)   bands (ev):

   -45.6843 -24.2028 -23.9279 -23.6520 -21.0158 -13.0736  -3.5100  -3.1615
    -3.0888  -2.4744  -1.5761  -1.1308   3.4037   5.6972   6.4157   6.8952
     7.5642   9.1875  10.2066  11.3062  12.3724  12.6474  13.8766  14.1090
    14.9990  15.8569

          k =-0.5000-0.2916 0.0000 (  5556 PWs)   bands (ev):

   -45.6750 -24.3535 -23.9103 -23.5639 -21.0364 -12.9895  -3.7691  -3.2082
    -2.9873  -2.9442  -1.5162  -0.7109   2.9770   6.2490   6.7315   7.2789
     8.0642   9.6824  10.1674  11.4064  11.5950  12.3105  13.1975  14.1589
    14.7019  14.9502

          k =-0.5000-0.2187 0.0000 (  5555 PWs)   bands (ev):

   -45.6750 -24.3380 -23.9102 -23.5843 -21.0326 -12.9892  -3.7302  -3.2340
    -3.0274  -2.8535  -1.5235  -0.8094   3.0527   6.2708   6.6837   7.2319
     7.8821   9.8052  10.2497  11.3408  11.8033  12.3947  13.1419  14.1875
    14.7156  15.0828

          k =-0.5000-0.1458 0.0000 (  5555 PWs)   bands (ev):

   -45.6751 -24.2970 -23.9094 -23.6374 -21.0237 -12.9885  -3.6382  -3.2728
    -3.0442  -2.7190  -1.5465  -1.0524   3.2474   6.3249   6.4383   7.1615
     7.6337   9.9921  10.3958  11.4431  12.0575  12.6498  13.1150  14.2051
    14.6532  15.5626

          k =-0.5000-0.0729 0.0000 (  5559 PWs)   bands (ev):

   -45.6751 -24.2490 -23.9076 -23.6984 -21.0150 -12.9877  -3.5624  -3.2697
    -3.0482  -2.5832  -1.5964  -1.2996   3.4735   6.0271   6.4487   7.0514
     7.5738  10.0842  10.5213  11.6533  12.2667  12.7552  13.4993  14.1624
    14.4934  15.7221

          k =-0.5000 0.0000 0.0000 (  5546 PWs)   bands (ev):

   -45.6751 -24.2259 -23.9062 -23.7274 -21.0114 -12.9874  -3.5418  -3.2505
    -3.0493  -2.5128  -1.6496  -1.3893   3.5837   5.8420   6.5114   6.9698
     7.5863  10.1021  10.5818  11.7048  12.4462  12.7740  13.7812  14.1286
    14.3852  15.2859

     highest occupied, lowest unoccupied level (ev):     3.9067    5.2270

!    total energy              =    -446.24487300 Ry
     total all-electron energy =     -8320.715153 Ry
     estimated scf accuracy    <          9.2E-11 Ry

     The total energy is the sum of the following terms:
     one-electron contribution =    -302.76186965 Ry
     hartree contribution      =     159.45864604 Ry
     xc contribution           =     -38.50201773 Ry
     ewald contribution        =       2.18464464 Ry
     one-center paw contrib.   =    -266.62427630 Ry

     convergence has been achieved in   6 iterations

     negative rho (up, down):  8.551E-05 0.000E+00

     Forces acting on atoms (cartesian axes, Ry/au):

     atom    1 type  1   force =     0.00000000    0.00006427   -0.00000386
     atom    2 type  2   force =     0.00000000   -0.00007416   -0.00000596
     atom    3 type  3   force =     0.00000000    0.00000989    0.00000982
     The non-local contrib.  to forces
     atom    1 type  1   force =     0.00000000   -0.00204179   -0.02194136
     atom    2 type  2   force =     0.00000000   -0.01340806   -1.07916917
     atom    3 type  3   force =     0.00000000   -0.00066254    0.22298191
     The ionic contribution  to forces
     atom    1 type  1   force =    -0.00000001   -0.10829557   -0.30421297
     atom    2 type  2   force =     0.00000001    0.07332539   26.42851009
     atom    3 type  3   force =     0.00000000    0.03497018  -26.12429712
     The local contribution  to forces
     atom    1 type  1   force =     0.00000000    0.11030883    0.32232872
     atom    2 type  2   force =     0.00000032   -0.06004296  -25.35292962
     atom    3 type  3   force =     0.00000004   -0.03422808   25.90876086
     The core correction contribution to forces
     atom    1 type  1   force =    -0.00000000    0.00008380    0.00374305
     atom    2 type  2   force =     0.00000000    0.00004123    0.00348372
     atom    3 type  3   force =    -0.00000000   -0.00007862   -0.00753032
     The Hubbard contrib.    to forces
     atom    1 type  1   force =     0.00000000    0.00000000    0.00000000
     atom    2 type  2   force =     0.00000000    0.00000000    0.00000000
     atom    3 type  3   force =     0.00000000    0.00000000    0.00000000
     The SCF correction term to forces
     atom    1 type  1   force =     0.00000000   -0.00000145   -0.00001065
     atom    2 type  2   force =     0.00000000   -0.00000019    0.00000967
     atom    3 type  3   force =    -0.00000000   -0.00000150    0.00000512

     Total force =     0.000099     Total SCF correction =     0.000015
     SCF correction compared to forces is large: reduce conv_thr to get better values
     Energy error            =      1.1E-06 Ry
     Gradient error          =      7.4E-05 Ry/Bohr

     bfgs converged in   5 scf cycles and   4 bfgs steps
     (criteria: energy <  1.0E-05 Ry, force <  1.0E-04 Ry/Bohr)

     End of BFGS Geometry Optimization

     Final energy             =    -446.2448729977 Ry

     File ./tmp/ZrFCl.bfgs deleted, as requested
Begin final coordinates

ATOMIC_POSITIONS (angstrom)
Zr            0.0000000000       -0.0013748235        9.5703526740
F            -0.0000000020        1.8814890244       10.8988457447
Cl           -0.0000000020        1.8829065076        7.8169764897
End final coordinates



     Writing all to output data dir ./tmp/ZrFCl.save/

     init_run     :      0.56s CPU      0.59s WALL (       1 calls)
     electrons    :     49.95s CPU     51.26s WALL (       5 calls)
     update_pot   :      0.44s CPU      0.48s WALL (       4 calls)
     forces       :      1.09s CPU      1.09s WALL (       5 calls)

     Called by init_run:
     wfcinit      :      0.39s CPU      0.41s WALL (       1 calls)
     potinit      :      0.07s CPU      0.08s WALL (       1 calls)
     hinit0       :      0.06s CPU      0.07s WALL (       1 calls)

     Called by electrons:
     c_bands      :     42.65s CPU     43.46s WALL (      37 calls)
     sum_band     :      5.64s CPU      5.78s WALL (      37 calls)
     v_of_rho     :      0.10s CPU      0.10s WALL (      37 calls)
     newd         :      0.31s CPU      0.33s WALL (      37 calls)
     PAW_pot      :      1.66s CPU      2.06s WALL (      41 calls)
     mix_rho      :      0.01s CPU      0.01s WALL (      37 calls)

     Called by c_bands:
     init_us_2    :      0.36s CPU      0.37s WALL (    6132 calls)
     init_us_2:cp :      0.36s CPU      0.36s WALL (    6132 calls)
     cegterg      :     41.72s CPU     42.51s WALL (    2701 calls)

     Called by *egterg:
     cdiaghg      :      7.13s CPU      7.19s WALL (    8777 calls)
     h_psi        :     23.11s CPU     23.76s WALL (    9507 calls)
     s_psi        :      1.72s CPU      1.74s WALL (    9507 calls)
     g_psi        :      0.06s CPU      0.06s WALL (    6733 calls)

     Called by h_psi:
     h_psi:calbec :      2.86s CPU      2.93s WALL (    9507 calls)
     vloc_psi     :     18.47s CPU     19.01s WALL (    9507 calls)
     add_vuspsi   :      1.72s CPU      1.75s WALL (    9507 calls)

     General routines
     calbec       :      4.84s CPU      4.96s WALL (   13960 calls)
     fft          :      0.05s CPU      0.06s WALL (     471 calls)
     ffts         :      0.00s CPU      0.00s WALL (      37 calls)
     fftw         :     20.76s CPU     21.35s WALL (  399000 calls)

     Parallel routines

     PWSCF        :     53.09s CPU     54.74s WALL


   This run was terminated on:   9:10: 2  18Sep2026            

=------------------------------------------------------------------------------=
   JOB DONE.
=------------------------------------------------------------------------------=
Note: The following floating-point exceptions are signalling: IEEE_INVALID_FLAG
