
     Program PWSCF v.7.2 starts on 18Sep2026 at  8:37:38 

     This program is part of the open-source Quantum ESPRESSO suite
     for quantum simulation of materials; please cite
         "P. Giannozzi et al., J. Phys.:Condens. Matter 21 395502 (2009);
         "P. Giannozzi et al., J. Phys.:Condens. Matter 29 465901 (2017);
         "P. Giannozzi et al., J. Chem. Phys. 152 154105 (2020);
          URL http://www.quantum-espresso.org", 
     in publications or presentations arising from this work. More details at
     http://www.quantum-espresso.org/quote

     Parallel version (MPI), running on    32 processors

     MPI processes distributed on     1 nodes
     228830 MiB available memory on the printing compute node when the environment starts

     Waiting for input...
     Reading input from standard input

     Current dimensions of program PWSCF are:
     Max number of different atomic species (ntypx) = 10
     Max number of k-points (npk) =  40000
     Max angular momentum in pseudopotentials (lmaxx) =  4
     file Zr.pbe-spn-kjpaw_psl.1.0.0.UPF: wavefunction(s)  4S 4P renormalized
     file Cl.pbe-n-kjpaw_psl.1.0.0.UPF: wavefunction(s)  3S 3P renormalized
     file Br.pbe-n-kjpaw_psl.1.0.0.UPF: wavefunction(s)  4S 4P renormalized
     Message from routine setup:
     using ibrav=0 with symmetry is DISCOURAGED, use correct ibrav instead

     R & G space division:  proc/nbgrp/npool/nimage =      32
     Subspace diagonalization in iterative solution of the eigenvalue problem:
     a serial algorithm will be used


     Parallelization info
     --------------------
     sticks:   dense  smooth     PW     G-vecs:    dense   smooth      PW
     Min          24      24      6                 1558     1558     236
     Max          25      25      7                 1572     1572     253
     Sum         769     769    223                50065    50065    7887

     Using Slab Decomposition



     bravais-lattice index     =            0
     lattice parameter (alat)  =       6.5934  a.u.
     unit-cell volume          =     707.9054 (a.u.)^3
     number of atoms/cell      =            3
     number of atomic types    =            3
     number of electrons       =        26.00
     number of Kohn-Sham states=           26
     kinetic-energy cutoff     =      65.0000  Ry
     charge density cutoff     =     260.0000  Ry
     scf convergence threshold =      1.0E-08
     mixing beta               =       0.7000
     number of iterations used =            8  plain     mixing
     energy convergence thresh.=      1.0E-05
     force convergence thresh. =      1.0E-04
     Exchange-correlation= SLA  PW   PBX  PBC
                           (   1   4   3   4   0   0   0)
     nstep                     =           50


     celldm(1)=   6.593429  celldm(2)=   0.000000  celldm(3)=   0.000000
     celldm(4)=   0.000000  celldm(5)=   0.000000  celldm(6)=   0.000000

     crystal axes: (cart. coord. in units of alat)
               a(1) = (   1.000000   0.000000   0.000000 )  
               a(2) = (  -0.500000   0.861695   0.000000 )  
               a(3) = (   0.000000   0.000000   2.866075 )  

     reciprocal axes: (cart. coord. in units 2 pi/alat)
               b(1) = (  1.000000  0.580252 -0.000000 )  
               b(2) = (  0.000000  1.160503  0.000000 )  
               b(3) = (  0.000000 -0.000000  0.348909 )  


     PseudoPot. # 1 for Zr read from file:
     /mgpfs/home/rabdillah/repo/qe/pseudo/Zr.pbe-spn-kjpaw_psl.1.0.0.UPF
     MD5 check sum: 02112c41713a0468aff2bb39ef194e36
     Pseudo is Projector augmented-wave + core cor, Zval = 12.0
     Generated using &quot;atomic&quot; code by A. Dal Corso  v.6.2.2
     Shape of augmentation charge: PSQ
     Using radial grid of 1225 points,  6 beta functions with: 
                l(1) =   0
                l(2) =   0
                l(3) =   1
                l(4) =   1
                l(5) =   2
                l(6) =   2
     Q(r) pseudized with 0 coefficients 


     PseudoPot. # 2 for Cl read from file:
     /mgpfs/home/rabdillah/repo/qe/pseudo/Cl.pbe-n-kjpaw_psl.1.0.0.UPF
     MD5 check sum: 530da96d25dcb7781b0586ca00827062
     Pseudo is Projector augmented-wave + core cor, Zval =  7.0
     Generated using &quot;atomic&quot; code by A. Dal Corso  v.6.3
     Shape of augmentation charge: PSQ
     Using radial grid of 1157 points,  6 beta functions with: 
                l(1) =   0
                l(2) =   0
                l(3) =   1
                l(4) =   1
                l(5) =   2
                l(6) =   2
     Q(r) pseudized with 0 coefficients 


     PseudoPot. # 3 for Br read from file:
     /mgpfs/home/rabdillah/repo/qe/pseudo/Br.pbe-n-kjpaw_psl.1.0.0.UPF
     MD5 check sum: b00de77caabc69c0a6b76eb37264f235
     Pseudo is Projector augmented-wave + core cor, Zval =  7.0
     Generated using &quot;atomic&quot; code by A. Dal Corso  v.6.3
     Shape of augmentation charge: PSQ
     Using radial grid of 1213 points,  4 beta functions with: 
                l(1) =   0
                l(2) =   0
                l(3) =   1
                l(4) =   1
     Q(r) pseudized with 0 coefficients 


     atomic species   valence    mass     pseudopotential
        Zr            12.00    91.22400     Zr( 1.00)
        Cl             7.00    35.45300     Cl( 1.00)
        Br             7.00    79.90400     Br( 1.00)

      2 Sym. Ops. (no inversion) found



   Cartesian axes

     site n.     atom                  positions (alat units)
         1           Zr  tau(   1) = (   0.0000000   0.0000000   2.9453878  )
         2           Cl  tau(   2) = (  -0.0000000   0.5773503   3.4291986  )
         3           Br  tau(   3) = (  -0.0000000   0.5773503   2.4137016  )

     number of k points=    73
                       cart. coord. in units 2pi/alat
        k(    1) = (   0.0000000   0.0000000   0.0000000), wk =   0.0078125
        k(    2) = (   0.0000000   0.0725314   0.0000000), wk =   0.0156250
        k(    3) = (   0.0000000   0.1450629   0.0000000), wk =   0.0156250
        k(    4) = (   0.0000000   0.2175943   0.0000000), wk =   0.0156250
        k(    5) = (   0.0000000   0.2901258   0.0000000), wk =   0.0156250
        k(    6) = (   0.0000000   0.3626572   0.0000000), wk =   0.0156250
        k(    7) = (   0.0000000   0.4351886   0.0000000), wk =   0.0156250
        k(    8) = (   0.0000000   0.5077201   0.0000000), wk =   0.0156250
        k(    9) = (   0.0000000  -0.5802515   0.0000000), wk =   0.0078125
        k(   10) = (   0.0625000   0.0362657   0.0000000), wk =   0.0312500
        k(   11) = (   0.0625000   0.1087972   0.0000000), wk =   0.0312500
        k(   12) = (   0.0625000   0.1813286   0.0000000), wk =   0.0312500
        k(   13) = (   0.0625000   0.2538600   0.0000000), wk =   0.0312500
        k(   14) = (   0.0625000   0.3263915   0.0000000), wk =   0.0312500
        k(   15) = (   0.0625000   0.3989229   0.0000000), wk =   0.0312500
        k(   16) = (   0.0625000   0.4714544   0.0000000), wk =   0.0312500
        k(   17) = (   0.0625000   0.5439858   0.0000000), wk =   0.0312500
        k(   18) = (   0.1250000   0.0725314   0.0000000), wk =   0.0312500
        k(   19) = (   0.1250000   0.1450629   0.0000000), wk =   0.0312500
        k(   20) = (   0.1250000   0.2175943   0.0000000), wk =   0.0312500
        k(   21) = (   0.1250000   0.2901258   0.0000000), wk =   0.0312500
        k(   22) = (   0.1250000   0.3626572   0.0000000), wk =   0.0312500
        k(   23) = (   0.1250000   0.4351886   0.0000000), wk =   0.0312500
        k(   24) = (   0.1250000   0.5077201   0.0000000), wk =   0.0312500
        k(   25) = (   0.1250000   0.5802515   0.0000000), wk =   0.0156250
        k(   26) = (   0.1250000   0.0000000   0.0000000), wk =   0.0156250
        k(   27) = (   0.1875000   0.1087972   0.0000000), wk =   0.0312500
        k(   28) = (   0.1875000   0.1813286   0.0000000), wk =   0.0312500
        k(   29) = (   0.1875000   0.2538600   0.0000000), wk =   0.0312500
        k(   30) = (   0.1875000   0.3263915   0.0000000), wk =   0.0312500
        k(   31) = (   0.1875000   0.3989229   0.0000000), wk =   0.0312500
        k(   32) = (   0.1875000   0.4714544   0.0000000), wk =   0.0312500
        k(   33) = (   0.1875000   0.5439858   0.0000000), wk =   0.0312500
        k(   34) = (   0.1875000  -0.0362657   0.0000000), wk =   0.0312500
        k(   35) = (   0.2500000   0.1450629   0.0000000), wk =   0.0312500
        k(   36) = (   0.2500000   0.2175943   0.0000000), wk =   0.0312500
        k(   37) = (   0.2500000   0.2901258   0.0000000), wk =   0.0312500
        k(   38) = (   0.2500000   0.3626572   0.0000000), wk =   0.0312500
        k(   39) = (   0.2500000   0.4351886   0.0000000), wk =   0.0312500
        k(   40) = (   0.2500000   0.5077201   0.0000000), wk =   0.0312500
        k(   41) = (   0.2500000   0.5802515   0.0000000), wk =   0.0156250
        k(   42) = (   0.2500000  -0.0725314   0.0000000), wk =   0.0312500
        k(   43) = (   0.2500000   0.0000000   0.0000000), wk =   0.0156250
        k(   44) = (   0.3125000   0.1813286   0.0000000), wk =   0.0312500
        k(   45) = (   0.3125000   0.2538600   0.0000000), wk =   0.0312500
        k(   46) = (   0.3125000   0.3263915   0.0000000), wk =   0.0312500
        k(   47) = (   0.3125000   0.3989229   0.0000000), wk =   0.0312500
        k(   48) = (   0.3125000   0.4714544   0.0000000), wk =   0.0312500
        k(   49) = (   0.3125000   0.5439858   0.0000000), wk =   0.0312500
        k(   50) = (   0.3125000  -0.1087972   0.0000000), wk =   0.0312500
        k(   51) = (   0.3125000  -0.0362657   0.0000000), wk =   0.0312500
        k(   52) = (   0.3750000   0.2175943   0.0000000), wk =   0.0312500
        k(   53) = (   0.3750000   0.2901258   0.0000000), wk =   0.0312500
        k(   54) = (   0.3750000   0.3626572   0.0000000), wk =   0.0312500
        k(   55) = (   0.3750000   0.4351886   0.0000000), wk =   0.0312500
        k(   56) = (   0.3750000   0.5077201   0.0000000), wk =   0.0312500
        k(   57) = (   0.3750000   0.5802515   0.0000000), wk =   0.0156250
        k(   58) = (   0.3750000  -0.1450629   0.0000000), wk =   0.0312500
        k(   59) = (   0.3750000  -0.0725314   0.0000000), wk =   0.0312500
        k(   60) = (   0.3750000   0.0000000   0.0000000), wk =   0.0156250
        k(   61) = (   0.4375000   0.2538600   0.0000000), wk =   0.0312500
        k(   62) = (   0.4375000   0.3263915   0.0000000), wk =   0.0312500
        k(   63) = (   0.4375000   0.3989229   0.0000000), wk =   0.0312500
        k(   64) = (   0.4375000   0.4714544   0.0000000), wk =   0.0312500
        k(   65) = (   0.4375000   0.5439858   0.0000000), wk =   0.0312500
        k(   66) = (   0.4375000  -0.1813286   0.0000000), wk =   0.0312500
        k(   67) = (   0.4375000  -0.1087972   0.0000000), wk =   0.0312500
        k(   68) = (   0.4375000  -0.0362657   0.0000000), wk =   0.0312500
        k(   69) = (  -0.5000000  -0.2901258   0.0000000), wk =   0.0156250
        k(   70) = (  -0.5000000  -0.2175943   0.0000000), wk =   0.0312500
        k(   71) = (  -0.5000000  -0.1450629   0.0000000), wk =   0.0312500
        k(   72) = (  -0.5000000  -0.0725314   0.0000000), wk =   0.0312500
        k(   73) = (  -0.5000000   0.0000000   0.0000000), wk =   0.0156250

     Dense  grid:    50065 G-vectors     FFT dimensions: (  36,  36, 100)

     Estimated max dynamical RAM per process >      15.32 MB

     Estimated total dynamical RAM >     490.23 MB

     Check: negative core charge=   -0.000004

     Initial potential from superposition of free atoms

     starting charge      25.9978, renormalised to      26.0000
     Starting wfcs are   21 randomized atomic wfcs +    5 random wfcs
     Checking if some PAW data can be deallocated... 

     total cpu time spent up to now is        1.1 secs

     Self-consistent Calculation

     iteration #  1     ecut=    65.00 Ry     beta= 0.70
     Davidson diagonalization with overlap
     ethr =  1.00E-02,  avg # of iterations =  6.5

     Threshold (ethr) on eigenvalues was too large:
     Diagonalizing with lowered threshold

     Davidson diagonalization with overlap
     ethr =  4.59E-04,  avg # of iterations =  1.9

     negative rho (up, down):  1.237E-06 0.000E+00

     total cpu time spent up to now is        4.9 secs

     total energy              =    -591.18294270 Ry
     estimated scf accuracy    <       0.12284578 Ry

     iteration #  2     ecut=    65.00 Ry     beta= 0.70
     Davidson diagonalization with overlap
     ethr =  4.72E-04,  avg # of iterations =  4.9

     total cpu time spent up to now is        7.1 secs

     total energy              =    -591.17629692 Ry
     estimated scf accuracy    <       0.34652044 Ry

     iteration #  3     ecut=    65.00 Ry     beta= 0.70
     Davidson diagonalization with overlap
     ethr =  4.72E-04,  avg # of iterations =  2.5

     total cpu time spent up to now is        8.8 secs

     total energy              =    -591.24260509 Ry
     estimated scf accuracy    <       0.00639990 Ry

     iteration #  4     ecut=    65.00 Ry     beta= 0.70
     Davidson diagonalization with overlap
     ethr =  2.46E-05,  avg # of iterations =  6.6

     negative rho (up, down):  5.117E-08 0.000E+00

     total cpu time spent up to now is       10.7 secs

     total energy              =    -591.24406557 Ry
     estimated scf accuracy    <       0.00039621 Ry

     iteration #  5     ecut=    65.00 Ry     beta= 0.70
     Davidson diagonalization with overlap
     ethr =  1.52E-06,  avg # of iterations =  4.7

     negative rho (up, down):  7.303E-08 0.000E+00

     total cpu time spent up to now is       12.6 secs

     total energy              =    -591.24413483 Ry
     estimated scf accuracy    <       0.00001358 Ry

     iteration #  6     ecut=    65.00 Ry     beta= 0.70
     Davidson diagonalization with overlap
     ethr =  5.22E-08,  avg # of iterations =  2.0

     negative rho (up, down):  8.858E-08 0.000E+00

     total cpu time spent up to now is       14.2 secs

     total energy              =    -591.24413643 Ry
     estimated scf accuracy    <       0.00000533 Ry

     iteration #  7     ecut=    65.00 Ry     beta= 0.70
     Davidson diagonalization with overlap
     ethr =  2.05E-08,  avg # of iterations =  2.0

     negative rho (up, down):  1.026E-07 0.000E+00

     total cpu time spent up to now is       15.6 secs

     total energy              =    -591.24413803 Ry
     estimated scf accuracy    <       0.00000209 Ry

     iteration #  8     ecut=    65.00 Ry     beta= 0.70
     Davidson diagonalization with overlap
     ethr =  8.05E-09,  avg # of iterations =  1.1

     negative rho (up, down):  1.075E-07 0.000E+00

     total cpu time spent up to now is       16.9 secs

     End of self-consistent calculation

          k = 0.0000 0.0000 0.0000 (  6307 PWs)   bands (ev):

   -44.7283 -22.9727 -22.5666 -22.5591 -12.6314 -12.0644  -1.9924   0.0689
     0.3459   0.3793   1.5368   1.5836   4.3663   6.0842   6.1533   6.8228
     6.8384   6.9787   8.5113   9.6338  11.4560  13.7727  13.8223  14.0870
    14.8154  15.3704

          k = 0.0000 0.0725 0.0000 (  6317 PWs)   bands (ev):

   -44.7269 -22.9685 -22.5753 -22.5701 -12.6047 -12.0523  -1.9467   0.0129
     0.3106   0.3321   1.4177   1.5006   4.3740   6.0804   6.1204   6.7866
     6.8982   7.1598   8.6455   9.8684  11.5257  13.3427  13.9021  14.4769
    14.8388  15.0328

          k = 0.0000 0.1451 0.0000 (  6313 PWs)   bands (ev):

   -44.7229 -22.9566 -22.6211 -22.5799 -12.5291 -12.0164  -1.8183  -0.1964
     0.1666   0.2883   1.0081   1.4061   4.3705   5.9514   6.2366   6.7496
     7.0569   7.5928   9.0209  10.4197  11.7360  12.7763  14.2313  14.2710
    14.6995  15.0775

          k = 0.0000 0.2176 0.0000 (  6299 PWs)   bands (ev):

   -44.7170 -22.9388 -22.6887 -22.5946 -12.4185 -11.9571  -1.6339  -0.5567
    -0.0383   0.2119   0.5623   1.2847   4.2980   5.9379   6.4486   6.7886
     7.2658   8.0882   9.5462  10.9769  11.9910  12.3862  13.7425  14.5059
    14.8072  15.3540

          k = 0.0000 0.2901 0.0000 (  6283 PWs)   bands (ev):

   -44.7100 -22.9177 -22.7672 -22.6118 -12.2942 -11.8754  -1.4478  -0.9594
    -0.4234   0.1085   0.3128   1.1651   4.1554   6.1272   6.7633   6.8990
     7.4726   8.5526   9.9843  11.3291  11.9464  12.2649  13.9500  14.2233
    15.2375  15.2885

          k = 0.0000 0.3627 0.0000 (  6252 PWs)   bands (ev):

   -44.7030 -22.8966 -22.8441 -22.6289 -12.1805 -11.7762  -1.4967  -1.1428
    -0.8646  -0.0045   0.2205   1.0637   4.0180   6.4764   7.0395   7.1631
     7.6420   8.9715  10.1094  11.3946  11.8742  12.2423  13.9203  14.4885
    14.9035  15.1327

          k = 0.0000 0.4352 0.0000 (  6242 PWs)   bands (ev):

   -44.6971 -22.9089 -22.8780 -22.6433 -12.0945 -11.6754  -1.8013  -1.2746
    -1.0007  -0.1046   0.1849   0.9872   3.9395   6.8690   7.1942   7.5886
     7.7636   9.3259  10.0292  11.2437  11.9043  12.2296  13.4387  14.4496
    14.5411  14.8129

          k = 0.0000 0.5077 0.0000 (  6244 PWs)   bands (ev):

   -44.6931 -22.9512 -22.8661 -22.6530 -12.0424 -11.5992  -2.0260  -1.4970
    -0.9361  -0.1725   0.1731   0.9395   3.9163   7.0854   7.4351   7.8102
     7.9635   9.5432   9.9604  11.1162  11.8834  12.2265  12.8991  14.0287
    14.3077  14.5353

          k = 0.0000-0.5803 0.0000 (  6262 PWs)   bands (ev):

   -44.6917 -22.9660 -22.8619 -22.6564 -12.0250 -11.5708  -2.1063  -1.5746
    -0.9129  -0.1965   0.1707   0.9233   3.9147   7.1286   7.5796   7.8354
     8.1023   9.5754   9.9862  11.0761  11.7968  12.2670  12.7075  13.8270
    14.2070  14.3911

          k = 0.0625 0.0363 0.0000 (  6315 PWs)   bands (ev):

   -44.7269 -22.9685 -22.5814 -22.5638 -12.6048 -12.0528  -1.9468   0.0061
     0.2914   0.3600   1.3830   1.5381   4.3715   6.0286   6.1764   6.7977
     6.8878   7.1588   8.6429   9.8677  11.5255  13.3267  13.9386  14.4626
    14.8207  14.9681

          k = 0.0625 0.1088 0.0000 (  6305 PWs)   bands (ev):

   -44.7243 -22.9605 -22.6081 -22.5747 -12.5537 -12.0288  -1.8596  -0.1241
     0.1948   0.3191   1.1224   1.4466   4.3746   5.9580   6.2229   6.7564
     7.0050   7.4648   8.8978  10.2583  11.6692  12.9215  14.1090  14.4109
    14.7683  14.9567

          k = 0.0625 0.1813 0.0000 (  6302 PWs)   bands (ev):

   -44.7193 -22.9457 -22.6622 -22.5895 -12.4606 -11.9811  -1.7019  -0.4064
     0.0376   0.2416   0.7127   1.3198   4.3427   5.8780   6.3990   6.7715
     7.1850   7.9224   9.3552  10.8021  11.9600  12.4894  13.8061  14.3524
    14.8368  15.3012

          k = 0.0625 0.2539 0.0000 (  6270 PWs)   bands (ev):

   -44.7129 -22.9262 -22.7331 -22.6076 -12.3431 -11.9103  -1.5093  -0.7866
    -0.2247   0.0761   0.4207   1.1782   4.2433   5.9446   6.6907   6.8681
     7.3832   8.3957   9.8581  11.2291  12.0954  12.3370  13.6010  14.2463
    15.0953  15.3008

          k = 0.0625 0.3264 0.0000 (  6266 PWs)   bands (ev):

   -44.7058 -22.9050 -22.8087 -22.6268 -12.2247 -11.8187  -1.3849  -1.1205
    -0.6557  -0.0593   0.3005   1.0418   4.1156   6.1949   6.9842   7.1067
     7.5580   8.8424  10.1287  11.4475  11.9987  12.2830  13.9505  14.2023
    14.8762  15.1718

          k = 0.0625 0.3989 0.0000 (  6247 PWs)   bands (ev):

   -44.6994 -22.8863 -22.8766 -22.6444 -12.1264 -11.7163  -1.6288  -1.1425
    -1.0081  -0.1490   0.2319   0.9263   4.0255   6.5782   7.1367   7.5218
     7.6898   9.2563  10.1053  11.4151  11.9619  12.2757  13.7120  14.2890
    14.6211  14.9787

          k = 0.0625 0.4715 0.0000 (  6262 PWs)   bands (ev):

   -44.6944 -22.9298 -22.8700 -22.6578 -12.0589 -11.6253  -1.8983  -1.3956
    -0.9584  -0.2101   0.1912   0.8434   3.9934   6.9861   7.2801   7.7410
     7.8919   9.6007   9.9942  11.2949  11.9695  12.2423  13.1120  13.9271
    14.5004  14.8225

          k = 0.0625 0.5440 0.0000 (  6254 PWs)   bands (ev):

   -44.6917 -22.9577 -22.8619 -22.6650 -12.0250 -11.5714  -2.0487  -1.5487
    -0.9119  -0.2420   0.1730   0.8003   3.9935   7.1781   7.5047   7.7762
     8.0321   9.6656  10.0930  11.2272  11.8991  12.2606  12.6917  13.6447
    14.4007  14.5181

          k = 0.1250 0.0725 0.0000 (  6312 PWs)   bands (ev):

   -44.7231 -22.9567 -22.6263 -22.5737 -12.5297 -12.0181  -1.8185  -0.2133
     0.1601   0.3170   0.9827   1.4426   4.3600   5.9178   6.2845   6.7619
     7.0471   7.5914   9.0124  10.4188  11.7356  12.7682  14.1733  14.3040
    14.7082  15.0382

          k = 0.1250 0.1451 0.0000 (  6311 PWs)   bands (ev):

   -44.7194 -22.9457 -22.6647 -22.5863 -12.4610 -11.9824  -1.7019  -0.4159
     0.0359   0.2542   0.7039   1.3393   4.3341   5.8709   6.4165   6.7742
     7.1840   7.9223   9.3498  10.8020  11.9604  12.4825  13.7795  14.3617
    14.8463  15.2842

          k = 0.1250 0.2176 0.0000 (  6267 PWs)   bands (ev):

   -44.7139 -22.9292 -22.7204 -22.6062 -12.3610 -11.9231  -1.5320  -0.7117
    -0.1503   0.0463   0.4685   1.1764   4.2842   5.8476   6.7023   6.8679
     7.3443   8.3491   9.8048  11.1901  12.2397  12.3845  13.3422  14.1852
    15.0539  15.1927

          k = 0.1250 0.2901 0.0000 (  6259 PWs)   bands (ev):

   -44.7074 -22.9097 -22.7846 -22.6301 -12.2499 -11.8414  -1.3530  -1.0441
    -0.4782  -0.1785   0.3568   0.9835   4.2179   5.9531   6.9987   7.1280
     7.4971   8.8013  10.1565  11.4621  12.2090  12.5467  13.3920  13.9893
    14.7898  15.0928

          k = 0.1250 0.3627 0.0000 (  6256 PWs)   bands (ev):

   -44.7010 -22.8902 -22.8475 -22.6541 -12.1489 -11.7433  -1.4366  -1.1265
    -0.8881  -0.2828   0.2762   0.7895   4.1690   6.2182   7.1689   7.5288
     7.6592   9.2613  10.2192  11.6061  12.2307  12.4102  13.7637  13.9598
    14.2270  14.9770

          k = 0.1250 0.4352 0.0000 (  6261 PWs)   bands (ev):

   -44.6955 -22.9006 -22.8730 -22.6745 -12.0723 -11.6457  -1.7056  -1.2580
    -0.9834  -0.3355   0.2110   0.6237   4.1638   6.6120   7.2978   7.6759
     7.9467   9.7416  10.0911  11.6192  12.1568  12.3254  13.2531  13.8283
    14.5710  14.8958

          k = 0.1250 0.5077 0.0000 (  6266 PWs)   bands (ev):

   -44.6918 -22.9353 -22.8620 -22.6881 -12.0253 -11.5731  -1.8918  -1.4772
    -0.9122  -0.3573   0.1678   0.5120   4.1881   7.0450   7.3920   7.7233
     8.0357   9.8684  10.2901  11.6048  12.0831  12.2583  12.7201  13.6014
    14.5073  14.8207

          k = 0.1250 0.5803 0.0000 (  6248 PWs)   bands (ev):

   -44.6905 -22.9474 -22.8581 -22.6929 -12.0096 -11.5463  -1.9578  -1.5531
    -0.8887  -0.3625   0.1526   0.4727   4.2032   7.2480   7.4951   7.7263
     7.9556   9.7798  10.5771  11.6068  12.0267  12.3227  12.3689  13.5197
    14.4578  14.6841

          k = 0.1250 0.0000 0.0000 (  6317 PWs)   bands (ev):

   -44.7243 -22.9606 -22.6124 -22.5697 -12.5541 -12.0301  -1.8598  -0.1367
     0.1899   0.3413   1.1021   1.4734   4.3678   5.9255   6.2655   6.7806
     6.9830   7.4631   8.8911  10.2578  11.6693  12.9185  14.1369  14.3658
    14.7496  14.9452

          k = 0.1875 0.1088 0.0000 (  6289 PWs)   bands (ev):

   -44.7173 -22.9390 -22.6933 -22.5880 -12.4198 -11.9608  -1.6340  -0.5725
    -0.0500   0.2443   0.5504   1.3220   4.2768   5.9223   6.4883   6.8029
     7.2580   8.0885   9.5323  10.9778  11.9938  12.3761  13.6922  14.5121
    14.8360  15.3084

          k = 0.1875 0.1813 0.0000 (  6278 PWs)   bands (ev):

   -44.7131 -22.9264 -22.7363 -22.6026 -12.3443 -11.9136  -1.5089  -0.7983
    -0.2385   0.0992   0.4199   1.2076   4.2239   5.9446   6.7114   6.8754
     7.3816   8.3970   9.8486  11.2281  12.0967  12.3285  13.5646  14.2505
    15.0942  15.2945

          k = 0.1875 0.2539 0.0000 (  6269 PWs)   bands (ev):

   -44.7076 -22.9098 -22.7862 -22.6274 -12.2507 -11.8433  -1.3527  -1.0498
    -0.4880  -0.1645   0.3584   0.9979   4.2067   5.9567   7.0063   7.1345
     7.4946   8.8023  10.1525  11.4597  12.2033  12.5615  13.3668  13.9860
    14.7939  15.0853

          k = 0.1875 0.3264 0.0000 (  6268 PWs)   bands (ev):

   -44.7016 -22.8919 -22.8352 -22.6587 -12.1577 -11.7539  -1.3347  -1.1535
    -0.8063  -0.3514   0.2745   0.7381   4.2363   6.0649   7.1957   7.5154
     7.6761   9.2670  10.2799  11.6621  12.4473  12.6284  13.4802  13.8227
    13.8944  15.0253

          k = 0.1875 0.3989 0.0000 (  6260 PWs)   bands (ev):

   -44.6961 -22.8791 -22.8733 -22.6902 -12.0802 -11.6578  -1.5401  -1.1352
    -1.0171  -0.4437   0.1668   0.4896   4.3090   6.3118   7.2993   7.6998
     8.0080   9.7949  10.2310  11.8172  12.3949  12.5294  13.2922  13.6902
    14.2592  14.8271

          k = 0.1875 0.4715 0.0000 (  6258 PWs)   bands (ev):

   -44.6919 -22.9079 -22.8622 -22.7158 -12.0260 -11.5754  -1.6964  -1.3852
    -0.9210  -0.4814   0.0652   0.3009   4.4034   6.6774   7.3182   7.8592
     8.0938  10.0870  10.4302  11.8965  12.0326  12.4748  13.0469  13.7909
    14.5253  14.7813

          k = 0.1875 0.5440 0.0000 (  6250 PWs)   bands (ev):

   -44.6896 -22.9238 -22.8553 -22.7301 -11.9983 -11.5278  -1.7787  -1.5212
    -0.8736  -0.4912   0.0043   0.1995   4.4726   7.0482   7.3259   7.9041
     7.9585   9.9643  11.0238  11.7954  12.0715  12.4371  12.6182  13.7005
    14.5442  14.7593

          k = 0.1875-0.0363 0.0000 (  6298 PWs)   bands (ev):

   -44.7195 -22.9459 -22.6667 -22.5833 -12.4617 -11.9844  -1.7023  -0.4210
     0.0321   0.2695   0.6997   1.3494   4.3264   5.8572   6.4396   6.8018
     7.1613   7.9218   9.3414  10.8037  11.9626  12.4939  13.7591  14.3635
    14.8558  15.2663

          k = 0.2500 0.1451 0.0000 (  6281 PWs)   bands (ev):

   -44.7104 -22.9180 -22.7710 -22.6047 -12.2966 -11.8814  -1.4473  -0.9711
    -0.4380   0.1452   0.3072   1.2039   4.1272   6.1247   6.7924   6.9170
     7.4684   8.5553   9.9700  11.3264  11.9538  12.2534  13.9104  14.2153
    15.1842  15.3206

          k = 0.2500 0.2176 0.0000 (  6264 PWs)   bands (ev):

   -44.7062 -22.9054 -22.8120 -22.6205 -12.2270 -11.8242  -1.3866  -1.1287
    -0.6687  -0.0307   0.3006   1.0771   4.0891   6.1998   7.0029   7.1243
     7.5539   8.8454  10.1177  11.4393  12.0115  12.2746  13.9260  14.1719
    14.8622  15.1631

          k = 0.2500 0.2901 0.0000 (  6259 PWs)   bands (ev):

   -44.7012 -22.8905 -22.8500 -22.6494 -12.1510 -11.7474  -1.4440  -1.1264
    -0.8957  -0.2622   0.2764   0.8131   4.1495   6.2238   7.1912   7.5301
     7.6584   9.2630  10.2116  11.6000  12.2495  12.4096  13.7446  13.9623
    14.1992  14.9515

          k = 0.2500 0.3627 0.0000 (  6261 PWs)   bands (ev):

   -44.6963 -22.8801 -22.8738 -22.6877 -12.0815 -11.6599  -1.5450  -1.1369
    -1.0158  -0.4337   0.1687   0.4975   4.2994   6.3139   7.3127   7.6952
     8.0126   9.7942  10.2281  11.8148  12.3945  12.5470  13.3125  13.6631
    14.2366  14.8076

          k = 0.2500 0.4352 0.0000 (  6252 PWs)   bands (ev):

   -44.6921 -22.8948 -22.8623 -22.7283 -12.0272 -11.5776  -1.5989  -1.3362
    -0.9294  -0.5324  -0.0474   0.2730   4.5010   6.5062   7.2796   7.9469
     8.1224  10.1884  10.4739  11.8432  12.0799  12.7229  13.3568  13.8183
    14.4518  14.5820

          k = 0.2500 0.5077 0.0000 (  6256 PWs)   bands (ev):

   -44.6893 -22.8995 -22.8538 -22.7613 -11.9930 -11.5188  -1.6131  -1.4670
    -0.8688  -0.5971  -0.2559   0.1589   4.6853   6.7809   7.2215   7.9209
     8.1551  10.1763  11.0560  11.6460  12.2557  12.7985  13.1899  13.9204
    14.4362  14.6716

          k = 0.2500 0.5803 0.0000 (  6270 PWs)   bands (ev):

   -44.6883 -22.8994 -22.8508 -22.7747 -11.9813 -11.4975  -1.6213  -1.4999
    -0.8495  -0.6306  -0.3277   0.1206   4.7620   6.9698   7.1985   7.7243
     8.2311  10.1577  11.1428  11.9598  12.3741  12.7895  12.8397  13.8012
    14.6441  14.7209

          k = 0.2500-0.0725 0.0000 (  6282 PWs)   bands (ev):

   -44.7132 -22.9265 -22.7368 -22.6010 -12.3452 -11.9159  -1.5093  -0.7961
    -0.2378   0.1056   0.4206   1.2083   4.2198   5.9397   6.7182   6.8983
     7.3673   8.3971   9.8418  11.2323  12.1059  12.3383  13.5648  14.2450
    15.1089  15.2808

          k = 0.2500 0.0000 0.0000 (  6275 PWs)   bands (ev):

   -44.7142 -22.9295 -22.7226 -22.6018 -12.3627 -11.9274  -1.5325  -0.7144
    -0.1584   0.0676   0.4694   1.1889   4.2707   5.8416   6.7211   6.9063
     7.3184   8.3494   9.7909  11.1951  12.2599  12.3986  13.3165  14.1790
    15.0631  15.1809

          k = 0.3125 0.1813 0.0000 (  6264 PWs)   bands (ev):

   -44.7035 -22.8971 -22.8473 -22.6213 -12.1843 -11.7843  -1.5026  -1.1448
    -0.8712   0.0359   0.2104   1.1043   3.9869   6.4821   7.0623   7.1796
     7.6421   8.9762  10.0940  11.3868  11.8915  12.2354  13.8873  14.4563
    14.8561  15.1690

          k = 0.3125 0.2539 0.0000 (  6249 PWs)   bands (ev):

   -44.6999 -22.8871 -22.8794 -22.6372 -12.1303 -11.7238  -1.6382  -1.1441
    -1.0099  -0.1152   0.2254   0.9653   3.9955   6.5842   7.1647   7.5376
     7.6838   9.2598  10.0900  11.4150  11.9756  12.2713  13.6756  14.2832
    14.6104  14.9466

          k = 0.3125 0.3264 0.0000 (  6259 PWs)   bands (ev):

   -44.6959 -22.9033 -22.8735 -22.6684 -12.0759 -11.6517  -1.7155  -1.2591
    -0.9805  -0.3088   0.2056   0.6523   4.1397   6.6154   7.3340   7.6626
     7.9584   9.7430  10.0794  11.6252  12.1671  12.3264  13.2540  13.8103
    14.5473  14.8563

          k = 0.3125 0.3989 0.0000 (  6251 PWs)   bands (ev):

   -44.6922 -22.9100 -22.8624 -22.7113 -12.0289 -11.5795  -1.7042  -1.3834
    -0.9179  -0.4641   0.0720   0.3061   4.3882   6.6763   7.3336   7.8643
     8.1008  10.0794  10.4301  11.8967  12.0404  12.4929  13.0475  13.7780
    14.5005  14.7572

          k = 0.3125 0.4715 0.0000 (  6249 PWs)   bands (ev):

   -44.6894 -22.9007 -22.8540 -22.7589 -11.9945 -11.5209  -1.6160  -1.4657
    -0.8670  -0.5899  -0.2470   0.1543   4.6797   6.7775   7.2246   7.9231
     8.1649  10.1703  11.0592  11.6498  12.2560  12.8103  13.1764  13.9343
    14.4258  14.6687

          k = 0.3125 0.5440 0.0000 (  6258 PWs)   bands (ev):

   -44.6879 -22.8822 -22.8494 -22.7982 -11.9764 -11.4881  -1.5887  -1.3953
    -0.8409  -0.7626  -0.4334   0.0949   4.8982   6.8876   7.1458   7.6576
     8.3594  10.3100  10.9101  12.2658  12.4617  13.0247  13.1951  13.4950
    14.5792  14.7797

          k = 0.3125-0.1088 0.0000 (  6276 PWs)   bands (ev):

   -44.7064 -22.9055 -22.8117 -22.6197 -12.2281 -11.8265  -1.3853  -1.1253
    -0.6615  -0.0327   0.3018   1.0734   4.0896   6.2005   7.0093   7.1201
     7.5552   8.8459  10.1151  11.4447  12.0145  12.2834  13.9320  14.1876
    14.8300  15.1684

          k = 0.3125-0.0363 0.0000 (  6274 PWs)   bands (ev):

   -44.7079 -22.9101 -22.7864 -22.6249 -12.2528 -11.8479  -1.3530  -1.0438
    -0.4787  -0.1620   0.3600   0.9978   4.2020   5.9555   7.0314   7.1339
     7.4862   8.8023  10.1446  11.4684  12.2321  12.5668  13.3713  13.9839
    14.7492  15.0771

          k = 0.3750 0.2176 0.0000 (  6245 PWs)   bands (ev):

   -44.6977 -22.9116 -22.8787 -22.6353 -12.1000 -11.6850  -1.8100  -1.2721
    -0.9980  -0.0613   0.1691   1.0297   3.9071   6.8845   7.2184   7.5919
     7.7674   9.3314  10.0080  11.2539  11.9069  12.2275  13.3959  14.4101
    14.5833  14.7710

          k = 0.3750 0.2901 0.0000 (  6254 PWs)   bands (ev):

   -44.6950 -22.9325 -22.8706 -22.6500 -12.0646 -11.6342  -1.9087  -1.3920
    -0.9542  -0.1709   0.1769   0.8841   3.9620   6.9993   7.3061   7.7396
     7.9009   9.6058   9.9719  11.3167  11.9639  12.2335  13.0775  13.9546
    14.4744  14.7804

          k = 0.3750 0.3627 0.0000 (  6254 PWs)   bands (ev):

   -44.6923 -22.9378 -22.8625 -22.6812 -12.0306 -11.5807  -1.9018  -1.4715
    -0.9075  -0.3254   0.1555   0.5426   4.1628   7.0478   7.4213   7.7230
     8.0451   9.8642  10.2795  11.6317  12.0837  12.2478  12.7014  13.6106
    14.4823  14.7912

          k = 0.3750 0.4352 0.0000 (  6248 PWs)   bands (ev):

   -44.6901 -22.9259 -22.8557 -22.7245 -12.0026 -11.5335  -1.7863  -1.5138
    -0.8695  -0.4698   0.0184   0.1948   4.4569   7.0439   7.3326   7.9128
     7.9771   9.9547  11.0202  11.8088  12.0938  12.4337  12.5985  13.7090
    14.5216  14.7499

          k = 0.3750 0.5077 0.0000 (  6255 PWs)   bands (ev):

   -44.6885 -22.9010 -22.8511 -22.7708 -11.9842 -11.5013  -1.6204  -1.4963
    -0.8478  -0.6202  -0.3147   0.1106   4.7574   6.9634   7.1993   7.7183
     8.2562  10.1449  11.1607  11.9474  12.3848  12.7909  12.8318  13.8357
    14.6285  14.8576

          k = 0.3750 0.5803 0.0000 (  6256 PWs)   bands (ev):

   -44.6880 -22.8827 -22.8495 -22.7967 -11.9778 -11.4898  -1.5841  -1.3922
    -0.8463  -0.7553  -0.4306   0.0906   4.9000   6.8850   7.1454   7.6465
     8.3740  10.2988  10.9260  12.2374  12.4748  13.0262  13.2131  13.5089
    14.5399  14.8010

          k = 0.3750-0.1451 0.0000 (  6249 PWs)   bands (ev):

   -44.7000 -22.8871 -22.8789 -22.6369 -12.1314 -11.7257  -1.6335  -1.1400
    -1.0063  -0.1190   0.2264   0.9606   3.9985   6.5909   7.1620   7.5161
     7.6992   9.2621  10.0884  11.4145  11.9792  12.2792  13.6771  14.2576
    14.6141  14.9765

          k = 0.3750-0.0725 0.0000 (  6260 PWs)   bands (ev):

   -44.7015 -22.8907 -22.8491 -22.6482 -12.1532 -11.7515  -1.4356  -1.1256
    -0.8802  -0.2671   0.2764   0.8069   4.1525   6.2258   7.1926   7.5216
     7.6652   9.2631  10.2102  11.6108  12.2537  12.4255  13.7507  13.9318
    14.2232  14.9485

          k = 0.3750 0.0000 0.0000 (  6247 PWs)   bands (ev):

   -44.7021 -22.8923 -22.8353 -22.6552 -12.1610 -11.7603  -1.3272  -1.1532
    -0.7890  -0.3508   0.2745   0.7392   4.2323   6.0667   7.2117   7.5099
     7.6775   9.2659  10.2761  11.6755  12.4833  12.6374  13.4787  13.8051
    13.8767  15.0137

          k = 0.4375 0.2539 0.0000 (  6244 PWs)   bands (ev):

   -44.6938 -22.9535 -22.8668 -22.6446 -12.0493 -11.6096  -2.0356  -1.4886
    -0.9308  -0.1275   0.1535   0.9834   3.8830   7.1164   7.4523   7.8179
     7.9536   9.5481   9.9341  11.1443  11.8708  12.2080  12.8688  14.0774
    14.2702  14.5044

          k = 0.4375 0.3264 0.0000 (  6250 PWs)   bands (ev):

   -44.6924 -22.9600 -22.8626 -22.6569 -12.0319 -11.5813  -2.0587  -1.5396
    -0.9062  -0.2001   0.1539   0.8412   3.9622   7.2125   7.5121   7.7822
     8.0294   9.6673  10.0696  11.2612  11.8846  12.2343  12.6697  13.6753
    14.3784  14.4918

          k = 0.4375 0.3989 0.0000 (  6253 PWs)   bands (ev):

   -44.6911 -22.9495 -22.8587 -22.6857 -12.0158 -11.5549  -1.9661  -1.5423
    -0.8835  -0.3292   0.1370   0.5023   4.1793   7.2641   7.5032   7.7484
     7.9476   9.7705  10.5669  11.6425  12.0213  12.3019  12.3628  13.5224
    14.4358  14.6724

          k = 0.4375 0.4715 0.0000 (  6249 PWs)   bands (ev):

   -44.6902 -22.9255 -22.8558 -22.7244 -12.0035 -11.5347  -1.7826  -1.5084
    -0.8702  -0.4708   0.0176   0.1921   4.4603   7.0501   7.3286   7.8901
     7.9919   9.9517  11.0183  11.8033  12.1069  12.4236  12.6194  13.6991
    14.5217  14.7582

          k = 0.4375 0.5440 0.0000 (  6241 PWs)   bands (ev):

   -44.6896 -22.9002 -22.8542 -22.7578 -11.9967 -11.5238  -1.6084  -1.4545
    -0.8692  -0.5883  -0.2483   0.1488   4.6857   6.7787   7.2198   7.8911
     8.1936  10.1614  11.0685  11.6333  12.2864  12.7905  13.2153  13.9280
    14.4107  14.6575

          k = 0.4375-0.1813 0.0000 (  6255 PWs)   bands (ev):

   -44.6951 -22.9319 -22.8707 -22.6499 -12.0654 -11.6354  -1.9051  -1.3867
    -0.9544  -0.1739   0.1775   0.8806   3.9651   7.0056   7.3061   7.7541
     7.8746   9.6070   9.9704  11.3124  11.9705  12.2387  13.0856  13.9155
    14.4849  14.8143

          k = 0.4375-0.1088 0.0000 (  6256 PWs)   bands (ev):

   -44.6961 -22.9021 -22.8736 -22.6679 -12.0779 -11.6548  -1.7071  -1.2463
    -0.9805  -0.3140   0.2052   0.6452   4.1459   6.6229   7.3104   7.7051
     7.9236   9.7452  10.0755  11.6296  12.1743  12.3357  13.2459  13.8012
    14.5582  14.8854

          k = 0.4375-0.0363 0.0000 (  6255 PWs)   bands (ev):

   -44.6966 -22.8794 -22.8738 -22.6859 -12.0847 -11.6652  -1.5337  -1.1177
    -1.0154  -0.4375   0.1662   0.4918   4.3046   6.3151   7.2969   7.7373
     7.9806   9.7910  10.2277  11.8370  12.4107  12.5401  13.3086  13.6712
    14.2487  14.8005

          k =-0.5000-0.2901 0.0000 (  6254 PWs)   bands (ev):

   -44.6925 -22.9682 -22.8626 -22.6479 -12.0324 -11.5815  -2.1162  -1.5642
    -0.9069  -0.1509   0.1498   0.9676   3.8812   7.1638   7.5961   7.8446
     8.0864   9.5797   9.9579  11.1102  11.7776  12.2372  12.6858  13.8808
    14.1666  14.3708

          k =-0.5000-0.2176 0.0000 (  6241 PWs)   bands (ev):

   -44.6925 -22.9598 -22.8626 -22.6569 -12.0322 -11.5817  -2.0574  -1.5377
    -0.9063  -0.2012   0.1541   0.8399   3.9634   7.2082   7.5269   7.7876
     8.0110   9.6618  10.0746  11.2588  11.8847  12.2371  12.6795  13.6541
    14.3836  14.5054

          k =-0.5000-0.1451 0.0000 (  6254 PWs)   bands (ev):

   -44.6925 -22.9370 -22.8627 -22.6811 -12.0317 -11.5823  -1.8969  -1.4641
    -0.9080  -0.3284   0.1554   0.5381   4.1673   7.0574   7.4045   7.7590
     8.0079   9.8579  10.2813  11.6307  12.0901  12.2491  12.7198  13.5844
    14.4871  14.8167

          k =-0.5000-0.0725 0.0000 (  6252 PWs)   bands (ev):

   -44.6925 -22.9089 -22.8627 -22.7106 -12.0313 -11.5830  -1.6948  -1.3686
    -0.9190  -0.4671   0.0695   0.2998   4.3957   6.6814   7.3157   7.9066
     8.0596  10.0746  10.4256  11.9159  12.0541  12.4726  13.0724  13.7666
    14.5028  14.7785

          k =-0.5000 0.0000 0.0000 (  6268 PWs)   bands (ev):

   -44.6925 -22.8944 -22.8627 -22.7257 -12.0311 -11.5832  -1.5895  -1.3174
    -0.9302  -0.5300  -0.0479   0.2662   4.5055   6.5059   7.2704   7.9881
     8.0863  10.1777  10.4716  11.8574  12.1075  12.7077  13.4071  13.7971
    14.4394  14.5714

     highest occupied, lowest unoccupied level (ev):     4.9000    5.8416

!    total energy              =    -591.24413843 Ry
     total all-electron energy =    -13333.877415 Ry
     estimated scf accuracy    <          9.6E-09 Ry

     The total energy is the sum of the following terms:
     one-electron contribution =    -205.49570500 Ry
     hartree contribution      =     110.70893497 Ry
     xc contribution           =     -37.61353047 Ry
     ewald contribution        =     -27.72659063 Ry
     one-center paw contrib.   =    -431.11724729 Ry

     convergence has been achieved in   8 iterations

     negative rho (up, down):  1.075E-07 0.000E+00

     Forces acting on atoms (cartesian axes, Ry/au):

     atom    1 type  1   force =     0.00000000    0.00278430   -0.00006933
     atom    2 type  2   force =     0.00000000   -0.00144146    0.00150569
     atom    3 type  3   force =     0.00000000   -0.00134284   -0.00143636
     The non-local contrib.  to forces
     atom    1 type  1   force =     0.00000000    0.00043160   -0.00059420
     atom    2 type  2   force =     0.00000000   -0.00106862   -0.21236456
     atom    3 type  3   force =     0.00000000   -0.00108249    0.20881134
     The ionic contribution  to forces
     atom    1 type  1   force =    -0.00000001   -0.00496817   -0.33399912
     atom    2 type  2   force =     0.00000000    0.00243709   21.30674013
     atom    3 type  3   force =     0.00000000    0.00253108  -20.97274101
     The local contribution  to forces
     atom    1 type  1   force =    -0.00000000    0.00725561    0.33411510
     atom    2 type  2   force =     0.00000003   -0.00280109  -21.10058013
     atom    3 type  3   force =    -0.00000000   -0.00288203   20.76583694
     The core correction contribution to forces
     atom    1 type  1   force =    -0.00000000    0.00003999    0.00035146
     atom    2 type  2   force =    -0.00000000   -0.00003330    0.00787197
     atom    3 type  3   force =    -0.00000000    0.00006560   -0.00341344
     The Hubbard contrib.    to forces
     atom    1 type  1   force =     0.00000000    0.00000000    0.00000000
     atom    2 type  2   force =     0.00000000    0.00000000    0.00000000
     atom    3 type  3   force =     0.00000000    0.00000000    0.00000000
     The SCF correction term to forces
     atom    1 type  1   force =    -0.00000000    0.00000035    0.00012620
     atom    2 type  2   force =     0.00000000   -0.00000046   -0.00009292
     atom    3 type  3   force =     0.00000000    0.00000008    0.00013859

     Total force =     0.003996     Total SCF correction =     0.000209

     BFGS Geometry Optimization
     Energy error            =      0.0E+00 Ry
     Gradient error          =      2.8E-03 Ry/Bohr

     number of scf cycles    =   1
     number of bfgs steps    =   0

     energy             new  =    -591.2441384258 Ry

     new trust radius        =       0.0027851641 bohr
     new conv_thr            =       0.0000000100 Ry


ATOMIC_POSITIONS (angstrom)
Zr            0.0000000000        0.0014733886       10.2766934323
Cl           -0.0000000017        2.0136656344       11.9655874504
Br           -0.0000000017        2.0137178216        8.4208678917



     Writing config-only to output data dir ./tmp/ZrClBr.save/
     NEW-OLD atomic charge density approx. for the potential

     Check: negative core charge=   -0.000004

     negative rho (up, down):  1.046E-07 0.000E+00

     total cpu time spent up to now is       17.4 secs

     Self-consistent Calculation

     iteration #  1     ecut=    65.00 Ry     beta= 0.70
     Davidson diagonalization with overlap
     ethr =  1.00E-06,  avg # of iterations =  3.0

     Threshold (ethr) on eigenvalues was too large:
     Diagonalizing with lowered threshold

     Davidson diagonalization with overlap
     ethr =  2.19E-09,  avg # of iterations =  3.9

     negative rho (up, down):  1.043E-07 0.000E+00

     total cpu time spent up to now is       21.1 secs

     total energy              =    -591.24415217 Ry
     estimated scf accuracy    <       0.00000057 Ry

     iteration #  2     ecut=    65.00 Ry     beta= 0.70
     Davidson diagonalization with overlap
     ethr =  2.21E-09,  avg # of iterations =  2.0

     negative rho (up, down):  1.051E-07 0.000E+00

     total cpu time spent up to now is       22.7 secs

     total energy              =    -591.24415212 Ry
     estimated scf accuracy    <       0.00000099 Ry

     iteration #  3     ecut=    65.00 Ry     beta= 0.70
     Davidson diagonalization with overlap
     ethr =  2.21E-09,  avg # of iterations =  2.0

     negative rho (up, down):  1.050E-07 0.000E+00

     total cpu time spent up to now is       24.1 secs

     total energy              =    -591.24415236 Ry
     estimated scf accuracy    <       0.00000010 Ry

     iteration #  4     ecut=    65.00 Ry     beta= 0.70
     Davidson diagonalization with overlap
     ethr =  3.69E-10,  avg # of iterations =  1.0

     negative rho (up, down):  1.052E-07 0.000E+00

     total cpu time spent up to now is       25.4 secs

     End of self-consistent calculation

          k = 0.0000 0.0000 0.0000 (  6307 PWs)   bands (ev):

   -44.7300 -22.9739 -22.5680 -22.5607 -12.6300 -12.0638  -1.9910   0.0684
     0.3493   0.3803   1.5412   1.5838   4.3635   6.0845   6.1495   6.8271
     6.8331   6.9780   8.5121   9.6340  11.4576  13.7704  13.8261  14.0839
    14.8159  15.3749

          k = 0.0000 0.0725 0.0000 (  6317 PWs)   bands (ev):

   -44.7286 -22.9697 -22.5769 -22.5714 -12.6032 -12.0517  -1.9452   0.0122
     0.3117   0.3356   1.4179   1.5049   4.3712   6.0768   6.1206   6.7903
     6.8930   7.1592   8.6461   9.8691  11.5272  13.3436  13.8999  14.4767
    14.8386  15.0270

          k = 0.0000 0.1451 0.0000 (  6313 PWs)   bands (ev):

   -44.7246 -22.9579 -22.6227 -22.5813 -12.5277 -12.0158  -1.8167  -0.1966
     0.1673   0.2919   1.0084   1.4100   4.3676   5.9482   6.2367   6.7522
     7.0520   7.5924   9.0211  10.4215  11.7375  12.7765  14.2252  14.2689
    14.7012  15.0764

          k = 0.0000 0.2176 0.0000 (  6299 PWs)   bands (ev):

   -44.7187 -22.9400 -22.6903 -22.5959 -12.4171 -11.9564  -1.6320  -0.5561
    -0.0383   0.2157   0.5626   1.2882   4.2949   5.9353   6.4484   6.7904
     7.2611   8.0882   9.5453  10.9796  11.9925  12.3859  13.7367  14.5081
    14.8055  15.3525

          k = 0.0000 0.2901 0.0000 (  6283 PWs)   bands (ev):

   -44.7117 -22.9189 -22.7687 -22.6131 -12.2929 -11.8746  -1.4455  -0.9586
    -0.4232   0.1124   0.3124   1.1682   4.1521   6.1253   6.7628   6.9004
     7.4683   8.5528   9.9818  11.3314  11.9479  12.2641  13.9464  14.2260
    15.2351  15.2868

          k = 0.0000 0.3627 0.0000 (  6252 PWs)   bands (ev):

   -44.7047 -22.8978 -22.8456 -22.6302 -12.1794 -11.7752  -1.4951  -1.1413
    -0.8636  -0.0006   0.2193   1.0665   4.0145   6.4755   7.0408   7.1623
     7.6379   8.9713  10.1064  11.3944  11.8766  12.2423  13.9206  14.4880
    14.9010  15.1307

          k = 0.0000 0.4352 0.0000 (  6242 PWs)   bands (ev):

   -44.6988 -22.9104 -22.8793 -22.6447 -12.0935 -11.6743  -1.8005  -1.2734
    -0.9982  -0.1006   0.1831   0.9898   3.9359   6.8694   7.1951   7.5876
     7.7599   9.3243  10.0279  11.2431  11.9053  12.2304  13.4370  14.4487
    14.5391  14.8095

          k = 0.0000 0.5077 0.0000 (  6244 PWs)   bands (ev):

   -44.6948 -22.9527 -22.8673 -22.6543 -12.0415 -11.5979  -2.0255  -1.4954
    -0.9333  -0.1685   0.1710   0.9421   3.9126   7.0873   7.4348   7.8067
     7.9622   9.5417   9.9599  11.1162  11.8830  12.2264  12.8979  14.0267
    14.3035  14.5338

          k = 0.0000-0.5803 0.0000 (  6262 PWs)   bands (ev):

   -44.6934 -22.9675 -22.8631 -22.6577 -12.0241 -11.5694  -2.1058  -1.5729
    -0.9101  -0.1925   0.1685   0.9258   3.9110   7.1309   7.5789   7.8318
     8.1011   9.5769   9.9829  11.0763  11.7961  12.2664  12.7067  13.8250
    14.1993  14.3928

          k = 0.0625 0.0363 0.0000 (  6315 PWs)   bands (ev):

   -44.7286 -22.9698 -22.5828 -22.5653 -12.6034 -12.0521  -1.9454   0.0065
     0.2934   0.3613   1.3865   1.5391   4.3689   6.0282   6.1732   6.7956
     6.8889   7.1582   8.6435   9.8677  11.5269  13.3250  13.9406  14.4609
    14.8216  14.9699

          k = 0.0625 0.1088 0.0000 (  6305 PWs)   bands (ev):

   -44.7260 -22.9617 -22.6096 -22.5761 -12.5523 -12.0281  -1.8581  -0.1238
     0.1957   0.3219   1.1236   1.4496   4.3720   5.9558   6.2218   6.7580
     7.0017   7.4642   8.8981  10.2593  11.6705  12.9214  14.1079  14.4080
    14.7669  14.9580

          k = 0.0625 0.1813 0.0000 (  6302 PWs)   bands (ev):

   -44.7210 -22.9469 -22.6637 -22.5909 -12.4592 -11.9805  -1.7002  -0.4058
     0.0379   0.2451   0.7132   1.3231   4.3399   5.8756   6.3983   6.7733
     7.1807   7.9222   9.3548  10.8044  11.9612  12.4895  13.8012  14.3515
    14.8371  15.3010

          k = 0.0625 0.2539 0.0000 (  6270 PWs)   bands (ev):

   -44.7146 -22.9274 -22.7346 -22.6089 -12.3418 -11.9096  -1.5073  -0.7857
    -0.2248   0.0797   0.4209   1.1812   4.2404   5.9426   6.6900   6.8696
     7.3789   8.3958   9.8562  11.2319  12.0966  12.3371  13.5962  14.2472
    15.0947  15.2998

          k = 0.0625 0.3264 0.0000 (  6266 PWs)   bands (ev):

   -44.7076 -22.9063 -22.8102 -22.6281 -12.2235 -11.8178  -1.3827  -1.1195
    -0.6551  -0.0563   0.3004   1.0446   4.1125   6.1935   6.9853   7.1061
     7.5540   8.8425  10.1257  11.4490  12.0004  12.2829  13.9497  14.2020
    14.8734  15.1704

          k = 0.0625 0.3989 0.0000 (  6247 PWs)   bands (ev):

   -44.7011 -22.8876 -22.8781 -22.6457 -12.1254 -11.7152  -1.6277  -1.1412
    -1.0060  -0.1459   0.2309   0.9289   4.0222   6.5774   7.1380   7.5207
     7.6862   9.2556  10.1029  11.4145  11.9639  12.2763  13.7107  14.2867
    14.6215  14.9766

          k = 0.0625 0.4715 0.0000 (  6262 PWs)   bands (ev):

   -44.6961 -22.9313 -22.8713 -22.6591 -12.0581 -11.6240  -1.8976  -1.3941
    -0.9558  -0.2065   0.1895   0.8459   3.9900   6.9865   7.2810   7.7377
     7.8904   9.5986   9.9939  11.2944  11.9697  12.2429  13.1100  13.9248
    14.5007  14.8182

          k = 0.0625 0.5440 0.0000 (  6254 PWs)   bands (ev):

   -44.6934 -22.9591 -22.8632 -22.6663 -12.0242 -11.5701  -2.0482  -1.5470
    -0.9091  -0.2383   0.1709   0.8027   3.9900   7.1801   7.5043   7.7729
     8.0303   9.6667  10.0902  11.2271  11.8985  12.2603  12.6904  13.6424
    14.4003  14.5136

          k = 0.1250 0.0725 0.0000 (  6312 PWs)   bands (ev):

   -44.7248 -22.9580 -22.6277 -22.5752 -12.5285 -12.0174  -1.8172  -0.2113
     0.1605   0.3183   0.9851   1.4440   4.3582   5.9165   6.2819   6.7599
     7.0480   7.5908   9.0125  10.4188  11.7363  12.7669  14.1753  14.3057
    14.7048  15.0405

          k = 0.1250 0.1451 0.0000 (  6311 PWs)   bands (ev):

   -44.7211 -22.9470 -22.6661 -22.5877 -12.4597 -11.9816  -1.7004  -0.4143
     0.0360   0.2568   0.7047   1.3416   4.3321   5.8689   6.4149   6.7744
     7.1819   7.9218   9.3493  10.8033  11.9606  12.4827  13.7789  14.3589
    14.8475  15.2850

          k = 0.1250 0.2176 0.0000 (  6267 PWs)   bands (ev):

   -44.7156 -22.9305 -22.7218 -22.6075 -12.3598 -11.9223  -1.5303  -0.7103
    -0.1502   0.0492   0.4688   1.1790   4.2821   5.8455   6.7010   6.8685
     7.3410   8.3489   9.8032  11.1925  12.2405  12.3851  13.3392  14.1827
    15.0549  15.1922

          k = 0.1250 0.2901 0.0000 (  6259 PWs)   bands (ev):

   -44.7092 -22.9110 -22.7860 -22.6314 -12.2488 -11.8404  -1.3511  -1.0429
    -0.4773  -0.1764   0.3572   0.9859   4.2156   5.9512   6.9994   7.1267
     7.4937   8.8013  10.1536  11.4645  12.2106  12.5480  13.3879  13.9882
    14.7882  15.0919

          k = 0.1250 0.3627 0.0000 (  6256 PWs)   bands (ev):

   -44.7027 -22.8915 -22.8490 -22.6554 -12.1479 -11.7422  -1.4354  -1.1247
    -0.8866  -0.2807   0.2761   0.7918   4.1665   6.2167   7.1696   7.5266
     7.6570   9.2612  10.2160  11.6072  12.2323  12.4111  13.7625  13.9572
    14.2259  14.9758

          k = 0.1250 0.4352 0.0000 (  6261 PWs)   bands (ev):

   -44.6972 -22.9021 -22.8743 -22.6758 -12.0714 -11.6445  -1.7048  -1.2564
    -0.9810  -0.3330   0.2103   0.6258   4.1610   6.6110   7.2981   7.6735
     7.9453   9.7406  10.0896  11.6189  12.1577  12.3260  13.2506  13.8274
    14.5713  14.8938

          k = 0.1250 0.5077 0.0000 (  6266 PWs)   bands (ev):

   -44.6935 -22.9368 -22.8633 -22.6894 -12.0245 -11.5718  -1.8913  -1.4753
    -0.9097  -0.3544   0.1664   0.5140   4.1852   7.0446   7.3918   7.7218
     8.0336   9.8689  10.2880  11.6043  12.0825  12.2584  12.7187  13.6002
    14.5077  14.8164

          k = 0.1250 0.5803 0.0000 (  6248 PWs)   bands (ev):

   -44.6922 -22.9489 -22.8594 -22.6942 -12.0088 -11.5449  -1.9574  -1.5512
    -0.8860  -0.3593   0.1509   0.4747   4.2001   7.2482   7.4946   7.7252
     7.9527   9.7813  10.5739  11.6063  12.0265  12.3224  12.3674  13.5185
    14.4588  14.6783

          k = 0.1250 0.0000 0.0000 (  6317 PWs)   bands (ev):

   -44.7260 -22.9619 -22.6137 -22.5712 -12.5529 -12.0293  -1.8585  -0.1344
     0.1907   0.3416   1.1056   1.4739   4.3661   5.9248   6.2623   6.7759
     6.9870   7.4626   8.8913  10.2572  11.6702  12.9160  14.1407  14.3692
    14.7464  14.9469

          k = 0.1875 0.1088 0.0000 (  6289 PWs)   bands (ev):

   -44.7190 -22.9403 -22.6946 -22.5895 -12.4187 -11.9598  -1.6327  -0.5703
    -0.0488   0.2454   0.5511   1.3236   4.2760   5.9202   6.4863   6.8010
     7.2581   8.0879   9.5314  10.9782  11.9928  12.3755  13.6951  14.5088
    14.8375  15.3103

          k = 0.1875 0.1813 0.0000 (  6278 PWs)   bands (ev):

   -44.7148 -22.9277 -22.7377 -22.6040 -12.3432 -11.9126  -1.5075  -0.7965
    -0.2369   0.1003   0.4201   1.2097   4.2229   5.9423   6.7096   6.8743
     7.3802   8.3965   9.8470  11.2298  12.0963  12.3279  13.5663  14.2461
    15.0978  15.2926

          k = 0.1875 0.2539 0.0000 (  6269 PWs)   bands (ev):

   -44.7093 -22.9111 -22.7876 -22.6288 -12.2496 -11.8422  -1.3510  -1.0483
    -0.4859  -0.1641   0.3589   1.0000   4.2056   5.9544   7.0052   7.1327
     7.4930   8.8021  10.1498  11.4619  12.2053  12.5600  13.3664  13.9825
    14.7927  15.0847

          k = 0.1875 0.3264 0.0000 (  6268 PWs)   bands (ev):

   -44.7033 -22.8932 -22.8366 -22.6600 -12.1567 -11.7528  -1.3331  -1.1521
    -0.8041  -0.3509   0.2750   0.7400   4.2349   6.0627   7.1941   7.5139
     7.6747   9.2670  10.2765  11.6641  12.4500  12.6282  13.4777  13.8209
    13.8921  15.0247

          k = 0.1875 0.3989 0.0000 (  6260 PWs)   bands (ev):

   -44.6979 -22.8805 -22.8747 -22.6915 -12.0793 -11.6565  -1.5390  -1.1331
    -1.0151  -0.4426   0.1673   0.4909   4.3074   6.3099   7.2971   7.6995
     8.0063   9.7949  10.2282  11.8188  12.3956  12.5292  13.2915  13.6884
    14.2570  14.8258

          k = 0.1875 0.4715 0.0000 (  6258 PWs)   bands (ev):

   -44.6936 -22.9094 -22.8635 -22.7170 -12.0252 -11.5740  -1.6958  -1.3831
    -0.9189  -0.4797   0.0662   0.3010   4.4014   6.6759   7.3158   7.8594
     8.0917  10.0865  10.4288  11.8966  12.0322  12.4744  13.0467  13.7901
    14.5239  14.7801

          k = 0.1875 0.5440 0.0000 (  6250 PWs)   bands (ev):

   -44.6914 -22.9252 -22.8566 -22.7313 -11.9975 -11.5263  -1.7783  -1.5190
    -0.8713  -0.4890   0.0060   0.1984   4.4704   7.0474   7.3236   7.9023
     7.9580   9.9648  11.0213  11.7945  12.0715  12.4368  12.6182  13.6998
    14.5439  14.7556

          k = 0.1875-0.0363 0.0000 (  6298 PWs)   bands (ev):

   -44.7212 -22.9471 -22.6679 -22.5849 -12.4606 -11.9834  -1.7011  -0.4184
     0.0333   0.2694   0.7019   1.3504   4.3259   5.8552   6.4373   6.7981
     7.1638   7.9212   9.3408  10.8032  11.9621  12.4917  13.7629  14.3666
    14.8501  15.2704

          k = 0.2500 0.1451 0.0000 (  6281 PWs)   bands (ev):

   -44.7121 -22.9194 -22.7722 -22.6062 -12.2956 -11.8801  -1.4461  -0.9693
    -0.4360   0.1461   0.3069   1.2056   4.1273   6.1220   6.7910   6.9148
     7.4677   8.5544   9.9680  11.3275  11.9521  12.2529  13.9127  14.2134
    15.1856  15.3204

          k = 0.2500 0.2176 0.0000 (  6264 PWs)   bands (ev):

   -44.7079 -22.9067 -22.8133 -22.6219 -12.2261 -11.8229  -1.3850  -1.1273
    -0.6666  -0.0308   0.3012   1.0791   4.0888   6.1974   7.0004   7.1223
     7.5534   8.8447  10.1153  11.4408  12.0099  12.2749  13.9250  14.1723
    14.8608  15.1642

          k = 0.2500 0.2901 0.0000 (  6259 PWs)   bands (ev):

   -44.7030 -22.8918 -22.8512 -22.6508 -12.1500 -11.7461  -1.4421  -1.1253
    -0.8935  -0.2625   0.2771   0.8150   4.1491   6.2214   7.1871   7.5293
     7.6578   9.2627  10.2087  11.6013  12.2486  12.4107  13.7426  13.9613
    14.1990  14.9512

          k = 0.2500 0.3627 0.0000 (  6261 PWs)   bands (ev):

   -44.6980 -22.8814 -22.8752 -22.6891 -12.0806 -11.6585  -1.5434  -1.1346
    -1.0145  -0.4337   0.1695   0.4990   4.2988   6.3114   7.3078   7.6965
     8.0106   9.7944  10.2250  11.8165  12.3961  12.5455  13.3119  13.6612
    14.2351  14.8068

          k = 0.2500 0.4352 0.0000 (  6252 PWs)   bands (ev):

   -44.6938 -22.8962 -22.8636 -22.7296 -12.0263 -11.5762  -1.5978  -1.3339
    -0.9278  -0.5319  -0.0460   0.2732   4.5002   6.5040   7.2760   7.9471
     8.1203  10.1868  10.4732  11.8437  12.0814  12.7210  13.3576  13.8166
    14.4499  14.5805

          k = 0.2500 0.5077 0.0000 (  6256 PWs)   bands (ev):

   -44.6910 -22.9009 -22.8552 -22.7625 -11.9921 -11.5174  -1.6122  -1.4649
    -0.8671  -0.5959  -0.2541   0.1582   4.6841   6.7795   7.2184   7.9183
     8.1550  10.1751  11.0553  11.6451  12.2573  12.7971  13.1899  13.9201
    14.4336  14.6701

          k = 0.2500 0.5803 0.0000 (  6270 PWs)   bands (ev):

   -44.6900 -22.9008 -22.8522 -22.7759 -11.9804 -11.4961  -1.6202  -1.4982
    -0.8477  -0.6291  -0.3258   0.1195   4.7606   6.9691   7.1957   7.7210
     8.2309  10.1569  11.1416  11.9588  12.3756  12.7886  12.8396  13.8009
    14.6432  14.7181

          k = 0.2500-0.0725 0.0000 (  6282 PWs)   bands (ev):

   -44.7149 -22.9278 -22.7379 -22.6025 -12.3443 -11.9147  -1.5082  -0.7940
    -0.2357   0.1059   0.4209   1.2095   4.2203   5.9367   6.7170   6.8955
     7.3675   8.3964   9.8400  11.2325  12.1044  12.3366  13.5680  14.2455
    15.1061  15.2815

          k = 0.2500 0.0000 0.0000 (  6275 PWs)   bands (ev):

   -44.7159 -22.9308 -22.7237 -22.6033 -12.3617 -11.9262  -1.5314  -0.7121
    -0.1559   0.0671   0.4702   1.1898   4.2714   5.8385   6.7198   6.9029
     7.3194   8.3487   9.7892  11.1949  12.2578  12.3962  13.3206  14.1811
    15.0596  15.1806

          k = 0.3125 0.1813 0.0000 (  6264 PWs)   bands (ev):

   -44.7053 -22.8984 -22.8485 -22.6228 -12.1834 -11.7829  -1.5007  -1.1439
    -0.8696   0.0368   0.2102   1.1059   3.9873   6.4793   7.0596   7.1786
     7.6406   8.9749  10.0919  11.3874  11.8896  12.2351  13.8869  14.4570
    14.8562  15.1687

          k = 0.3125 0.2539 0.0000 (  6249 PWs)   bands (ev):

   -44.7016 -22.8884 -22.8806 -22.6386 -12.1294 -11.7224  -1.6363  -1.1429
    -1.0086  -0.1154   0.2264   0.9671   3.9956   6.5818   7.1606   7.5355
     7.6840   9.2588  10.0881  11.4145  11.9745  12.2714  13.6750  14.2826
    14.6105  14.9472

          k = 0.3125 0.3264 0.0000 (  6259 PWs)   bands (ev):

   -44.6976 -22.9045 -22.8748 -22.6698 -12.0750 -11.6503  -1.7137  -1.2574
    -0.9795  -0.3092   0.2065   0.6540   4.1397   6.6130   7.3272   7.6651
     7.9561   9.7425  10.0774  11.6247  12.1670  12.3266  13.2530  13.8091
    14.5476  14.8567

          k = 0.3125 0.3989 0.0000 (  6251 PWs)   bands (ev):

   -44.6939 -22.9112 -22.8638 -22.7127 -12.0279 -11.5780  -1.7026  -1.3815
    -0.9169  -0.4641   0.0729   0.3074   4.3882   6.6740   7.3285   7.8649
     8.0984  10.0770  10.4303  11.8978  12.0407  12.4913  13.0470  13.7767
    14.5000  14.7572

          k = 0.3125 0.4715 0.0000 (  6249 PWs)   bands (ev):

   -44.6911 -22.9020 -22.8554 -22.7602 -11.9936 -11.5194  -1.6145  -1.4637
    -0.8659  -0.5893  -0.2458   0.1545   4.6794   6.7758   7.2211   7.9205
     8.1638  10.1681  11.0598  11.6490  12.2577  12.8087  13.1758  13.9344
    14.4240  14.6668

          k = 0.3125 0.5440 0.0000 (  6258 PWs)   bands (ev):

   -44.6896 -22.8835 -22.8508 -22.7995 -11.9755 -11.4866  -1.5868  -1.3941
    -0.8399  -0.7608  -0.4326   0.0947   4.8975   6.8872   7.1427   7.6542
     8.3576  10.3079  10.9102  12.2655  12.4629  13.0241  13.1946  13.4949
    14.5766  14.7790

          k = 0.3125-0.1088 0.0000 (  6276 PWs)   bands (ev):

   -44.7081 -22.9069 -22.8127 -22.6212 -12.2273 -11.8251  -1.3838  -1.1240
    -0.6598  -0.0314   0.3012   1.0747   4.0904   6.1973   7.0078   7.1193
     7.5529   8.8447  10.1125  11.4456  12.0128  12.2824  13.9323  14.1883
    14.8315  15.1679

          k = 0.3125-0.0363 0.0000 (  6274 PWs)   bands (ev):

   -44.7096 -22.9115 -22.7875 -22.6264 -12.2519 -11.8465  -1.3519  -1.0420
    -0.4768  -0.1611   0.3598   0.9986   4.2032   5.9522   7.0298   7.1335
     7.4837   8.8015  10.1415  11.4686  12.2302  12.5656  13.3732  13.9855
    14.7505  15.0761

          k = 0.3750 0.2176 0.0000 (  6245 PWs)   bands (ev):

   -44.6994 -22.9126 -22.8801 -22.6368 -12.0991 -11.6835  -1.8081  -1.2712
    -0.9972  -0.0605   0.1694   1.0312   3.9076   6.8817   7.2153   7.5912
     7.7653   9.3290  10.0072  11.2530  11.9057  12.2264  13.3961  14.4107
    14.5834  14.7703

          k = 0.3750 0.2901 0.0000 (  6254 PWs)   bands (ev):

   -44.6968 -22.9336 -22.8721 -22.6514 -12.0637 -11.6327  -1.9068  -1.3910
    -0.9533  -0.1709   0.1780   0.8857   3.9622   6.9965   7.3021   7.7391
     7.8989   9.6034   9.9720  11.3147  11.9634  12.2330  13.0783  13.9519
    14.4754  14.7818

          k = 0.3750 0.3627 0.0000 (  6254 PWs)   bands (ev):

   -44.6941 -22.9389 -22.8640 -22.6826 -12.0296 -11.5792  -1.9000  -1.4703
    -0.9066  -0.3254   0.1564   0.5441   4.1630   7.0454   7.4155   7.7240
     8.0425   9.8616  10.2802  11.6300  12.0825  12.2479  12.7027  13.6078
    14.4832  14.7921

          k = 0.3750 0.4352 0.0000 (  6248 PWs)   bands (ev):

   -44.6918 -22.9270 -22.8571 -22.7259 -12.0016 -11.5321  -1.7845  -1.5123
    -0.8686  -0.4696   0.0191   0.1959   4.4570   7.0421   7.3289   7.9102
     7.9753   9.9529  11.0201  11.8079  12.0938  12.4332  12.5982  13.7077
    14.5223  14.7495

          k = 0.3750 0.5077 0.0000 (  6255 PWs)   bands (ev):

   -44.6903 -22.9021 -22.8525 -22.7722 -11.9832 -11.4998  -1.6189  -1.4945
    -0.8467  -0.6196  -0.3139   0.1110   4.7573   6.9626   7.1962   7.7156
     8.2529  10.1434  11.1592  11.9474  12.3853  12.7906  12.8315  13.8350
    14.6293  14.8567

          k = 0.3750 0.5803 0.0000 (  6256 PWs)   bands (ev):

   -44.6897 -22.8837 -22.8509 -22.7982 -11.9767 -11.4884  -1.5826  -1.3906
    -0.8442  -0.7554  -0.4301   0.0908   4.8997   6.8850   7.1423   7.6436
     8.3702  10.2977  10.9242  12.2375  12.4747  13.0278  13.2126  13.5078
    14.5417  14.7981

          k = 0.3750-0.1451 0.0000 (  6249 PWs)   bands (ev):

   -44.7017 -22.8884 -22.8800 -22.6384 -12.1305 -11.7242  -1.6316  -1.1393
    -1.0052  -0.1172   0.2257   0.9618   3.9993   6.5878   7.1605   7.5164
     7.6949   9.2600  10.0866  11.4153  11.9773  12.2776  13.6776  14.2585
    14.6138  14.9758

          k = 0.3750-0.0725 0.0000 (  6260 PWs)   bands (ev):

   -44.7032 -22.8921 -22.8501 -22.6497 -12.1523 -11.7501  -1.4337  -1.1248
    -0.8792  -0.2652   0.2759   0.8077   4.1537   6.2227   7.1926   7.5207
     7.6606   9.2618  10.2070  11.6114  12.2527  12.4236  13.7517  13.9326
    14.2237  14.9493

          k = 0.3750 0.0000 0.0000 (  6247 PWs)   bands (ev):

   -44.7038 -22.8937 -22.8363 -22.6568 -12.1601 -11.7589  -1.3252  -1.1525
    -0.7883  -0.3487   0.2742   0.7396   4.2336   6.0635   7.2122   7.5078
     7.6736   9.2651  10.2723  11.6754  12.4797  12.6393  13.4784  13.8064
    13.8786  15.0133

          k = 0.4375 0.2539 0.0000 (  6244 PWs)   bands (ev):

   -44.6955 -22.9546 -22.8682 -22.6461 -12.0483 -11.6081  -2.0337  -1.4881
    -0.9301  -0.1267   0.1540   0.9848   3.8835   7.1131   7.4496   7.8154
     7.9531   9.5439   9.9352  11.1424  11.8701  12.2071  12.8686  14.0779
    14.2701  14.5048

          k = 0.4375 0.3264 0.0000 (  6250 PWs)   bands (ev):

   -44.6941 -22.9610 -22.8640 -22.6584 -12.0309 -11.5798  -2.0568  -1.5390
    -0.9054  -0.1996   0.1548   0.8426   3.9625   7.2083   7.5105   7.7801
     8.0278   9.6640  10.0704  11.2591  11.8836  12.2340  12.6706  13.6731
    14.3796  14.4929

          k = 0.4375 0.3989 0.0000 (  6253 PWs)   bands (ev):

   -44.6929 -22.9506 -22.8601 -22.6871 -12.0148 -11.5535  -1.9642  -1.5416
    -0.8827  -0.3286   0.1376   0.5036   4.1796   7.2612   7.5008   7.7454
     7.9460   9.7688  10.5659  11.6414  12.0207  12.3014  12.3626  13.5216
    14.4370  14.6724

          k = 0.4375 0.4715 0.0000 (  6249 PWs)   bands (ev):

   -44.6919 -22.9265 -22.8572 -22.7258 -12.0024 -11.5333  -1.7808  -1.5075
    -0.8692  -0.4700   0.0182   0.1927   4.4605   7.0484   7.3261   7.8890
     7.9872   9.9505  11.0159  11.8031  12.1069  12.4237  12.6182  13.6990
    14.5230  14.7577

          k = 0.4375 0.5440 0.0000 (  6241 PWs)   bands (ev):

   -44.6913 -22.9012 -22.8556 -22.7593 -11.9957 -11.5224  -1.6067  -1.4533
    -0.8678  -0.5877  -0.2475   0.1489   4.6857   6.7774   7.2174   7.8903
     8.1881  10.1608  11.0651  11.6328  12.2856  12.7932  13.2141  13.9267
    14.4131  14.6586

          k = 0.4375-0.1813 0.0000 (  6255 PWs)   bands (ev):

   -44.6968 -22.9329 -22.8722 -22.6514 -12.0644 -11.6340  -1.9032  -1.3862
    -0.9536  -0.1723   0.1773   0.8818   3.9657   7.0030   7.3038   7.7502
     7.8746   9.6028   9.9710  11.3121  11.9690  12.2370  13.0849  13.9182
    14.4850  14.8125

          k = 0.4375-0.1088 0.0000 (  6256 PWs)   bands (ev):

   -44.6978 -22.9031 -22.8751 -22.6695 -12.0769 -11.6534  -1.7052  -1.2458
    -0.9796  -0.3120   0.2049   0.6459   4.1466   6.6201   7.3110   7.6980
     7.9237   9.7426  10.0741  11.6306  12.1724  12.3332  13.2466  13.8025
    14.5583  14.8848

          k = 0.4375-0.0363 0.0000 (  6255 PWs)   bands (ev):

   -44.6984 -22.8805 -22.8751 -22.6875 -12.0838 -11.6637  -1.5318  -1.1173
    -1.0145  -0.4353   0.1663   0.4919   4.3055   6.3124   7.2980   7.7300
     7.9805   9.7902  10.2242  11.8367  12.4070  12.5417  13.3086  13.6727
    14.2492  14.8020

          k =-0.5000-0.2901 0.0000 (  6254 PWs)   bands (ev):

   -44.6942 -22.9692 -22.8640 -22.6494 -12.0314 -11.5800  -2.1142  -1.5638
    -0.9061  -0.1500   0.1504   0.9690   3.8815   7.1603   7.5936   7.8418
     8.0861   9.5755   9.9588  11.1082  11.7773  12.2366  12.6851  13.8811
    14.1664  14.3719

          k =-0.5000-0.2176 0.0000 (  6241 PWs)   bands (ev):

   -44.6942 -22.9608 -22.8640 -22.6584 -12.0312 -11.5803  -2.0555  -1.5373
    -0.9055  -0.2001   0.1545   0.8412   3.9639   7.2054   7.5238   7.7842
     8.0110   9.6585  10.0745  11.2575  11.8847  12.2362  12.6779  13.6557
    14.3842  14.5048

          k =-0.5000-0.1451 0.0000 (  6254 PWs)   bands (ev):

   -44.6942 -22.9380 -22.8641 -22.6826 -12.0307 -11.5809  -1.8950  -1.4637
    -0.9071  -0.3270   0.1555   0.5390   4.1678   7.0552   7.4034   7.7527
     8.0081   9.8557  10.2799  11.6310  12.0887  12.2481  12.7182  13.5864
    14.4878  14.8155

          k =-0.5000-0.0725 0.0000 (  6252 PWs)   bands (ev):

   -44.6942 -22.9098 -22.8641 -22.7122 -12.0303 -11.5815  -1.6929  -1.3681
    -0.9180  -0.4655   0.0700   0.2999   4.3962   6.6792   7.3150   7.8997
     8.0598  10.0735  10.4232  11.9147  12.0522  12.4742  13.0712  13.7679
    14.5041  14.7780

          k =-0.5000 0.0000 0.0000 (  6268 PWs)   bands (ev):

   -44.6942 -22.8953 -22.8641 -22.7273 -12.0301 -11.5817  -1.5876  -1.3168
    -0.9290  -0.5284  -0.0474   0.2660   4.5060   6.5037   7.2694   7.9819
     8.0859  10.1775  10.4682  11.8544  12.1062  12.7120  13.4034  13.7994
    14.4403  14.5729

     highest occupied, lowest unoccupied level (ev):     4.8997    5.8385

!    total energy              =    -591.24415237 Ry
     total all-electron energy =    -13333.877428 Ry
     estimated scf accuracy    <          9.2E-09 Ry

     The total energy is the sum of the following terms:
     one-electron contribution =    -205.37257731 Ry
     hartree contribution      =     110.64714438 Ry
     xc contribution           =     -37.61275806 Ry
     ewald contribution        =     -27.78877228 Ry
     one-center paw contrib.   =    -431.11718911 Ry

     convergence has been achieved in   4 iterations

     negative rho (up, down):  1.052E-07 0.000E+00

     Forces acting on atoms (cartesian axes, Ry/au):

     atom    1 type  1   force =     0.00000000    0.00201236   -0.00006914
     atom    2 type  2   force =     0.00000000   -0.00104512    0.00123892
     atom    3 type  3   force =     0.00000000   -0.00096723   -0.00116978
     The non-local contrib.  to forces
     atom    1 type  1   force =     0.00000000    0.00012424   -0.00055307
     atom    2 type  2   force =     0.00000000   -0.00091339   -0.21247272
     atom    3 type  3   force =     0.00000000   -0.00092036    0.20895477
     The ionic contribution  to forces
     atom    1 type  1   force =    -0.00000001   -0.01291550   -0.33463549
     atom    2 type  2   force =     0.00000000    0.00705059   21.30023723
     atom    3 type  3   force =     0.00000000    0.00586492  -20.96560174
     The local contribution  to forces
     atom    1 type  1   force =    -0.00000000    0.01474587    0.33523586
     atom    2 type  2   force =     0.00000003   -0.00718168  -21.09426188
     atom    3 type  3   force =    -0.00000000   -0.00598886   20.75908947
     The core correction contribution to forces
     atom    1 type  1   force =    -0.00000000    0.00003542    0.00035390
     atom    2 type  2   force =    -0.00000000   -0.00004529    0.00789249
     atom    3 type  3   force =    -0.00000000    0.00004091   -0.00342454
     The Hubbard contrib.    to forces
     atom    1 type  1   force =     0.00000000    0.00000000    0.00000000
     atom    2 type  2   force =     0.00000000    0.00000000    0.00000000
     atom    3 type  3   force =     0.00000000    0.00000000    0.00000000
     The SCF correction term to forces
     atom    1 type  1   force =    -0.00000000   -0.00000498   -0.00038320
     atom    2 type  2   force =    -0.00000000    0.00001735   -0.00006906
     atom    3 type  3   force =     0.00000000    0.00000885   -0.00010060

     Total force =     0.002998     Total SCF correction =     0.000403
     SCF correction compared to forces is large: reduce conv_thr to get better values
     Energy error            =      1.4E-05 Ry
     Gradient error          =      2.0E-03 Ry/Bohr

     number of scf cycles    =   2
     number of bfgs steps    =   1

     energy             old  =    -591.2441384258 Ry
     energy             new  =    -591.2441523724 Ry

     CASE: energy            _new < energy            _old

     new trust radius        =       0.0030636806 bohr
     new conv_thr            =       0.0000000001 Ry


ATOMIC_POSITIONS (angstrom)
Zr            0.0000000000        0.0030936678       10.2766379173
Cl           -0.0000000017        2.0128241634       11.9665837629
Br           -0.0000000017        2.0129390134        8.4199270943



     Writing config-only to output data dir ./tmp/ZrClBr.save/
     NEW-OLD atomic charge density approx. for the potential

     Check: negative core charge=   -0.000004

     negative rho (up, down):  1.031E-07 0.000E+00

     total cpu time spent up to now is       25.9 secs

     Self-consistent Calculation

     iteration #  1     ecut=    65.00 Ry     beta= 0.70
     Davidson diagonalization with overlap
     ethr =  1.00E-06,  avg # of iterations =  3.0

     Threshold (ethr) on eigenvalues was too large:
     Diagonalizing with lowered threshold

     Davidson diagonalization with overlap
     ethr =  3.75E-09,  avg # of iterations =  3.8

     negative rho (up, down):  1.025E-07 0.000E+00

     total cpu time spent up to now is       29.6 secs

     total energy              =    -591.24416313 Ry
     estimated scf accuracy    <       0.00000106 Ry

     iteration #  2     ecut=    65.00 Ry     beta= 0.70
     Davidson diagonalization with overlap
     ethr =  4.07E-09,  avg # of iterations =  2.0

     negative rho (up, down):  1.035E-07 0.000E+00

     total cpu time spent up to now is       31.1 secs

     total energy              =    -591.24416299 Ry
     estimated scf accuracy    <       0.00000306 Ry

     iteration #  3     ecut=    65.00 Ry     beta= 0.70
     Davidson diagonalization with overlap
     ethr =  4.07E-09,  avg # of iterations =  2.0

     negative rho (up, down):  1.035E-07 0.000E+00

     total cpu time spent up to now is       32.6 secs

     total energy              =    -591.24416361 Ry
     estimated scf accuracy    <       0.00000006 Ry

     iteration #  4     ecut=    65.00 Ry     beta= 0.70
     Davidson diagonalization with overlap
     ethr =  2.32E-10,  avg # of iterations =  1.8

     negative rho (up, down):  1.036E-07 0.000E+00

     total cpu time spent up to now is       34.0 secs

     total energy              =    -591.24416362 Ry
     estimated scf accuracy    <          1.3E-09 Ry

     iteration #  5     ecut=    65.00 Ry     beta= 0.70
     Davidson diagonalization with overlap
     ethr =  4.82E-12,  avg # of iterations =  2.0

     negative rho (up, down):  1.036E-07 0.000E+00

     total cpu time spent up to now is       35.5 secs

     End of self-consistent calculation

          k = 0.0000 0.0000 0.0000 (  6307 PWs)   bands (ev):

   -44.7324 -22.9758 -22.5700 -22.5628 -12.6278 -12.0635  -1.9891   0.0676
     0.3543   0.3826   1.5455   1.5835   4.3598   6.0845   6.1449   6.8271
     6.8314   6.9772   8.5128   9.6341  11.4594  13.7679  13.8303  14.0802
    14.8162  15.3798

          k = 0.0000 0.0725 0.0000 (  6317 PWs)   bands (ev):

   -44.7310 -22.9716 -22.5790 -22.5734 -12.6010 -12.0514  -1.9433   0.0116
     0.3140   0.3406   1.4177   1.5091   4.3675   6.0724   6.1205   6.7941
     6.8870   7.1584   8.6467   9.8698  11.5290  13.3444  13.8975  14.4763
    14.8379  15.0206

          k = 0.0000 0.1451 0.0000 (  6313 PWs)   bands (ev):

   -44.7271 -22.9598 -22.6248 -22.5832 -12.5255 -12.0155  -1.8146  -0.1961
     0.1684   0.2971   1.0082   1.4138   4.3639   5.9443   6.2364   6.7549
     7.0463   7.5917   9.0211  10.4234  11.7392  12.7764  14.2181  14.2668
    14.7028  15.0752

          k = 0.0000 0.2176 0.0000 (  6299 PWs)   bands (ev):

   -44.7212 -22.9419 -22.6924 -22.5979 -12.4148 -11.9561  -1.6295  -0.5546
    -0.0386   0.2210   0.5626   1.2914   4.2912   5.9319   6.4479   6.7922
     7.2557   8.0878   9.5439  10.9827  11.9940  12.3853  13.7300  14.5103
    14.8038  15.3509

          k = 0.0000 0.2901 0.0000 (  6283 PWs)   bands (ev):

   -44.7142 -22.9208 -22.7707 -22.6151 -12.2906 -11.8743  -1.4426  -0.9568
    -0.4234   0.1178   0.3118   1.1711   4.1483   6.1228   6.7620   6.9017
     7.4631   8.5526   9.9786  11.3341  11.9491  12.2633  13.9425  14.2285
    15.2323  15.2851

          k = 0.0000 0.3627 0.0000 (  6252 PWs)   bands (ev):

   -44.7072 -22.8997 -22.8477 -22.6322 -12.1771 -11.7748  -1.4927  -1.1389
    -0.8629   0.0049   0.2177   1.0691   4.0105   6.4739   7.0420   7.1613
     7.6330   8.9707  10.1026  11.3942  11.8790  12.2423  13.9210  14.4875
    14.8981  15.1285

          k = 0.0000 0.4352 0.0000 (  6242 PWs)   bands (ev):

   -44.7012 -22.9124 -22.8812 -22.6466 -12.0914 -11.6737  -1.7990  -1.2720
    -0.9950  -0.0952   0.1808   0.9923   3.9318   6.8693   7.1958   7.5861
     7.7552   9.3220  10.0261  11.2422  11.9061  12.2313  13.4348  14.4479
    14.5369  14.8055

          k = 0.0000 0.5077 0.0000 (  6244 PWs)   bands (ev):

   -44.6972 -22.9547 -22.8693 -22.6563 -12.0394 -11.5972  -2.0244  -1.4936
    -0.9297  -0.1632   0.1683   0.9444   3.9084   7.0890   7.4340   7.8022
     7.9606   9.5394   9.9591  11.1159  11.8821  12.2263  12.8961  14.0246
    14.2984  14.5323

          k = 0.0000-0.5803 0.0000 (  6262 PWs)   bands (ev):

   -44.6958 -22.9695 -22.8650 -22.6597 -12.0221 -11.5687  -2.1049  -1.5710
    -0.9064  -0.1871   0.1657   0.9281   3.9067   7.1329   7.5775   7.8272
     8.0995   9.5781   9.9791  11.0763  11.7948  12.2657  12.7053  13.8229
    14.1903  14.3949

          k = 0.0625 0.0363 0.0000 (  6315 PWs)   bands (ev):

   -44.7311 -22.9717 -22.5847 -22.5674 -12.6013 -12.0518  -1.9435   0.0070
     0.2966   0.3640   1.3898   1.5397   4.3655   6.0274   6.1692   6.7927
     6.8902   7.1575   8.6440   9.8676  11.5286  13.3229  13.9429  14.4588
    14.8222  14.9717

          k = 0.0625 0.1088 0.0000 (  6305 PWs)   bands (ev):

   -44.7284 -22.9636 -22.6116 -22.5781 -12.5501 -12.0278  -1.8561  -0.1228
     0.1971   0.3262   1.1244   1.4523   4.3686   5.9529   6.2202   6.7594
     6.9978   7.4634   8.8983  10.2603  11.6719  12.9211  14.1068  14.4045
    14.7650  14.9595

          k = 0.0625 0.1813 0.0000 (  6302 PWs)   bands (ev):

   -44.7235 -22.9488 -22.6658 -22.5928 -12.4570 -11.9801  -1.6979  -0.4042
     0.0382   0.2499   0.7133   1.3261   4.3365   5.8724   6.3972   6.7750
     7.1757   7.9216   9.3540  10.8068  11.9625  12.4894  13.7956  14.3504
    14.8372  15.3010

          k = 0.0625 0.2539 0.0000 (  6270 PWs)   bands (ev):

   -44.7170 -22.9293 -22.7366 -22.6109 -12.3395 -11.9092  -1.5047  -0.7837
    -0.2253   0.0845   0.4212   1.1840   4.2369   5.9399   6.6889   6.8709
     7.3738   8.3955   9.8537  11.2350  12.0976  12.3372  13.5908  14.2479
    15.0941  15.2988

          k = 0.0625 0.3264 0.0000 (  6266 PWs)   bands (ev):

   -44.7100 -22.9082 -22.8123 -22.6301 -12.2212 -11.8174  -1.3798  -1.1176
    -0.6548  -0.0521   0.3003   1.0471   4.1088   6.1914   6.9863   7.1051
     7.5491   8.8422  10.1216  11.4506  12.0020  12.2828  13.9491  14.2012
    14.8701  15.1687

          k = 0.0625 0.3989 0.0000 (  6247 PWs)   bands (ev):

   -44.7035 -22.8895 -22.8801 -22.6477 -12.1232 -11.7147  -1.6258  -1.1393
    -1.0039  -0.1415   0.2299   0.9313   4.0184   6.5761   7.1392   7.5192
     7.6817   9.2544  10.0997  11.4138  11.9658  12.2769  13.7092  14.2843
    14.6218  14.9741

          k = 0.0625 0.4715 0.0000 (  6262 PWs)   bands (ev):

   -44.6986 -22.9333 -22.8732 -22.6611 -12.0560 -11.6233  -1.8964  -1.3925
    -0.9524  -0.2018   0.1874   0.8481   3.9860   6.9865   7.2816   7.7335
     7.8886   9.5957   9.9935  11.2937  11.9696  12.2434  13.1076  13.9221
    14.5013  14.8134

          k = 0.0625 0.5440 0.0000 (  6254 PWs)   bands (ev):

   -44.6959 -22.9612 -22.8651 -22.6683 -12.0222 -11.5693  -2.0473  -1.5450
    -0.9055  -0.2333   0.1683   0.8049   3.9859   7.1816   7.5035   7.7687
     8.0280   9.6675  10.0868  11.2268  11.8975  12.2598  12.6886  13.6397
    14.3997  14.5086

          k = 0.1250 0.0725 0.0000 (  6312 PWs)   bands (ev):

   -44.7272 -22.9599 -22.6296 -22.5773 -12.5264 -12.0169  -1.8154  -0.2085
     0.1612   0.3210   0.9873   1.4450   4.3557   5.9147   6.2787   6.7574
     7.0487   7.5900   9.0123  10.4187  11.7370  12.7653  14.1772  14.3076
    14.7008  15.0431

          k = 0.1250 0.1451 0.0000 (  6311 PWs)   bands (ev):

   -44.7236 -22.9489 -22.6681 -22.5898 -12.4576 -11.9812  -1.6985  -0.4117
     0.0362   0.2608   0.7053   1.3436   4.3296   5.8662   6.4127   6.7743
     7.1793   7.9210   9.3486  10.8047  11.9606  12.4828  13.7780  14.3558
    14.8485  15.2862

          k = 0.1250 0.2176 0.0000 (  6267 PWs)   bands (ev):

   -44.7181 -22.9324 -22.7239 -22.6095 -12.3576 -11.9219  -1.5280  -0.7079
    -0.1503   0.0532   0.4692   1.1813   4.2795   5.8427   6.6993   6.8690
     7.3371   8.3483   9.8012  11.1953  12.2414  12.3855  13.3357  14.1797
    15.0562  15.1915

          k = 0.1250 0.2901 0.0000 (  6259 PWs)   bands (ev):

   -44.7116 -22.9129 -22.7881 -22.6334 -12.2465 -11.8400  -1.3484  -1.0408
    -0.4767  -0.1734   0.3578   0.9881   4.2129   5.9486   6.9998   7.1250
     7.4896   8.8010  10.1498  11.4673  12.2123  12.5493  13.3829  13.9866
    14.7864  15.0911

          k = 0.1250 0.3627 0.0000 (  6256 PWs)   bands (ev):

   -44.7051 -22.8934 -22.8510 -22.6574 -12.1457 -11.7417  -1.4332  -1.1222
    -0.8853  -0.2778   0.2762   0.7937   4.1636   6.2145   7.1699   7.5238
     7.6542   9.2607  10.2118  11.6085  12.2337  12.4121  13.7610  13.9544
    14.2241  14.9745

          k = 0.1250 0.4352 0.0000 (  6261 PWs)   bands (ev):

   -44.6996 -22.9041 -22.8763 -22.6777 -12.0692 -11.6438  -1.7033  -1.2546
    -0.9779  -0.3296   0.2094   0.6275   4.1578   6.6093   7.2980   7.6705
     7.9433   9.7390  10.0875  11.6186  12.1585  12.3267  13.2477  13.8263
    14.5718  14.8915

          k = 0.1250 0.5077 0.0000 (  6266 PWs)   bands (ev):

   -44.6960 -22.9388 -22.8653 -22.6913 -12.0224 -11.5710  -1.8902  -1.4733
    -0.9063  -0.3503   0.1647   0.5156   4.1818   7.0437   7.3911   7.7197
     8.0309   9.8690  10.2855  11.6035  12.0815  12.2584  12.7170  13.5986
    14.5084  14.8113

          k = 0.1250 0.5803 0.0000 (  6248 PWs)   bands (ev):

   -44.6947 -22.9509 -22.8613 -22.6960 -12.0067 -11.5441  -1.9566  -1.5490
    -0.8826  -0.3550   0.1488   0.4763   4.1966   7.2479   7.4935   7.7236
     7.9492   9.7827  10.5701  11.6055  12.0259  12.3220  12.3656  13.5170
    14.4600  14.6716

          k = 0.1250 0.0000 0.0000 (  6317 PWs)   bands (ev):

   -44.7285 -22.9638 -22.6156 -22.5734 -12.5508 -12.0288  -1.8568  -0.1315
     0.1922   0.3432   1.1090   1.4740   4.3637   5.9236   6.2583   6.7706
     6.9910   7.4619   8.8914  10.2564  11.6712  12.9129  14.1449  14.3725
    14.7425  14.9490

          k = 0.1875 0.1088 0.0000 (  6289 PWs)   bands (ev):

   -44.7214 -22.9423 -22.6964 -22.5916 -12.4166 -11.9592  -1.6310  -0.5669
    -0.0478   0.2478   0.5516   1.3248   4.2749   5.9173   6.4837   6.7986
     7.2579   8.0869   9.5302  10.9788  11.9914  12.3747  13.6980  14.5047
    14.8394  15.3125

          k = 0.1875 0.1813 0.0000 (  6278 PWs)   bands (ev):

   -44.7172 -22.9296 -22.7396 -22.6060 -12.3411 -11.9120  -1.5056  -0.7935
    -0.2356   0.1025   0.4204   1.2114   4.2216   5.9393   6.7073   6.8729
     7.3784   8.3956   9.8448  11.2318  12.0956  12.3272  13.5680  14.2410
    15.1020  15.2907

          k = 0.1875 0.2539 0.0000 (  6269 PWs)   bands (ev):

   -44.7117 -22.9131 -22.7895 -22.6308 -12.2475 -11.8417  -1.3487  -1.0458
    -0.4841  -0.1630   0.3597   1.0018   4.2041   5.9513   7.0036   7.1304
     7.4908   8.8015  10.1462  11.4645  12.2074  12.5583  13.3656  13.9783
    14.7913  15.0840

          k = 0.1875 0.3264 0.0000 (  6268 PWs)   bands (ev):

   -44.7058 -22.8952 -22.8386 -22.6619 -12.1545 -11.7522  -1.3305  -1.1500
    -0.8020  -0.3497   0.2756   0.7416   4.2333   6.0597   7.1918   7.5118
     7.6728   9.2667  10.2721  11.6665  12.4531  12.6281  13.4745  13.8186
    13.8895  15.0242

          k = 0.1875 0.3989 0.0000 (  6260 PWs)   bands (ev):

   -44.7003 -22.8825 -22.8767 -22.6934 -12.0772 -11.6558  -1.5371  -1.1310
    -1.0124  -0.4408   0.1678   0.4918   4.3055   6.3072   7.2940   7.6986
     8.0041   9.7945  10.2244  11.8206  12.3964  12.5289  13.2906  13.6865
    14.2540  14.8242

          k = 0.1875 0.4715 0.0000 (  6258 PWs)   bands (ev):

   -44.6961 -22.9114 -22.8655 -22.7189 -12.0231 -11.5732  -1.6944  -1.3808
    -0.9159  -0.4771   0.0669   0.3007   4.3991   6.6739   7.3126   7.8591
     8.0890  10.0857  10.4269  11.8964  12.0317  12.4739  13.0461  13.7890
    14.5224  14.7785

          k = 0.1875 0.5440 0.0000 (  6250 PWs)   bands (ev):

   -44.6938 -22.9273 -22.8586 -22.7331 -11.9954 -11.5255  -1.7773  -1.5166
    -0.8681  -0.4860   0.0075   0.1968   4.4678   7.0461   7.3205   7.8997
     7.9572   9.9650  11.0182  11.7932  12.0713  12.4364  12.6180  13.6988
    14.5436  14.7513

          k = 0.1875-0.0363 0.0000 (  6298 PWs)   bands (ev):

   -44.7237 -22.9491 -22.6697 -22.5870 -12.4586 -11.9828  -1.6994  -0.4147
     0.0346   0.2703   0.7040   1.3509   4.3250   5.8525   6.4344   6.7938
     7.1662   7.9203   9.3399  10.8026  11.9615  12.4892  13.7668  14.3700
    14.8435  15.2750

          k = 0.2500 0.1451 0.0000 (  6281 PWs)   bands (ev):

   -44.7146 -22.9214 -22.7740 -22.6083 -12.2936 -11.8794  -1.4442  -0.9663
    -0.4342   0.1483   0.3063   1.2069   4.1271   6.1186   6.7891   6.9120
     7.4665   8.5532   9.9652  11.3288  11.9499  12.2525  13.9153  14.2108
    15.1869  15.3206

          k = 0.2500 0.2176 0.0000 (  6264 PWs)   bands (ev):

   -44.7104 -22.9087 -22.8151 -22.6239 -12.2240 -11.8222  -1.3826  -1.1251
    -0.6648  -0.0301   0.3019   1.0806   4.0883   6.1942   6.9972   7.1198
     7.5524   8.8436  10.1120  11.4426  12.0078  12.2754  13.9240  14.1724
    14.8591  15.1653

          k = 0.2500 0.2901 0.0000 (  6259 PWs)   bands (ev):

   -44.7054 -22.8938 -22.8531 -22.6528 -12.1479 -11.7454  -1.4394  -1.1235
    -0.8914  -0.2621   0.2781   0.8166   4.1485   6.2181   7.1822   7.5280
     7.6569   9.2621  10.2049  11.6028  12.2473  12.4120  13.7403  13.9601
    14.1982  14.9508

          k = 0.2500 0.3627 0.0000 (  6261 PWs)   bands (ev):

   -44.7005 -22.8833 -22.8772 -22.6910 -12.0784 -11.6578  -1.5410  -1.1322
    -1.0125  -0.4331   0.1703   0.5001   4.2982   6.3081   7.3019   7.6975
     8.0080   9.7944  10.2210  11.8185  12.3978  12.5437  13.3111  13.6590
    14.2329  14.8058

          k = 0.2500 0.4352 0.0000 (  6252 PWs)   bands (ev):

   -44.6962 -22.8981 -22.8657 -22.7314 -12.0242 -11.5754  -1.5957  -1.3314
    -0.9256  -0.5307  -0.0448   0.2731   4.4992   6.5011   7.2714   7.9469
     8.1175  10.1846  10.4721  11.8439  12.0832  12.7191  13.3579  13.8149
    14.4473  14.5785

          k = 0.2500 0.5077 0.0000 (  6256 PWs)   bands (ev):

   -44.6934 -22.9028 -22.8572 -22.7643 -11.9900 -11.5166  -1.6103  -1.4628
    -0.8645  -0.5940  -0.2526   0.1570   4.6827   6.7775   7.2144   7.9149
     8.1544  10.1736  11.0544  11.6438  12.2593  12.7957  13.1895  13.9197
    14.4306  14.6681

          k = 0.2500 0.5803 0.0000 (  6270 PWs)   bands (ev):

   -44.6924 -22.9028 -22.8542 -22.7776 -11.9783 -11.4952  -1.6180  -1.4966
    -0.8450  -0.6268  -0.3243   0.1179   4.7590   6.9682   7.1920   7.7169
     8.2302  10.1556  11.1400  11.9576  12.3773  12.7876  12.8391  13.8002
    14.6421  14.7146

          k = 0.2500-0.0725 0.0000 (  6282 PWs)   bands (ev):

   -44.7174 -22.9299 -22.7396 -22.6046 -12.3423 -11.9139  -1.5066  -0.7907
    -0.2337   0.1071   0.4211   1.2102   4.2206   5.9330   6.7152   6.8921
     7.3673   8.3952   9.8376  11.2328  12.1025  12.3347  13.5713  14.2456
    15.1032  15.2823

          k = 0.2500 0.0000 0.0000 (  6275 PWs)   bands (ev):

   -44.7184 -22.9328 -22.7254 -22.6055 -12.3598 -11.9254  -1.5298  -0.7086
    -0.1534   0.0674   0.4711   1.1902   4.2720   5.8347   6.7180   6.8988
     7.3201   8.3477   9.7870  11.1948  12.2553  12.3934  13.3248  14.1833
    15.0559  15.1803

          k = 0.3125 0.1813 0.0000 (  6264 PWs)   bands (ev):

   -44.7077 -22.9005 -22.8501 -22.6248 -12.1814 -11.7820  -1.4980  -1.1422
    -0.8682   0.0388   0.2099   1.1072   3.9876   6.4758   7.0561   7.1773
     7.6385   8.9730  10.0889  11.3881  11.8872  12.2347  13.8865  14.4576
    14.8561  15.1685

          k = 0.3125 0.2539 0.0000 (  6249 PWs)   bands (ev):

   -44.7040 -22.8904 -22.8824 -22.6406 -12.1273 -11.7216  -1.6336  -1.1412
    -1.0072  -0.1149   0.2274   0.9685   3.9956   6.5787   7.1556   7.5329
     7.6837   9.2573  10.0854  11.4139  11.9730  12.2715  13.6742  14.2820
    14.6105  14.9477

          k = 0.3125 0.3264 0.0000 (  6259 PWs)   bands (ev):

   -44.7001 -22.9062 -22.8769 -22.6718 -12.0729 -11.6495  -1.7111  -1.2555
    -0.9780  -0.3088   0.2075   0.6554   4.1396   6.6099   7.3192   7.6673
     7.9532   9.7415  10.0747  11.6240  12.1665  12.3268  13.2517  13.8078
    14.5481  14.8570

          k = 0.3125 0.3989 0.0000 (  6251 PWs)   bands (ev):

   -44.6964 -22.9130 -22.8659 -22.7146 -12.0258 -11.5772  -1.7002  -1.3794
    -0.9152  -0.4635   0.0736   0.3083   4.3880   6.6710   7.3222   7.8652
     8.0954  10.0740  10.4301  11.8988  12.0408  12.4894  13.0461  13.7752
    14.4993  14.7571

          k = 0.3125 0.4715 0.0000 (  6249 PWs)   bands (ev):

   -44.6936 -22.9037 -22.8574 -22.7621 -11.9914 -11.5186  -1.6121  -1.4616
    -0.8641  -0.5880  -0.2450   0.1544   4.6790   6.7735   7.2164   7.9172
     8.1620  10.1654  11.0602  11.6478  12.2598  12.8070  13.1746  13.9342
    14.4219  14.6645

          k = 0.3125 0.5440 0.0000 (  6258 PWs)   bands (ev):

   -44.6921 -22.8853 -22.8529 -22.8014 -11.9733 -11.4858  -1.5840  -1.3925
    -0.8383  -0.7586  -0.4320   0.0941   4.8967   6.8865   7.1385   7.6498
     8.3552  10.3051  10.9102  12.2650  12.4643  13.0236  13.1938  13.4942
    14.5736  14.7781

          k = 0.3125-0.1088 0.0000 (  6276 PWs)   bands (ev):

   -44.7105 -22.9089 -22.8144 -22.6233 -12.2253 -11.8242  -1.3816  -1.1217
    -0.6585  -0.0291   0.3006   1.0755   4.0912   6.1933   7.0058   7.1180
     7.5498   8.8432  10.1089  11.4466  12.0106  12.2813  13.9329  14.1887
    14.8328  15.1672

          k = 0.3125-0.0363 0.0000 (  6274 PWs)   bands (ev):

   -44.7120 -22.9135 -22.7891 -22.6285 -12.2499 -11.8456  -1.3501  -1.0392
    -0.4752  -0.1593   0.3598   0.9989   4.2044   5.9480   7.0277   7.1326
     7.4805   8.8002  10.1376  11.4689  12.2280  12.5641  13.3750  13.9870
    14.7519  15.0752

          k = 0.3750 0.2176 0.0000 (  6245 PWs)   bands (ev):

   -44.7019 -22.9142 -22.8822 -22.6388 -12.0970 -11.6827  -1.8055  -1.2702
    -0.9959  -0.0585   0.1695   1.0324   3.9079   6.8782   7.2114   7.5902
     7.7625   9.3258  10.0059  11.2519  11.9040  12.2252  13.3960  14.4115
    14.5835  14.7694

          k = 0.3750 0.2901 0.0000 (  6254 PWs)   bands (ev):

   -44.6992 -22.9352 -22.8742 -22.6534 -12.0615 -11.6319  -1.9043  -1.3899
    -0.9520  -0.1700   0.1790   0.8870   3.9624   6.9929   7.2973   7.7381
     7.8964   9.6000   9.9719  11.3123  11.9625  12.2323  13.0789  13.9489
    14.4765  14.7831

          k = 0.3750 0.3627 0.0000 (  6254 PWs)   bands (ev):

   -44.6965 -22.9405 -22.8661 -22.6846 -12.0274 -11.5784  -1.8975  -1.4690
    -0.9051  -0.3247   0.1573   0.5453   4.1631   7.0423   7.4084   7.7248
     8.0393   9.8583  10.2807  11.6279  12.0806  12.2479  12.7040  13.6044
    14.4843  14.7929

          k = 0.3750 0.4352 0.0000 (  6248 PWs)   bands (ev):

   -44.6942 -22.9287 -22.8592 -22.7279 -11.9994 -11.5312  -1.7821  -1.5108
    -0.8669  -0.4686   0.0196   0.1967   4.4570   7.0396   7.3242   7.9069
     7.9730   9.9506  11.0196  11.8067  12.0938  12.4326  12.5976  13.7059
    14.5231  14.7488

          k = 0.3750 0.5077 0.0000 (  6255 PWs)   bands (ev):

   -44.6927 -22.9037 -22.8547 -22.7743 -11.9809 -11.4990  -1.6163  -1.4929
    -0.8447  -0.6184  -0.3137   0.1110   4.7570   6.9616   7.1921   7.7120
     8.2487  10.1415  11.1573  11.9474  12.3860  12.7900  12.8311  13.8338
    14.6300  14.8555

          k = 0.3750 0.5803 0.0000 (  6256 PWs)   bands (ev):

   -44.6922 -22.8853 -22.8530 -22.8003 -11.9745 -11.4875  -1.5801  -1.3885
    -0.8413  -0.7552  -0.4298   0.0905   4.8992   6.8847   7.1382   7.6398
     8.3656  10.2961  10.9221  12.2375  12.4747  13.0298  13.2116  13.5061
    14.5434  14.7949

          k = 0.3750-0.1451 0.0000 (  6249 PWs)   bands (ev):

   -44.7042 -22.8904 -22.8816 -22.6405 -12.1284 -11.7233  -1.6289  -1.1380
    -1.0042  -0.1144   0.2250   0.9626   4.0001   6.5840   7.1583   7.5165
     7.6898   9.2573  10.0840  11.4161  11.9749  12.2758  13.6779  14.2596
    14.6135  14.9751

          k = 0.3750-0.0725 0.0000 (  6260 PWs)   bands (ev):

   -44.7057 -22.8942 -22.8516 -22.6518 -12.1502 -11.7491  -1.4309  -1.1233
    -0.8785  -0.2623   0.2755   0.8079   4.1548   6.2188   7.1922   7.5192
     7.6553   9.2601  10.2028  11.6121  12.2513  12.4214  13.7528  13.9334
    14.2237  14.9501

          k = 0.3750 0.0000 0.0000 (  6247 PWs)   bands (ev):

   -44.7062 -22.8958 -22.8378 -22.6589 -12.1581 -11.7579  -1.3221  -1.1512
    -0.7877  -0.3458   0.2741   0.7395   4.2350   6.0595   7.2123   7.5049
     7.6691   9.2638  10.2675  11.6754  12.4757  12.6414  13.4778  13.8075
    13.8803  15.0130

          k = 0.4375 0.2539 0.0000 (  6244 PWs)   bands (ev):

   -44.6980 -22.9561 -22.8704 -22.6481 -12.0461 -11.6073  -2.0312  -1.4875
    -0.9288  -0.1247   0.1543   0.9859   3.8838   7.1089   7.4460   7.8121
     7.9523   9.5387   9.9362  11.1402  11.8689  12.2060  12.8681  14.0786
    14.2697  14.5052

          k = 0.4375 0.3264 0.0000 (  6250 PWs)   bands (ev):

   -44.6966 -22.9626 -22.8662 -22.6604 -12.0287 -11.5790  -2.0543  -1.5383
    -0.9040  -0.1982   0.1555   0.8437   3.9627   7.2032   7.5082   7.7773
     8.0257   9.6600  10.0710  11.2565  11.8820  12.2336  12.6711  13.6706
    14.3811  14.4939

          k = 0.4375 0.3989 0.0000 (  6253 PWs)   bands (ev):

   -44.6953 -22.9521 -22.8623 -22.6892 -12.0126 -11.5526  -1.9617  -1.5408
    -0.8811  -0.3271   0.1380   0.5044   4.1798   7.2574   7.4975   7.7419
     7.9439   9.7666  10.5644  11.6399  12.0196  12.3010  12.3620  13.5205
    14.4385  14.6722

          k = 0.4375 0.4715 0.0000 (  6249 PWs)   bands (ev):

   -44.6943 -22.9280 -22.8593 -22.7279 -12.0002 -11.5324  -1.7782  -1.5065
    -0.8674  -0.4684   0.0186   0.1928   4.4606   7.0462   7.3226   7.8873
     7.9817   9.9489  11.0129  11.8025  12.1069  12.4238  12.6166  13.6985
    14.5245  14.7570

          k = 0.4375 0.5440 0.0000 (  6241 PWs)   bands (ev):

   -44.6938 -22.9026 -22.8577 -22.7614 -11.9934 -11.5215  -1.6040  -1.4521
    -0.8656  -0.5864  -0.2473   0.1486   4.6857   6.7756   7.2140   7.8890
     8.1815  10.1598  11.0611  11.6319  12.2849  12.7964  13.2122  13.9251
    14.4155  14.6596

          k = 0.4375-0.1813 0.0000 (  6255 PWs)   bands (ev):

   -44.6993 -22.9345 -22.8743 -22.6534 -12.0623 -11.6331  -1.9006  -1.3857
    -0.9522  -0.1695   0.1769   0.8826   3.9662   6.9997   7.3007   7.7454
     7.8743   9.5975   9.9714  11.3117  11.9670  12.2352  13.0839  13.9210
    14.4852  14.8102

          k = 0.4375-0.1088 0.0000 (  6256 PWs)   bands (ev):

   -44.7003 -22.9046 -22.8772 -22.6715 -12.0748 -11.6525  -1.7025  -1.2453
    -0.9782  -0.3091   0.2045   0.6463   4.1474   6.6166   7.3111   7.6898
     7.9236   9.7392  10.0721  11.6316  12.1700  12.3303  13.2471  13.8038
    14.5585  14.8840

          k = 0.4375-0.0363 0.0000 (  6255 PWs)   bands (ev):

   -44.7008 -22.8822 -22.8770 -22.6896 -12.0816 -11.6628  -1.5289  -1.1169
    -1.0129  -0.4324   0.1663   0.4915   4.3065   6.3089   7.2986   7.7213
     7.9801   9.7889  10.2198  11.8364  12.4027  12.5436  13.3084  13.6743
    14.2492  14.8036

          k =-0.5000-0.2901 0.0000 (  6254 PWs)   bands (ev):

   -44.6966 -22.9708 -22.8662 -22.6514 -12.0291 -11.5791  -2.1117  -1.5633
    -0.9048  -0.1480   0.1508   0.9701   3.8818   7.1558   7.5903   7.8383
     8.0856   9.5704   9.9595  11.1058  11.7764  12.2360  12.6838  13.8815
    14.1657  14.3733

          k =-0.5000-0.2176 0.0000 (  6241 PWs)   bands (ev):

   -44.6966 -22.9623 -22.8662 -22.6604 -12.0289 -11.5794  -2.0530  -1.5368
    -0.9042  -0.1980   0.1547   0.8421   3.9642   7.2017   7.5198   7.7801
     8.0107   9.6544  10.0741  11.2558  11.8841  12.2352  12.6757  13.6573
    14.3849  14.5040

          k =-0.5000-0.1451 0.0000 (  6254 PWs)   bands (ev):

   -44.6966 -22.9395 -22.8662 -22.6846 -12.0285 -11.5800  -1.8924  -1.4632
    -0.9056  -0.3246   0.1554   0.5396   4.1682   7.0522   7.4016   7.7454
     8.0080   9.8528  10.2782  11.6312  12.0867  12.2469  12.7163  13.5883
    14.4888  14.8138

          k =-0.5000-0.0725 0.0000 (  6252 PWs)   bands (ev):

   -44.6966 -22.9113 -22.8663 -22.7143 -12.0280 -11.5806  -1.6902  -1.3676
    -0.9162  -0.4632   0.0702   0.2996   4.3967   6.6763   7.3136   7.8916
     8.0596  10.0718  10.4202  11.9130  12.0500  12.4759  13.0695  13.7691
    14.5055  14.7772

          k =-0.5000 0.0000 0.0000 (  6268 PWs)   bands (ev):

   -44.6967 -22.8967 -22.8663 -22.7294 -12.0278 -11.5809  -1.5848  -1.3162
    -0.9271  -0.5261  -0.0471   0.2654   4.5065   6.5009   7.2678   7.9745
     8.0852  10.1769  10.4643  11.8509  12.1049  12.7169  13.3988  13.8020
    14.4407  14.5742

     highest occupied, lowest unoccupied level (ev):     4.8992    5.8347

!    total energy              =    -591.24416362 Ry
     total all-electron energy =    -13333.877440 Ry
     estimated scf accuracy    <          1.2E-10 Ry

     The total energy is the sum of the following terms:
     one-electron contribution =    -205.21879884 Ry
     hartree contribution      =     110.56967881 Ry
     xc contribution           =     -37.61181719 Ry
     ewald contribution        =     -27.86608928 Ry
     one-center paw contrib.   =    -431.11713712 Ry

     convergence has been achieved in   5 iterations

     negative rho (up, down):  1.036E-07 0.000E+00

     Forces acting on atoms (cartesian axes, Ry/au):

     atom    1 type  1   force =     0.00000000    0.00118731   -0.00005838
     atom    2 type  2   force =     0.00000000   -0.00063099    0.00092879
     atom    3 type  3   force =     0.00000000   -0.00055632   -0.00087040
     The non-local contrib.  to forces
     atom    1 type  1   force =     0.00000000   -0.00015975   -0.00060620
     atom    2 type  2   force =     0.00000000   -0.00072567   -0.21266957
     atom    3 type  3   force =     0.00000000   -0.00072137    0.20906314
     The ionic contribution  to forces
     atom    1 type  1   force =    -0.00000001   -0.02166862   -0.33537138
     atom    2 type  2   force =     0.00000000    0.01213571   21.29213887
     atom    3 type  3   force =     0.00000000    0.00953291  -20.95676749
     The local contribution  to forces
     atom    1 type  1   force =     0.00000000    0.02295938    0.33560402
     atom    2 type  2   force =     0.00000003   -0.01200897  -21.08641734
     atom    3 type  3   force =    -0.00000000   -0.00940680   20.75033044
     The core correction contribution to forces
     atom    1 type  1   force =    -0.00000000    0.00002729    0.00035310
     atom    2 type  2   force =    -0.00000000   -0.00006133    0.00792240
     atom    3 type  3   force =    -0.00000000    0.00001321   -0.00344415
     The Hubbard contrib.    to forces
     atom    1 type  1   force =     0.00000000    0.00000000    0.00000000
     atom    2 type  2   force =     0.00000000    0.00000000    0.00000000
     atom    3 type  3   force =     0.00000000    0.00000000    0.00000000
     The SCF correction term to forces
     atom    1 type  1   force =    -0.00000000    0.00000535    0.00002043
     atom    2 type  2   force =     0.00000000    0.00000561    0.00001279
     atom    3 type  3   force =     0.00000000    0.00000205    0.00000602

     Total force =     0.001934     Total SCF correction =     0.000026
     Energy error            =      1.1E-05 Ry
     Gradient error          =      1.2E-03 Ry/Bohr

     number of scf cycles    =   3
     number of bfgs steps    =   2

     energy             old  =    -591.2441523724 Ry
     energy             new  =    -591.2441636176 Ry

     CASE: energy            _new < energy            _old

     new trust radius        =       0.0045955208 bohr
     new conv_thr            =       0.0000000001 Ry


ATOMIC_POSITIONS (angstrom)
Zr            0.0000000000        0.0055232227       10.2765324050
Cl           -0.0000000017        2.0115440205       11.9683292228
Br           -0.0000000017        2.0117896014        8.4182871466



     Writing config-only to output data dir ./tmp/ZrClBr.save/
     NEW-OLD atomic charge density approx. for the potential

     Check: negative core charge=   -0.000004

     negative rho (up, down):  9.872E-08 0.000E+00

     total cpu time spent up to now is       36.0 secs

     Self-consistent Calculation

     iteration #  1     ecut=    65.00 Ry     beta= 0.70
     Davidson diagonalization with overlap
     ethr =  1.00E-06,  avg # of iterations =  3.0

     Threshold (ethr) on eigenvalues was too large:
     Diagonalizing with lowered threshold

     Davidson diagonalization with overlap
     ethr =  8.99E-09,  avg # of iterations =  3.2

     negative rho (up, down):  9.773E-08 0.000E+00

     total cpu time spent up to now is       39.7 secs

     total energy              =    -591.24417043 Ry
     estimated scf accuracy    <       0.00000261 Ry

     iteration #  2     ecut=    65.00 Ry     beta= 0.70
     Davidson diagonalization with overlap
     ethr =  1.00E-08,  avg # of iterations =  2.0

     negative rho (up, down):  9.951E-08 0.000E+00

     total cpu time spent up to now is       41.2 secs

     total energy              =    -591.24417013 Ry
     estimated scf accuracy    <       0.00000720 Ry

     iteration #  3     ecut=    65.00 Ry     beta= 0.70
     Davidson diagonalization with overlap
     ethr =  1.00E-08,  avg # of iterations =  2.0

     negative rho (up, down):  9.952E-08 0.000E+00

     total cpu time spent up to now is       42.7 secs

     total energy              =    -591.24417158 Ry
     estimated scf accuracy    <       0.00000017 Ry

     iteration #  4     ecut=    65.00 Ry     beta= 0.70
     Davidson diagonalization with overlap
     ethr =  6.55E-10,  avg # of iterations =  1.7

     negative rho (up, down):  9.956E-08 0.000E+00

     total cpu time spent up to now is       44.1 secs

     total energy              =    -591.24417161 Ry
     estimated scf accuracy    <       0.00000004 Ry

     iteration #  5     ecut=    65.00 Ry     beta= 0.70
     Davidson diagonalization with overlap
     ethr =  1.38E-10,  avg # of iterations =  2.0

     negative rho (up, down):  9.961E-08 0.000E+00

     total cpu time spent up to now is       45.5 secs

     total energy              =    -591.24417162 Ry
     estimated scf accuracy    <          6.0E-09 Ry

     iteration #  6     ecut=    65.00 Ry     beta= 0.70
     Davidson diagonalization with overlap
     ethr =  2.31E-11,  avg # of iterations =  1.8

     negative rho (up, down):  9.957E-08 0.000E+00

     total cpu time spent up to now is       46.9 secs

     End of self-consistent calculation

          k = 0.0000 0.0000 0.0000 (  6307 PWs)   bands (ev):

   -44.7367 -22.9791 -22.5735 -22.5666 -12.6243 -12.0627  -1.9860   0.0662
     0.3621   0.3864   1.5529   1.5840   4.3533   6.0837   6.1371   6.8178
     6.8377   6.9759   8.5141   9.6342  11.4627  13.7643  13.8364  14.0738
    14.8168  15.3866

          k = 0.0000 0.0725 0.0000 (  6317 PWs)   bands (ev):

   -44.7353 -22.9749 -22.5828 -22.5769 -12.5976 -12.0507  -1.9401   0.0105
     0.3175   0.3485   1.4181   1.5162   4.3610   6.0649   6.1196   6.7995
     6.8778   7.1570   8.6477   9.8707  11.5322  13.3451  13.8941  14.4752
    14.8371  15.0108

          k = 0.0000 0.1451 0.0000 (  6313 PWs)   bands (ev):

   -44.7314 -22.9631 -22.6285 -22.5867 -12.5220 -12.0147  -1.8111  -0.1953
     0.1701   0.3052   1.0086   1.4203   4.3576   5.9376   6.2353   6.7586
     7.0373   7.5905   9.0210  10.4264  11.7419  12.7760  14.2072  14.2638
    14.7045  15.0739

          k = 0.0000 0.2176 0.0000 (  6299 PWs)   bands (ev):

   -44.7254 -22.9453 -22.6960 -22.6014 -12.4114 -11.9553  -1.6256  -0.5521
    -0.0387   0.2293   0.5628   1.2972   4.2850   5.9261   6.4465   6.7945
     7.2471   8.0871   9.5416  10.9877  11.9961  12.3843  13.7200  14.5131
    14.8012  15.3487

          k = 0.0000 0.2901 0.0000 (  6283 PWs)   bands (ev):

   -44.7185 -22.9242 -22.7744 -22.6186 -12.2872 -11.8733  -1.4380  -0.9541
    -0.4232   0.1262   0.3106   1.1762   4.1421   6.1181   6.7603   6.9032
     7.4548   8.5522   9.9730  11.3386  11.9507  12.2617  13.9367  14.2320
    15.2280  15.2824

          k = 0.0000 0.3627 0.0000 (  6252 PWs)   bands (ev):

   -44.7114 -22.9031 -22.8512 -22.6357 -12.1738 -11.7736  -1.4889  -1.1353
    -0.8614   0.0133   0.2151   1.0738   4.0042   6.4709   7.0431   7.1593
     7.6248   8.9694  10.0960  11.3939  11.8825  12.2421  13.9213  14.4867
    14.8934  15.1249

          k = 0.0000 0.4352 0.0000 (  6242 PWs)   bands (ev):

   -44.7055 -22.9159 -22.8846 -22.6501 -12.0883 -11.6722  -1.7964  -1.2698
    -0.9900  -0.0868   0.1773   0.9967   3.9252   6.8686   7.1959   7.5837
     7.7474   9.3178  10.0231  11.2406  11.9072  12.2323  13.4314  14.4464
    14.5333  14.7991

          k = 0.0000 0.5077 0.0000 (  6244 PWs)   bands (ev):

   -44.7015 -22.9582 -22.8727 -22.6597 -12.0365 -11.5954  -2.0226  -1.4908
    -0.9242  -0.1549   0.1643   0.9486   3.9017   7.0910   7.4320   7.7946
     7.9578   9.5347   9.9582  11.1150  11.8805  12.2257  12.8932  14.0211
    14.2901  14.5303

          k = 0.0000-0.5803 0.0000 (  6262 PWs)   bands (ev):

   -44.7001 -22.9730 -22.8685 -22.6631 -12.0193 -11.5668  -2.1034  -1.5679
    -0.9007  -0.1789   0.1615   0.9323   3.9000   7.1354   7.5748   7.8194
     8.0970   9.5791   9.9731  11.0758  11.7927  12.2643  12.7030  13.8194
    14.1760  14.3985

          k = 0.0625 0.0363 0.0000 (  6315 PWs)   bands (ev):

   -44.7353 -22.9750 -22.5882 -22.5712 -12.5979 -12.0510  -1.9404   0.0076
     0.3016   0.3683   1.3955   1.5416   4.3595   6.0255   6.1625   6.7873
     6.8927   7.1562   8.6449   9.8675  11.5315  13.3195  13.9463  14.4551
    14.8233  14.9740

          k = 0.0625 0.1088 0.0000 (  6305 PWs)   bands (ev):

   -44.7327 -22.9670 -22.6153 -22.5817 -12.5467 -12.0270  -1.8528  -0.1215
     0.1994   0.3328   1.1263   1.4574   4.3627   5.9477   6.2172   6.7610
     6.9920   7.4621   8.8986  10.2619  11.6745  12.9204  14.1052  14.3988
    14.7614  14.9625

          k = 0.0625 0.1813 0.0000 (  6302 PWs)   bands (ev):

   -44.7277 -22.9522 -22.6695 -22.5963 -12.4536 -11.9793  -1.6943  -0.4017
     0.0388   0.2574   0.7139   1.3316   4.3308   5.8669   6.3950   6.7772
     7.1678   7.9205   9.3527  10.8108  11.9644  12.4890  13.7868  14.3484
    14.8370  15.3014

          k = 0.0625 0.2539 0.0000 (  6270 PWs)   bands (ev):

   -44.7213 -22.9327 -22.7403 -22.6143 -12.3361 -11.9083  -1.5005  -0.7807
    -0.2255   0.0918   0.4216   1.1891   4.2312   5.9350   6.6867   6.8724
     7.3656   8.3949   9.8495  11.2402  12.0992  12.3369  13.5826  14.2485
    15.0933  15.2970

          k = 0.0625 0.3264 0.0000 (  6266 PWs)   bands (ev):

   -44.7143 -22.9116 -22.8158 -22.6335 -12.2179 -11.8163  -1.3751  -1.1147
    -0.6538  -0.0458   0.3002   1.0517   4.1031   6.1875   6.9871   7.1032
     7.5410   8.8415  10.1148  11.4535  12.0041  12.2825  13.9476  14.2003
    14.8648  15.1662

          k = 0.0625 0.3989 0.0000 (  6247 PWs)   bands (ev):

   -44.7078 -22.8929 -22.8837 -22.6511 -12.1200 -11.7133  -1.6228  -1.1364
    -1.0002  -0.1349   0.2282   0.9355   4.0124   6.5735   7.1402   7.5165
     7.6741   9.2521  10.0942  11.4127  11.9686  12.2777  13.7066  14.2803
    14.6223  14.9701

          k = 0.0625 0.4715 0.0000 (  6262 PWs)   bands (ev):

   -44.7029 -22.9368 -22.8767 -22.6645 -12.0530 -11.6217  -1.8943  -1.3898
    -0.9471  -0.1944   0.1843   0.8522   3.9798   6.9858   7.2817   7.7263
     7.8854   9.5904   9.9928  11.2922  11.9692  12.2440  13.1036  13.9178
    14.5022  14.8056

          k = 0.0625 0.5440 0.0000 (  6254 PWs)   bands (ev):

   -44.7002 -22.9647 -22.8685 -22.6717 -12.0193 -11.5675  -2.0457  -1.5419
    -0.8999  -0.2255   0.1643   0.8089   3.9795   7.1834   7.5016   7.7615
     8.0242   9.6681  10.0816  11.2258  11.8957  12.2588  12.6856  13.6352
    14.3981  14.5015

          k = 0.1250 0.0725 0.0000 (  6312 PWs)   bands (ev):

   -44.7315 -22.9633 -22.6330 -22.5810 -12.5231 -12.0159  -1.8124  -0.2041
     0.1623   0.3253   0.9913   1.4475   4.3513   5.9112   6.2732   6.7532
     7.0496   7.5886   9.0122  10.4186  11.7384  12.7626  14.1796  14.3105
    14.6942  15.0475

          k = 0.1250 0.1451 0.0000 (  6311 PWs)   bands (ev):

   -44.7278 -22.9523 -22.6716 -22.5933 -12.4543 -11.9802  -1.6952  -0.4075
     0.0365   0.2671   0.7066   1.3475   4.3252   5.8613   6.4089   6.7736
     7.1751   7.9196   9.3474  10.8071  11.9608  12.4826  13.7763  14.3507
    14.8497  15.2883

          k = 0.1250 0.2176 0.0000 (  6267 PWs)   bands (ev):

   -44.7224 -22.9358 -22.7274 -22.6130 -12.3543 -11.9208  -1.5244  -0.7040
    -0.1501   0.0595   0.4699   1.1855   4.2752   5.8377   6.6961   6.8692
     7.3307   8.3473   9.7976  11.1999  12.2427  12.3859  13.3302  14.1746
    15.0577  15.1903

          k = 0.1250 0.2901 0.0000 (  6259 PWs)   bands (ev):

   -44.7159 -22.9163 -22.7916 -22.6368 -12.2433 -11.8388  -1.3440  -1.0375
    -0.4753  -0.1688   0.3586   0.9920   4.2085   5.9438   7.0000   7.1219
     7.4828   8.8004  10.1431  11.4719  12.2151  12.5510  13.3753  13.9839
    14.7834  15.0895

          k = 0.1250 0.3627 0.0000 (  6256 PWs)   bands (ev):

   -44.7094 -22.8969 -22.8545 -22.6607 -12.1426 -11.7402  -1.4297  -1.1183
    -0.8827  -0.2733   0.2761   0.7973   4.1590   6.2104   7.1699   7.5190
     7.6494   9.2597  10.2046  11.6107  12.2358  12.4136  13.7583  13.9497
    14.2215  14.9724

          k = 0.1250 0.4352 0.0000 (  6261 PWs)   bands (ev):

   -44.7039 -22.9076 -22.8797 -22.6811 -12.0662 -11.6421  -1.7009  -1.2517
    -0.9730  -0.3243   0.2080   0.6307   4.1528   6.6061   7.2971   7.6652
     7.9400   9.7360  10.0839  11.6180  12.1594  12.3274  13.2429  13.8245
    14.5724  14.8876

          k = 0.1250 0.5077 0.0000 (  6266 PWs)   bands (ev):

   -44.7003 -22.9423 -22.8687 -22.6946 -12.0195 -11.5691  -1.8885  -1.4699
    -0.9010  -0.3441   0.1620   0.5188   4.1764   7.0416   7.3890   7.7159
     8.0263   9.8686  10.2814  11.6020  12.0794  12.2582  12.7142  13.5960
    14.5094  14.8032

          k = 0.1250 0.5803 0.0000 (  6248 PWs)   bands (ev):

   -44.6990 -22.9544 -22.8648 -22.6994 -12.0039 -11.5421  -1.9550  -1.5454
    -0.8772  -0.3484   0.1455   0.4794   4.1911   7.2467   7.4912   7.7205
     7.9432   9.7845  10.5638  11.6040  12.0249  12.3210  12.3627  13.5143
    14.4621  14.6609

          k = 0.1250 0.0000 0.0000 (  6317 PWs)   bands (ev):

   -44.7328 -22.9671 -22.6189 -22.5771 -12.5475 -12.0278  -1.8538  -0.1270
     0.1944   0.3457   1.1149   1.4752   4.3593   5.9211   6.2515   6.7623
     6.9968   7.4607   8.8915  10.2554  11.6730  12.9081  14.1513  14.3771
    14.7357  14.9530

          k = 0.1875 0.1088 0.0000 (  6289 PWs)   bands (ev):

   -44.7257 -22.9457 -22.6997 -22.5952 -12.4135 -11.9579  -1.6280  -0.5617
    -0.0461   0.2517   0.5526   1.3276   4.2727   5.9123   6.4793   6.7944
     7.2573   8.0852   9.5280  10.9799  11.9893  12.3734  13.7023  14.4978
    14.8423  15.3161

          k = 0.1875 0.1813 0.0000 (  6278 PWs)   bands (ev):

   -44.7215 -22.9331 -22.7429 -22.6096 -12.3380 -11.9107  -1.5023  -0.7888
    -0.2333   0.1061   0.4207   1.2149   4.2191   5.9340   6.7033   6.8701
     7.3751   8.3940   9.8409  11.2353  12.0944  12.3258  13.5705  14.2328
    15.1081  15.2875

          k = 0.1875 0.2539 0.0000 (  6269 PWs)   bands (ev):

   -44.7160 -22.9166 -22.7929 -22.6343 -12.2444 -11.8402  -1.3449  -1.0419
    -0.4807  -0.1612   0.3608   1.0053   4.2016   5.9459   7.0007   7.1265
     7.4868   8.8003  10.1399  11.4689  12.2107  12.5556  13.3641  13.9716
    14.7890  15.0825

          k = 0.1875 0.3264 0.0000 (  6268 PWs)   bands (ev):

   -44.7101 -22.8987 -22.8420 -22.6653 -12.1514 -11.7506  -1.3263  -1.1467
    -0.7983  -0.3479   0.2766   0.7445   4.2307   6.0543   7.1878   7.5083
     7.6694   9.2660  10.2645  11.6705  12.4577  12.6279  13.4691  13.8149
    13.8851  15.0231

          k = 0.1875 0.3989 0.0000 (  6260 PWs)   bands (ev):

   -44.7046 -22.8859 -22.8802 -22.6967 -12.0741 -11.6541  -1.5341  -1.1273
    -1.0082  -0.4381   0.1686   0.4936   4.3025   6.3024   7.2886   7.6967
     8.0004   9.7938  10.2178  11.8235  12.3971  12.5285  13.2890  13.6832
    14.2493  14.8218

          k = 0.1875 0.4715 0.0000 (  6258 PWs)   bands (ev):

   -44.7004 -22.9149 -22.8690 -22.7222 -12.0201 -11.5714  -1.6922  -1.3769
    -0.9112  -0.4733   0.0683   0.3006   4.3955   6.6701   7.3067   7.8581
     8.0845  10.0839  10.4236  11.8962  12.0306  12.4730  13.0450  13.7873
    14.5198  14.7760

          k = 0.1875 0.5440 0.0000 (  6250 PWs)   bands (ev):

   -44.6981 -22.9307 -22.8621 -22.7363 -11.9925 -11.5236  -1.7756  -1.5125
    -0.8631  -0.4814   0.0100   0.1946   4.4636   7.0437   7.3147   7.8950
     7.9555   9.9650  11.0129  11.7911  12.0710  12.4357  12.6173  13.6970
    14.5433  14.7443

          k = 0.1875-0.0363 0.0000 (  6298 PWs)   bands (ev):

   -44.7280 -22.9525 -22.6729 -22.5907 -12.4555 -11.9815  -1.6966  -0.4089
     0.0365   0.2719   0.7075   1.3526   4.3230   5.8478   6.4293   6.7868
     7.1693   7.9187   9.3385  10.8020  11.9607  12.4853  13.7723  14.3749
    14.8332  15.2824

          k = 0.2500 0.1451 0.0000 (  6281 PWs)   bands (ev):

   -44.7189 -22.9249 -22.7771 -22.6119 -12.2906 -11.8778  -1.4412  -0.9618
    -0.4311   0.1517   0.3053   1.2097   4.1265   6.1126   6.7857   6.9071
     7.4642   8.5510   9.9603  11.3313  11.9464  12.2516  13.9192  14.2068
    15.1883  15.3210

          k = 0.2500 0.2176 0.0000 (  6264 PWs)   bands (ev):

   -44.7147 -22.9123 -22.8182 -22.6275 -12.2210 -11.8206  -1.3787  -1.1216
    -0.6615  -0.0290   0.3030   1.0838   4.0873   6.1887   6.9917   7.1156
     7.5503   8.8417  10.1062  11.4456  12.0045  12.2759  13.9219  14.1727
    14.8563  15.1667

          k = 0.2500 0.2901 0.0000 (  6259 PWs)   bands (ev):

   -44.7097 -22.8974 -22.8563 -22.6563 -12.1449 -11.7436  -1.4349  -1.1206
    -0.8878  -0.2615   0.2794   0.8196   4.1474   6.2124   7.1741   7.5254
     7.6549   9.2608  10.1982  11.6055  12.2451  12.4140  13.7365  13.9580
    14.1971  14.9500

          k = 0.2500 0.3627 0.0000 (  6261 PWs)   bands (ev):

   -44.7048 -22.8866 -22.8807 -22.6944 -12.0754 -11.6560  -1.5372  -1.1282
    -1.0094  -0.4322   0.1716   0.5022   4.2970   6.3024   7.2923   7.6983
     8.0038   9.7941  10.2139  11.8217  12.4000  12.5411  13.3097  13.6554
    14.2293  14.8041

          k = 0.2500 0.4352 0.0000 (  6252 PWs)   bands (ev):

   -44.7006 -22.9014 -22.8693 -22.7347 -12.0212 -11.5735  -1.5926  -1.3272
    -0.9220  -0.5289  -0.0426   0.2731   4.4977   6.4959   7.2634   7.9458
     8.1130  10.1808  10.4700  11.8439  12.0859  12.7161  13.3582  13.8120
    14.4430  14.5754

          k = 0.2500 0.5077 0.0000 (  6256 PWs)   bands (ev):

   -44.6977 -22.9062 -22.8608 -22.7675 -11.9870 -11.5146  -1.6074  -1.4589
    -0.8605  -0.5912  -0.2499   0.1553   4.6804   6.7740   7.2073   7.9092
     8.1527  10.1707  11.0526  11.6416  12.2624  12.7933  13.1887  13.9188
    14.4258  14.6649

          k = 0.2500 0.5803 0.0000 (  6270 PWs)   bands (ev):

   -44.6968 -22.9062 -22.8578 -22.7808 -11.9753 -11.4932  -1.6148  -1.4934
    -0.8407  -0.6235  -0.3215   0.1156   4.7562   6.9664   7.1854   7.7096
     8.2283  10.1534  11.1372  11.9556  12.3801  12.7858  12.8382  13.7989
    14.6404  14.7087

          k = 0.2500-0.0725 0.0000 (  6282 PWs)   bands (ev):

   -44.7217 -22.9334 -22.7427 -22.6083 -12.3394 -11.9123  -1.5038  -0.7856
    -0.2303   0.1092   0.4215   1.2123   4.2206   5.9266   6.7121   6.8863
     7.3665   8.3933   9.8334  11.2337  12.0996  12.3315  13.5762  14.2454
    15.0989  15.2832

          k = 0.2500 0.0000 0.0000 (  6275 PWs)   bands (ev):

   -44.7226 -22.9363 -22.7284 -22.6092 -12.3568 -11.9238  -1.5271  -0.7032
    -0.1495   0.0681   0.4725   1.1917   4.2723   5.8281   6.7148   6.8923
     7.3205   8.3459   9.7831  11.1951  12.2517  12.3890  13.3308  14.1860
    15.0501  15.1795

          k = 0.3125 0.1813 0.0000 (  6264 PWs)   bands (ev):

   -44.7120 -22.9041 -22.8531 -22.6284 -12.1784 -11.7801  -1.4937  -1.1396
    -0.8657   0.0421   0.2092   1.1099   3.9877   6.4697   7.0500   7.1749
     7.6347   8.9699  10.0836  11.3892  11.8835  12.2340  13.8857  14.4587
    14.8555  15.1679

          k = 0.3125 0.2539 0.0000 (  6249 PWs)   bands (ev):

   -44.7083 -22.8939 -22.8855 -22.6442 -12.1244 -11.7197  -1.6293  -1.1385
    -1.0047  -0.1140   0.2289   0.9714   3.9953   6.5734   7.1472   7.5286
     7.6825   9.2545  10.0807  11.4129  11.9707  12.2715  13.6728  14.2808
    14.6106  14.9482

          k = 0.3125 0.3264 0.0000 (  6259 PWs)   bands (ev):

   -44.7044 -22.9092 -22.8806 -22.6753 -12.0698 -11.6476  -1.7070  -1.2524
    -0.9754  -0.3081   0.2089   0.6582   4.1392   6.6045   7.3065   7.6698
     7.9484   9.7394  10.0702  11.6231  12.1656  12.3268  13.2493  13.8056
    14.5488  14.8571

          k = 0.3125 0.3989 0.0000 (  6251 PWs)   bands (ev):

   -44.7007 -22.9160 -22.8696 -22.7181 -12.0227 -11.5753  -1.6965  -1.3758
    -0.9124  -0.4625   0.0750   0.3099   4.3876   6.6658   7.3117   7.8648
     8.0903  10.0690  10.4294  11.9003  12.0406  12.4865  13.0446  13.7727
    14.4982  14.7567

          k = 0.3125 0.4715 0.0000 (  6249 PWs)   bands (ev):

   -44.6979 -22.9068 -22.8611 -22.7655 -11.9883 -11.5166  -1.6084  -1.4579
    -0.8611  -0.5862  -0.2434   0.1543   4.6781   6.7694   7.2084   7.9115
     8.1586  10.1609  11.0604  11.6458  12.2632  12.8044  13.1726  13.9336
    14.4184  14.6609

          k = 0.3125 0.5440 0.0000 (  6258 PWs)   bands (ev):

   -44.6964 -22.8884 -22.8565 -22.8047 -11.9702 -11.4838  -1.5795  -1.3897
    -0.8357  -0.7551  -0.4309   0.0932   4.8953   6.8854   7.1313   7.6422
     8.3505  10.3004  10.9100  12.2641  12.4666  13.0227  13.1923  13.4931
    14.5684  14.7763

          k = 0.3125-0.1088 0.0000 (  6276 PWs)   bands (ev):

   -44.7148 -22.9126 -22.8173 -22.6270 -12.2224 -11.8224  -1.3780  -1.1183
    -0.6558  -0.0254   0.2996   1.0775   4.0919   6.1866   7.0021   7.1155
     7.5447   8.8405  10.1027  11.4486  12.0072  12.2795  13.9332  14.1895
    14.8345  15.1660

          k = 0.3125-0.0363 0.0000 (  6274 PWs)   bands (ev):

   -44.7163 -22.9171 -22.7920 -22.6323 -12.2471 -11.8437  -1.3472  -1.0348
    -0.4723  -0.1565   0.3597   1.0001   4.2059   5.9408   7.0240   7.1308
     7.4750   8.7982  10.1308  11.4699  12.2248  12.5615  13.3774  13.9889
    14.7537  15.0735

          k = 0.3750 0.2176 0.0000 (  6245 PWs)   bands (ev):

   -44.7062 -22.9171 -22.8859 -22.6424 -12.0940 -11.6807  -1.8012  -1.2685
    -0.9936  -0.0553   0.1694   1.0349   3.9082   6.8722   7.2044   7.5884
     7.7576   9.3203  10.0037  11.2499  11.9014  12.2232  13.3957  14.4124
    14.5834  14.7675

          k = 0.3750 0.2901 0.0000 (  6254 PWs)   bands (ev):

   -44.7035 -22.9381 -22.8779 -22.6570 -12.0584 -11.6299  -1.9002  -1.3880
    -0.9497  -0.1686   0.1805   0.8896   3.9623   6.9869   7.2890   7.7359
     7.8922   9.5939   9.9718  11.3083  11.9608  12.2310  13.0796  13.9440
    14.4784  14.7845

          k = 0.3750 0.3627 0.0000 (  6254 PWs)   bands (ev):

   -44.7008 -22.9434 -22.8698 -22.6881 -12.0243 -11.5764  -1.8936  -1.4667
    -0.9027  -0.3234   0.1585   0.5477   4.1629   7.0370   7.3967   7.7253
     8.0341   9.8529  10.2810  11.6246  12.0773  12.2479  12.7058  13.5992
    14.4862  14.7934

          k = 0.3750 0.4352 0.0000 (  6248 PWs)   bands (ev):

   -44.6986 -22.9316 -22.8629 -22.7314 -11.9962 -11.5293  -1.7782  -1.5080
    -0.8642  -0.4670   0.0206   0.1980   4.4567   7.0354   7.3159   7.9012
     7.9688   9.9469  11.0183  11.8045  12.0937  12.4315  12.5964  13.7029
    14.5246  14.7471

          k = 0.3750 0.5077 0.0000 (  6255 PWs)   bands (ev):

   -44.6970 -22.9065 -22.8584 -22.7778 -11.9777 -11.4970  -1.6123  -1.4898
    -0.8417  -0.6166  -0.3128   0.1110   4.7564   6.9596   7.1849   7.7057
     8.2417  10.1383  11.1540  11.9471  12.3872  12.7887  12.8304  13.8316
    14.6312  14.8527

          k = 0.3750 0.5803 0.0000 (  6256 PWs)   bands (ev):

   -44.6965 -22.8880 -22.8568 -22.8039 -11.9713 -11.4855  -1.5761  -1.3850
    -0.8369  -0.7547  -0.4291   0.0902   4.8984   6.8842   7.1309   7.6330
     8.3578  10.2930  10.9186  12.2373  12.4750  13.0326  13.2099  13.5034
    14.5452  14.7899

          k = 0.3750-0.1451 0.0000 (  6249 PWs)   bands (ev):

   -44.7085 -22.8940 -22.8845 -22.6441 -12.1255 -11.7213  -1.6245  -1.1361
    -1.0022  -0.1099   0.2238   0.9645   4.0008   6.5776   7.1542   7.5161
     7.6815   9.2528  10.0795  11.4173  11.9712  12.2728  13.6781  14.2609
    14.6130  14.9737

          k = 0.3750-0.0725 0.0000 (  6260 PWs)   bands (ev):

   -44.7100 -22.8979 -22.8544 -22.6556 -12.1473 -11.7471  -1.4263  -1.1210
    -0.8769  -0.2580   0.2748   0.8090   4.1562   6.2121   7.1908   7.5162
     7.6469   9.2572  10.1956  11.6135  12.2492  12.4181  13.7540  13.9343
    14.2238  14.9511

          k = 0.3750 0.0000 0.0000 (  6247 PWs)   bands (ev):

   -44.7105 -22.8995 -22.8405 -22.6627 -12.1552 -11.7559  -1.3171  -1.1491
    -0.7863  -0.3413   0.2739   0.7399   4.2368   6.0526   7.2119   7.4996
     7.6620   9.2616  10.2592  11.6759  12.4698  12.6448  13.4762  13.8090
    13.8825  15.0121

          k = 0.4375 0.2539 0.0000 (  6244 PWs)   bands (ev):

   -44.7023 -22.9589 -22.8741 -22.6517 -12.0429 -11.6053  -2.0271  -1.4864
    -0.9265  -0.1215   0.1548   0.9882   3.8839   7.1019   7.4398   7.8067
     7.9508   9.5297   9.9379  11.1365  11.8668  12.2040  12.8670  14.0792
    14.2689  14.5057

          k = 0.4375 0.3264 0.0000 (  6250 PWs)   bands (ev):

   -44.7009 -22.9654 -22.8699 -22.6640 -12.0255 -11.5770  -2.0503  -1.5370
    -0.9017  -0.1958   0.1566   0.8460   3.9627   7.1946   7.5038   7.7726
     8.0221   9.6532  10.0716  11.2522  11.8793  12.2327  12.6716  13.6665
    14.3834  14.4950

          k = 0.4375 0.3989 0.0000 (  6253 PWs)   bands (ev):

   -44.6996 -22.9549 -22.8660 -22.6927 -12.0094 -11.5506  -1.9577  -1.5392
    -0.8787  -0.3247   0.1386   0.5063   4.1798   7.2508   7.4914   7.7364
     7.9399   9.7631  10.5616  11.6373  12.0178  12.3002  12.3607  13.5184
    14.4411  14.6712

          k = 0.4375 0.4715 0.0000 (  6249 PWs)   bands (ev):

   -44.6987 -22.9307 -22.8631 -22.7315 -11.9969 -11.5305  -1.7741  -1.5046
    -0.8645  -0.4660   0.0195   0.1932   4.4605   7.0422   7.3161   7.8840
     7.9729   9.9462  11.0077  11.8014  12.1069  12.4239  12.6139  13.6975
    14.5270  14.7554

          k = 0.4375 0.5440 0.0000 (  6241 PWs)   bands (ev):

   -44.6981 -22.9052 -22.8615 -22.7651 -11.9902 -11.5196  -1.6000  -1.4497
    -0.8621  -0.5844  -0.2465   0.1483   4.6855   6.7723   7.2077   7.8862
     8.1711  10.1578  11.0547  11.6303  12.2841  12.8010  13.2093  13.9224
    14.4189  14.6608

          k = 0.4375-0.1813 0.0000 (  6255 PWs)   bands (ev):

   -44.7036 -22.9372 -22.8780 -22.6571 -12.0592 -11.6310  -1.8964  -1.3846
    -0.9499  -0.1652   0.1761   0.8845   3.9667   6.9940   7.2950   7.7374
     7.8736   9.5885   9.9720  11.3107  11.9638  12.2321  13.0821  13.9249
    14.4856  14.8062

          k = 0.4375-0.1088 0.0000 (  6256 PWs)   bands (ev):

   -44.7046 -22.9073 -22.8809 -22.6752 -12.0717 -11.6504  -1.6982  -1.2442
    -0.9757  -0.3046   0.2037   0.6474   4.1483   6.6107   7.3103   7.6767
     7.9231   9.7334  10.0688  11.6332  12.1662  12.3258  13.2474  13.8057
    14.5588  14.8826

          k = 0.4375-0.0363 0.0000 (  6255 PWs)   bands (ev):

   -44.7051 -22.8853 -22.8803 -22.6934 -12.0786 -11.6608  -1.5245  -1.1159
    -1.0104  -0.4278   0.1663   0.4914   4.3077   6.3028   7.2986   7.7075
     7.9793   9.7867  10.2121  11.8363  12.3958  12.5466  13.3078  13.6765
    14.2490  14.8057

          k =-0.5000-0.2901 0.0000 (  6254 PWs)   bands (ev):

   -44.7010 -22.9735 -22.8699 -22.6550 -12.0260 -11.5771  -2.1077  -1.5624
    -0.9026  -0.1449   0.1514   0.9723   3.8818   7.1483   7.5844   7.8323
     8.0845   9.5619   9.9604  11.1018  11.7748  12.2347  12.6815  13.8819
    14.1640  14.3758

          k =-0.5000-0.2176 0.0000 (  6241 PWs)   bands (ev):

   -44.7010 -22.9651 -22.8700 -22.6640 -12.0258 -11.5774  -2.0489  -1.5358
    -0.9019  -0.1945   0.1549   0.8441   3.9643   7.1952   7.5131   7.7735
     8.0098   9.6476  10.0732  11.2529  11.8830  12.2333  12.6721  13.6594
    14.3861  14.5023

          k =-0.5000-0.1451 0.0000 (  6254 PWs)   bands (ev):

   -44.7010 -22.9422 -22.8700 -22.6882 -12.0253 -11.5780  -1.8883  -1.4621
    -0.9031  -0.3209   0.1551   0.5410   4.1685   7.0470   7.3975   7.7340
     8.0073   9.8479  10.2752  11.6312  12.0831  12.2450  12.7132  13.5910
    14.4904  14.8108

          k =-0.5000-0.0725 0.0000 (  6252 PWs)   bands (ev):

   -44.7010 -22.9139 -22.8700 -22.7179 -12.0248 -11.5786  -1.6860  -1.3663
    -0.9134  -0.4596   0.0708   0.2993   4.3971   6.6713   7.3102   7.8789
     8.0590  10.0687  10.4155  11.9104  12.0467  12.4783  13.0667  13.7708
    14.5075  14.7758

          k =-0.5000 0.0000 0.0000 (  6268 PWs)   bands (ev):

   -44.7010 -22.8993 -22.8700 -22.7332 -12.0246 -11.5789  -1.5805  -1.3148
    -0.9240  -0.5226  -0.0463   0.2646   4.5070   6.4959   7.2641   7.9624
     8.0839  10.1754  10.4579  11.8453  12.1032  12.7241  13.3917  13.8057
    14.4410  14.5760

     highest occupied, lowest unoccupied level (ev):     4.8984    5.8281

!    total energy              =    -591.24417162 Ry
     total all-electron energy =    -13333.877448 Ry
     estimated scf accuracy    <          7.4E-11 Ry

     The total energy is the sum of the following terms:
     one-electron contribution =    -204.95052971 Ry
     hartree contribution      =     110.43470365 Ry
     xc contribution           =     -37.61020815 Ry
     ewald contribution        =     -28.00109111 Ry
     one-center paw contrib.   =    -431.11704630 Ry

     convergence has been achieved in   6 iterations

     negative rho (up, down):  9.957E-08 0.000E+00

     Forces acting on atoms (cartesian axes, Ry/au):

     atom    1 type  1   force =     0.00000000   -0.00005873    0.00001960
     atom    2 type  2   force =     0.00000000    0.00000438    0.00037082
     atom    3 type  3   force =     0.00000000    0.00005435   -0.00039042
     The non-local contrib.  to forces
     atom    1 type  1   force =     0.00000000   -0.00062120   -0.00063580
     atom    2 type  2   force =     0.00000000   -0.00045726   -0.21298979
     atom    3 type  3   force =     0.00000000   -0.00044081    0.20927672
     The ionic contribution  to forces
     atom    1 type  1   force =    -0.00000001   -0.03481343   -0.33660869
     atom    2 type  2   force =     0.00000000    0.01980077   21.27798516
     atom    3 type  3   force =     0.00000000    0.01501267  -20.94137647
     The local contribution  to forces
     atom    1 type  1   force =    -0.00000000    0.03533340    0.33700764
     atom    2 type  2   force =     0.00000003   -0.01928073  -21.07252818
     atom    3 type  3   force =    -0.00000000   -0.01451175   20.73524735
     The core correction contribution to forces
     atom    1 type  1   force =    -0.00000000    0.00001710    0.00035721
     atom    2 type  2   force =    -0.00000000   -0.00008247    0.00797410
     atom    3 type  3   force =    -0.00000000   -0.00002753   -0.00347589
     The Hubbard contrib.    to forces
     atom    1 type  1   force =     0.00000000    0.00000000    0.00000000
     atom    2 type  2   force =     0.00000000    0.00000000    0.00000000
     atom    3 type  3   force =     0.00000000    0.00000000    0.00000000
     The SCF correction term to forces
     atom    1 type  1   force =    -0.00000000    0.00000468   -0.00003242
     atom    2 type  2   force =     0.00000000    0.00000335   -0.00000214
     atom    3 type  3   force =     0.00000000    0.00000106    0.00000618

     Total force =     0.000545     Total SCF correction =     0.000034
     Energy error            =      8.0E-06 Ry
     Gradient error          =      3.9E-04 Ry/Bohr

     number of scf cycles    =   4
     number of bfgs steps    =   3

     energy             old  =    -591.2441636176 Ry
     energy             new  =    -591.2441716201 Ry

     CASE: energy            _new < energy            _old

     new trust radius        =       0.0009505792 bohr
     new conv_thr            =            1.0E-10 Ry


ATOMIC_POSITIONS (angstrom)
Zr            0.0000000000        0.0058377508       10.2765305195
Cl           -0.0000000017        2.0113626226       11.9687984017
Br           -0.0000000017        2.0116564712        8.4178198532



     Writing config-only to output data dir ./tmp/ZrClBr.save/
     NEW-OLD atomic charge density approx. for the potential

     Check: negative core charge=   -0.000004

     negative rho (up, down):  9.812E-08 0.000E+00

     total cpu time spent up to now is       47.4 secs

     Self-consistent Calculation

     iteration #  1     ecut=    65.00 Ry     beta= 0.70
     Davidson diagonalization with overlap
     ethr =  1.00E-06,  avg # of iterations =  2.0

     Threshold (ethr) on eigenvalues was too large:
     Diagonalizing with lowered threshold

     Davidson diagonalization with overlap
     ethr =  6.08E-10,  avg # of iterations =  4.0

     negative rho (up, down):  9.787E-08 0.000E+00

     total cpu time spent up to now is       50.8 secs

     total energy              =    -591.24417196 Ry
     estimated scf accuracy    <       0.00000016 Ry

     iteration #  2     ecut=    65.00 Ry     beta= 0.70
     Davidson diagonalization with overlap
     ethr =  6.15E-10,  avg # of iterations =  2.0

     negative rho (up, down):  9.833E-08 0.000E+00

     total cpu time spent up to now is       52.4 secs

     total energy              =    -591.24417194 Ry
     estimated scf accuracy    <       0.00000059 Ry

     iteration #  3     ecut=    65.00 Ry     beta= 0.70
     Davidson diagonalization with overlap
     ethr =  6.15E-10,  avg # of iterations =  2.0

     negative rho (up, down):  9.836E-08 0.000E+00

     total cpu time spent up to now is       53.8 secs

     total energy              =    -591.24417204 Ry
     estimated scf accuracy    <          3.5E-09 Ry

     iteration #  4     ecut=    65.00 Ry     beta= 0.70
     Davidson diagonalization with overlap
     ethr =  1.33E-11,  avg # of iterations =  2.0

     negative rho (up, down):  9.837E-08 0.000E+00

     total cpu time spent up to now is       55.3 secs

     total energy              =    -591.24417205 Ry
     estimated scf accuracy    <          1.7E-09 Ry

     iteration #  5     ecut=    65.00 Ry     beta= 0.70
     Davidson diagonalization with overlap
     ethr =  6.38E-12,  avg # of iterations =  1.6

     negative rho (up, down):  9.838E-08 0.000E+00

     total cpu time spent up to now is       56.7 secs

     total energy              =    -591.24417205 Ry
     estimated scf accuracy    <          1.6E-10 Ry

     iteration #  6     ecut=    65.00 Ry     beta= 0.70
     Davidson diagonalization with overlap
     ethr =  6.28E-13,  avg # of iterations =  2.0

     negative rho (up, down):  9.838E-08 0.000E+00

     total cpu time spent up to now is       58.1 secs

     End of self-consistent calculation

          k = 0.0000 0.0000 0.0000 (  6307 PWs)   bands (ev):

   -44.7379 -22.9800 -22.5745 -22.5676 -12.6234 -12.0625  -1.9851   0.0658
     0.3638   0.3876   1.5546   1.5849   4.3515   6.0829   6.1354   6.8164
     6.8383   6.9756   8.5145   9.6342  11.4636  13.7641  13.8373  14.0721
    14.8170  15.3871

          k = 0.0000 0.0725 0.0000 (  6317 PWs)   bands (ev):

   -44.7365 -22.9759 -22.5838 -22.5779 -12.5967 -12.0504  -1.9392   0.0103
     0.3185   0.3502   1.4189   1.5178   4.3593   6.0633   6.1188   6.8000
     6.8764   7.1567   8.6480   9.8709  11.5331  13.3449  13.8938  14.4746
    14.8370  15.0092

          k = 0.0000 0.1451 0.0000 (  6313 PWs)   bands (ev):

   -44.7326 -22.9640 -22.6295 -22.5877 -12.5212 -12.0145  -1.8102  -0.1949
     0.1705   0.3069   1.0092   1.4219   4.3560   5.9360   6.2345   6.7588
     7.0359   7.5901   9.0210  10.4269  11.7426  12.7757  14.2055  14.2635
    14.7041  15.0740

          k = 0.0000 0.2176 0.0000 (  6299 PWs)   bands (ev):

   -44.7266 -22.9462 -22.6970 -22.6023 -12.4105 -11.9550  -1.6246  -0.5513
    -0.0385   0.2310   0.5630   1.2987   4.2837   5.9245   6.4458   6.7945
     7.2455   8.0868   9.5410  10.9886  11.9963  12.3839  13.7186  14.5129
    14.8010  15.3487

          k = 0.0000 0.2901 0.0000 (  6283 PWs)   bands (ev):

   -44.7196 -22.9251 -22.7753 -22.6195 -12.2864 -11.8729  -1.4369  -0.9532
    -0.4227   0.1279   0.3104   1.1776   4.1410   6.1167   6.7597   6.9030
     7.4531   8.5518   9.9715  11.3397  11.9506  12.2613  13.9360  14.2323
    15.2273  15.2820

          k = 0.0000 0.3627 0.0000 (  6252 PWs)   bands (ev):

   -44.7126 -22.9041 -22.8522 -22.6366 -12.1731 -11.7731  -1.4878  -1.1345
    -0.8608   0.0150   0.2146   1.0750   4.0031   6.4697   7.0427   7.1587
     7.6230   8.9688  10.0943  11.3939  11.8827  12.2420  13.9213  14.4867
    14.8925  15.1242

          k = 0.0000 0.4352 0.0000 (  6242 PWs)   bands (ev):

   -44.7067 -22.9169 -22.8856 -22.6511 -12.0876 -11.6716  -1.7956  -1.2692
    -0.9890  -0.0851   0.1767   0.9978   3.9241   6.8678   7.1954   7.5830
     7.7456   9.3165  10.0224  11.2401  11.9071  12.2323  13.4307  14.4461
    14.5326  14.7979

          k = 0.0000 0.5077 0.0000 (  6244 PWs)   bands (ev):

   -44.7027 -22.9591 -22.8737 -22.6607 -12.0358 -11.5948  -2.0219  -1.4902
    -0.9230  -0.1532   0.1636   0.9497   3.9005   7.0905   7.4311   7.7927
     7.9572   9.5330   9.9582  11.1145  11.8799  12.2255  12.8925  14.0205
    14.2885  14.5301

          k = 0.0000-0.5803 0.0000 (  6262 PWs)   bands (ev):

   -44.7013 -22.9739 -22.8694 -22.6641 -12.0185 -11.5662  -2.1027  -1.5673
    -0.8995  -0.1772   0.1609   0.9333   3.8988   7.1350   7.5737   7.8174
     8.0964   9.5784   9.9721  11.0754  11.7922  12.2639  12.7023  13.8189
    14.1733  14.3994

          k = 0.0625 0.0363 0.0000 (  6315 PWs)   bands (ev):

   -44.7365 -22.9759 -22.5892 -22.5722 -12.5970 -12.0507  -1.9396   0.0077
     0.3028   0.3695   1.3969   1.5425   4.3578   6.0245   6.1609   6.7863
     6.8928   7.1559   8.6452   9.8675  11.5323  13.3188  13.9469  14.4542
    14.8235  14.9740

          k = 0.0625 0.1088 0.0000 (  6305 PWs)   bands (ev):

   -44.7339 -22.9679 -22.6162 -22.5827 -12.5458 -12.0267  -1.8520  -0.1211
     0.2000   0.3343   1.1271   1.4588   4.3611   5.9463   6.2161   6.7609
     6.9910   7.4617   8.8987  10.2621  11.6752  12.9199  14.1051  14.3977
    14.7602  14.9634

          k = 0.0625 0.1813 0.0000 (  6302 PWs)   bands (ev):

   -44.7289 -22.9531 -22.6704 -22.5973 -12.4527 -11.9790  -1.6934  -0.4009
     0.0390   0.2590   0.7143   1.3330   4.3294   5.8654   6.3941   6.7773
     7.1663   7.9202   9.3524  10.8116  11.9648  12.4888  13.7855  14.3481
    14.8364  15.3019

          k = 0.0625 0.2539 0.0000 (  6270 PWs)   bands (ev):

   -44.7225 -22.9336 -22.7412 -22.6153 -12.3353 -11.9079  -1.4995  -0.7798
    -0.2251   0.0933   0.4218   1.1904   4.2300   5.9335   6.6860   6.8723
     7.3639   8.3946   9.8483  11.2413  12.0993  12.3366  13.5816  14.2482
    15.0931  15.2965

          k = 0.0625 0.3264 0.0000 (  6266 PWs)   bands (ev):

   -44.7155 -22.9125 -22.8168 -22.6345 -12.2172 -11.8158  -1.3740  -1.1139
    -0.6532  -0.0446   0.3001   1.0529   4.1020   6.1861   6.9868   7.1025
     7.5392   8.8412  10.1129  11.4542  12.0042  12.2824  13.9472  14.2003
    14.8638  15.1658

          k = 0.0625 0.3989 0.0000 (  6247 PWs)   bands (ev):

   -44.7090 -22.8939 -22.8846 -22.6521 -12.1193 -11.7128  -1.6219  -1.1357
    -0.9993  -0.1335   0.2279   0.9366   4.0113   6.5724   7.1399   7.5158
     7.6724   9.2513  10.0927  11.4125  11.9687  12.2777  13.7060  14.2795
    14.6224  14.9694

          k = 0.0625 0.4715 0.0000 (  6262 PWs)   bands (ev):

   -44.7040 -22.9377 -22.8776 -22.6654 -12.0523 -11.6211  -1.8935  -1.3891
    -0.9459  -0.1930   0.1838   0.8532   3.9787   6.9850   7.2811   7.7245
     7.8846   9.5887   9.9927  11.2917  11.9688  12.2439  13.1028  13.9169
    14.5024  14.8041

          k = 0.0625 0.5440 0.0000 (  6254 PWs)   bands (ev):

   -44.7014 -22.9656 -22.8695 -22.6726 -12.0186 -11.5668  -2.0450  -1.5413
    -0.8987  -0.2239   0.1637   0.8099   3.9783   7.1829   7.5008   7.7597
     8.0233   9.6676  10.0806  11.2253  11.8952  12.2585  12.6849  13.6344
    14.3979  14.5004

          k = 0.1250 0.0725 0.0000 (  6312 PWs)   bands (ev):

   -44.7327 -22.9642 -22.6340 -22.5820 -12.5222 -12.0156  -1.8115  -0.2032
     0.1626   0.3265   0.9923   1.4486   4.3500   5.9100   6.2719   6.7524
     7.0494   7.5882   9.0122  10.4187  11.7389  12.7619  14.1796  14.3110
    14.6927  15.0484

          k = 0.1250 0.1451 0.0000 (  6311 PWs)   bands (ev):

   -44.7290 -22.9533 -22.6726 -22.5943 -12.4535 -11.9798  -1.6943  -0.4065
     0.0367   0.2685   0.7071   1.3487   4.3240   5.8599   6.4079   6.7733
     7.1742   7.9192   9.3470  10.8077  11.9609  12.4824  13.7758  14.3499
    14.8494  15.2890

          k = 0.1250 0.2176 0.0000 (  6267 PWs)   bands (ev):

   -44.7235 -22.9368 -22.7283 -22.6140 -12.3535 -11.9204  -1.5234  -0.7030
    -0.1498   0.0609   0.4701   1.1867   4.2742   5.8362   6.6952   6.8690
     7.3292   8.3469   9.7965  11.2010  12.2428  12.3858  13.3292  14.1736
    15.0578  15.1900

          k = 0.1250 0.2901 0.0000 (  6259 PWs)   bands (ev):

   -44.7171 -22.9173 -22.7925 -22.6378 -12.2425 -11.8383  -1.3430  -1.0366
    -0.4747  -0.1678   0.3588   0.9931   4.2077   5.9424   6.9997   7.1210
     7.4811   8.8001  10.1412  11.4730  12.2155  12.5510  13.3740  13.9831
    14.7828  15.0891

          k = 0.1250 0.3627 0.0000 (  6256 PWs)   bands (ev):

   -44.7106 -22.8978 -22.8555 -22.6617 -12.1418 -11.7397  -1.4287  -1.1174
    -0.8820  -0.2723   0.2761   0.7982   4.1582   6.2090   7.1694   7.5178
     7.6481   9.2593  10.2026  11.6113  12.2359  12.4137  13.7577  13.9488
    14.2210  14.9720

          k = 0.1250 0.4352 0.0000 (  6261 PWs)   bands (ev):

   -44.7051 -22.9086 -22.8807 -22.6820 -12.0655 -11.6416  -1.7001  -1.2509
    -0.9719  -0.3232   0.2078   0.6316   4.1520   6.6050   7.2962   7.6637
     7.9392   9.7350  10.0829  11.6179  12.1593  12.3273  13.2419  13.8242
    14.5725  14.8869

          k = 0.1250 0.5077 0.0000 (  6266 PWs)   bands (ev):

   -44.7015 -22.9432 -22.8697 -22.6956 -12.0188 -11.5685  -1.8878  -1.4691
    -0.8999  -0.3429   0.1616   0.5196   4.1754   7.0407   7.3878   7.7146
     8.0252   9.8680  10.2805  11.6016  12.0787  12.2581  12.7136  13.5954
    14.5097  14.8017

          k = 0.1250 0.5803 0.0000 (  6248 PWs)   bands (ev):

   -44.7002 -22.9553 -22.8658 -22.7003 -12.0032 -11.5415  -1.9544  -1.5446
    -0.8760  -0.3471   0.1450   0.4802   4.1901   7.2457   7.4902   7.7195
     7.9417   9.7844  10.5624  11.6034  12.0245  12.3206  12.3621  13.5136
    14.4628  14.6589

          k = 0.1250 0.0000 0.0000 (  6317 PWs)   bands (ev):

   -44.7340 -22.9681 -22.6199 -22.5782 -12.5466 -12.0275  -1.8530  -0.1262
     0.1950   0.3467   1.1162   1.4761   4.3579   5.9201   6.2500   6.7610
     6.9972   7.4603   8.8916  10.2554  11.6736  12.9072  14.1522  14.3773
    14.7340  14.9541

          k = 0.1875 0.1088 0.0000 (  6289 PWs)   bands (ev):

   -44.7269 -22.9467 -22.7006 -22.5962 -12.4127 -11.9575  -1.6272  -0.5606
    -0.0456   0.2528   0.5529   1.3287   4.2718   5.9108   6.4782   6.7935
     7.2568   8.0848   9.5274  10.9804  11.9890  12.3730  13.7028  14.4963
    14.8427  15.3168

          k = 0.1875 0.1813 0.0000 (  6278 PWs)   bands (ev):

   -44.7227 -22.9341 -22.7438 -22.6106 -12.3372 -11.9102  -1.5015  -0.7877
    -0.2326   0.1071   0.4209   1.2160   4.2184   5.9325   6.7023   6.8694
     7.3741   8.3936   9.8398  11.2363  12.0941  12.3254  13.5709  14.2313
    15.1088  15.2868

          k = 0.1875 0.2539 0.0000 (  6269 PWs)   bands (ev):

   -44.7172 -22.9175 -22.7938 -22.6352 -12.2436 -11.8398  -1.3439  -1.0409
    -0.4798  -0.1606   0.3610   1.0063   4.2010   5.9443   6.9999   7.1256
     7.4856   8.8000  10.1381  11.4700  12.2113  12.5550  13.3636  13.9704
    14.7885  15.0820

          k = 0.1875 0.3264 0.0000 (  6268 PWs)   bands (ev):

   -44.7113 -22.8996 -22.8429 -22.6663 -12.1507 -11.7501  -1.3252  -1.1459
    -0.7974  -0.3473   0.2768   0.7453   4.2302   6.0528   7.1868   7.5071
     7.6683   9.2657  10.2623  11.6714  12.4585  12.6280  13.4678  13.8141
    13.8842  15.0227

          k = 0.1875 0.3989 0.0000 (  6260 PWs)   bands (ev):

   -44.7058 -22.8868 -22.8812 -22.6977 -12.0734 -11.6535  -1.5332  -1.1264
    -1.0072  -0.4374   0.1688   0.4941   4.3020   6.3009   7.2872   7.6957
     7.9995   9.7936  10.2159  11.8242  12.3970  12.5285  13.2886  13.6826
    14.2483  14.8213

          k = 0.1875 0.4715 0.0000 (  6258 PWs)   bands (ev):

   -44.7016 -22.9158 -22.8700 -22.7231 -12.0194 -11.5707  -1.6915  -1.3759
    -0.9102  -0.4724   0.0687   0.3007   4.3948   6.6689   7.3050   7.8573
     8.0834  10.0832  10.4228  11.8961  12.0302  12.4728  13.0446  13.7869
    14.5194  14.7755

          k = 0.1875 0.5440 0.0000 (  6250 PWs)   bands (ev):

   -44.6993 -22.9316 -22.8631 -22.7373 -11.9918 -11.5229  -1.7749  -1.5115
    -0.8620  -0.4804   0.0107   0.1943   4.4629   7.0427   7.3130   7.8936
     7.9546   9.9647  11.0117  11.7905  12.0710  12.4355  12.6170  13.6965
    14.5434  14.7429

          k = 0.1875-0.0363 0.0000 (  6298 PWs)   bands (ev):

   -44.7292 -22.9535 -22.6738 -22.5918 -12.4547 -11.9811  -1.6958  -0.4076
     0.0369   0.2727   0.7083   1.3535   4.3222   5.8464   6.4281   6.7857
     7.1693   7.9183   9.3381  10.8022  11.9607  12.4845  13.7728  14.3754
    14.8314  15.2838

          k = 0.2500 0.1451 0.0000 (  6281 PWs)   bands (ev):

   -44.7201 -22.9259 -22.7780 -22.6129 -12.2899 -11.8773  -1.4403  -0.9608
    -0.4303   0.1528   0.3050   1.2108   4.1260   6.1110   6.7849   6.9060
     7.4633   8.5505   9.9590  11.3321  11.9457  12.2513  13.9198  14.2061
    15.1883  15.3210

          k = 0.2500 0.2176 0.0000 (  6264 PWs)   bands (ev):

   -44.7159 -22.9132 -22.8191 -22.6285 -12.2203 -11.8200  -1.3776  -1.1207
    -0.6607  -0.0284   0.3032   1.0848   4.0869   6.1872   6.9905   7.1146
     7.5493   8.8411  10.1045  11.4464  12.0038  12.2759  13.9215  14.1728
    14.8555  15.1666

          k = 0.2500 0.2901 0.0000 (  6259 PWs)   bands (ev):

   -44.7109 -22.8984 -22.8572 -22.6573 -12.1442 -11.7431  -1.4338  -1.1199
    -0.8868  -0.2611   0.2795   0.8205   4.1470   6.2109   7.1726   7.5245
     7.6540   9.2604  10.1963  11.6061  12.2447  12.4142  13.7357  13.9575
    14.1969  14.9497

          k = 0.2500 0.3627 0.0000 (  6261 PWs)   bands (ev):

   -44.7060 -22.8875 -22.8817 -22.6953 -12.0747 -11.6554  -1.5362  -1.1272
    -1.0085  -0.4318   0.1718   0.5027   4.2968   6.3008   7.2903   7.6976
     8.0028   9.7939  10.2119  11.8224  12.4001  12.5408  13.3094  13.6547
    14.2285  14.8038

          k = 0.2500 0.4352 0.0000 (  6252 PWs)   bands (ev):

   -44.7017 -22.9023 -22.8703 -22.7357 -12.0205 -11.5729  -1.5918  -1.3261
    -0.9211  -0.5283  -0.0420   0.2731   4.4973   6.4945   7.2614   7.9449
     8.1119  10.1799  10.4692  11.8436  12.0864  12.7157  13.3579  13.8115
    14.4421  14.5747

          k = 0.2500 0.5077 0.0000 (  6256 PWs)   bands (ev):

   -44.6989 -22.9071 -22.8618 -22.7685 -11.9863 -11.5140  -1.6066  -1.4579
    -0.8596  -0.5905  -0.2492   0.1550   4.6799   6.7730   7.2054   7.9077
     8.1517  10.1699  11.0519  11.6410  12.2631  12.7930  13.1883  13.9184
    14.4249  14.6642

          k = 0.2500 0.5803 0.0000 (  6270 PWs)   bands (ev):

   -44.6980 -22.9071 -22.8589 -22.7817 -11.9746 -11.4926  -1.6139  -1.4925
    -0.8398  -0.6227  -0.3208   0.1152   4.7557   6.9658   7.1836   7.7077
     8.2273  10.1527  11.1363  11.9552  12.3807  12.7855  12.8378  13.7984
    14.6402  14.7074

          k = 0.2500-0.0725 0.0000 (  6282 PWs)   bands (ev):

   -44.7229 -22.9343 -22.7436 -22.6093 -12.3386 -11.9118  -1.5030  -0.7844
    -0.2295   0.1100   0.4216   1.2132   4.2202   5.9250   6.7113   6.8853
     7.3658   8.3928   9.8323  11.2342  12.0991  12.3309  13.5769  14.2450
    15.0983  15.2831

          k = 0.2500 0.0000 0.0000 (  6275 PWs)   bands (ev):

   -44.7238 -22.9373 -22.7293 -22.6103 -12.3561 -11.9234  -1.5263  -0.7020
    -0.1487   0.0687   0.4728   1.1925   4.2719   5.8264   6.7139   6.8911
     7.3200   8.3455   9.7820  11.1956  12.2511  12.3883  13.3314  14.1860
    15.0492  15.1792

          k = 0.3125 0.1813 0.0000 (  6264 PWs)   bands (ev):

   -44.7132 -22.9051 -22.8540 -22.6294 -12.1777 -11.7796  -1.4926  -1.1389
    -0.8650   0.0431   0.2089   1.1109   3.9874   6.4682   7.0487   7.1742
     7.6334   8.9692  10.0821  11.3895  11.8828  12.2338  13.8855  14.4589
    14.8551  15.1677

          k = 0.3125 0.2539 0.0000 (  6249 PWs)   bands (ev):

   -44.7095 -22.8949 -22.8864 -22.6452 -12.1236 -11.7191  -1.6282  -1.1378
    -1.0039  -0.1134   0.2291   0.9724   3.9950   6.5720   7.1455   7.5276
     7.6816   9.2537  10.0794  11.4128  11.9703  12.2714  13.6725  14.2804
    14.6107  14.9481

          k = 0.3125 0.3264 0.0000 (  6259 PWs)   bands (ev):

   -44.7056 -22.9101 -22.8816 -22.6762 -12.0691 -11.6470  -1.7060  -1.2516
    -0.9746  -0.3076   0.2091   0.6590   4.1390   6.6031   7.3042   7.6693
     7.9474   9.7386  10.0691  11.6229  12.1653  12.3266  13.2487  13.8052
    14.5490  14.8568

          k = 0.3125 0.3989 0.0000 (  6251 PWs)   bands (ev):

   -44.7019 -22.9169 -22.8706 -22.7190 -12.0220 -11.5747  -1.6955  -1.3748
    -0.9116  -0.4620   0.0754   0.3103   4.3873   6.6644   7.3094   7.8640
     8.0891  10.0679  10.4289  11.9005  12.0403  12.4861  13.0441  13.7723
    14.4980  14.7565

          k = 0.3125 0.4715 0.0000 (  6249 PWs)   bands (ev):

   -44.6991 -22.9077 -22.8621 -22.7664 -11.9876 -11.5160  -1.6074  -1.4569
    -0.8603  -0.5857  -0.2428   0.1542   4.6778   6.7684   7.2063   7.9101
     8.1574  10.1599  11.0600  11.6452  12.2639  12.8040  13.1721  13.9333
    14.4177  14.6602

          k = 0.3125 0.5440 0.0000 (  6258 PWs)   bands (ev):

   -44.6976 -22.8893 -22.8575 -22.8056 -11.9694 -11.4831  -1.5783  -1.3889
    -0.8349  -0.7543  -0.4306   0.0930   4.8949   6.8850   7.1293   7.6401
     8.3491  10.2992  10.9097  12.2638  12.4672  13.0227  13.1919  13.4927
    14.5672  14.7757

          k = 0.3125-0.1088 0.0000 (  6276 PWs)   bands (ev):

   -44.7160 -22.9135 -22.8182 -22.6280 -12.2217 -11.8218  -1.3770  -1.1174
    -0.6550  -0.0245   0.2995   1.0784   4.0918   6.1849   7.0013   7.1148
     7.5433   8.8399  10.1009  11.4492  12.0065  12.2792  13.9331  14.1897
    14.8344  15.1657

          k = 0.3125-0.0363 0.0000 (  6274 PWs)   bands (ev):

   -44.7175 -22.9181 -22.7928 -22.6333 -12.2463 -11.8432  -1.3463  -1.0338
    -0.4714  -0.1558   0.3597   1.0008   4.2058   5.9390   7.0232   7.1301
     7.4736   8.7977  10.1289  11.4705  12.2245  12.5610  13.3775  13.9887
    14.7538  15.0730

          k = 0.3750 0.2176 0.0000 (  6245 PWs)   bands (ev):

   -44.7074 -22.9179 -22.8869 -22.6434 -12.0932 -11.6801  -1.8002  -1.2679
    -0.9929  -0.0543   0.1693   1.0358   3.9079   6.8708   7.2029   7.5878
     7.7562   9.3188  10.0030  11.2494  11.9009  12.2227  13.3954  14.4125
    14.5832  14.7669

          k = 0.3750 0.2901 0.0000 (  6254 PWs)   bands (ev):

   -44.7047 -22.9389 -22.8789 -22.6580 -12.0577 -11.6293  -1.8992  -1.3874
    -0.9489  -0.1679   0.1806   0.8905   3.9620   6.9854   7.2872   7.7348
     7.8913   9.5921   9.9718  11.3075  11.9603  12.2306  13.0794  13.9431
    14.4787  14.7843

          k = 0.3750 0.3627 0.0000 (  6254 PWs)   bands (ev):

   -44.7020 -22.9442 -22.8708 -22.6891 -12.0235 -11.5758  -1.8926  -1.4660
    -0.9019  -0.3228   0.1586   0.5484   4.1627   7.0357   7.3943   7.7246
     8.0328   9.8517  10.2807  11.6240  12.0764  12.2478  12.7058  13.5982
    14.4867  14.7930

          k = 0.3750 0.4352 0.0000 (  6248 PWs)   bands (ev):

   -44.6998 -22.9324 -22.8640 -22.7324 -11.9954 -11.5286  -1.7773  -1.5071
    -0.8634  -0.4665   0.0210   0.1982   4.4565   7.0343   7.3138   7.8997
     7.9676   9.9461  11.0175  11.8039  12.0936  12.4313  12.5960  13.7022
    14.5249  14.7464

          k = 0.3750 0.5077 0.0000 (  6255 PWs)   bands (ev):

   -44.6982 -22.9074 -22.8594 -22.7788 -11.9770 -11.4964  -1.6113  -1.4888
    -0.8408  -0.6161  -0.3124   0.1109   4.7561   6.9590   7.1829   7.7039
     8.2401  10.1374  11.1531  11.9469  12.3876  12.7884  12.8302  13.8311
    14.6314  14.7111

          k = 0.3750 0.5803 0.0000 (  6256 PWs)   bands (ev):

   -44.6977 -22.8888 -22.8578 -22.8049 -11.9705 -11.4849  -1.5750  -1.3841
    -0.8359  -0.7543  -0.4288   0.0901   4.8980   6.8840   7.1289   7.6310
     8.3559  10.2920  10.9180  12.2371  12.4752  13.0330  13.2095  13.5027
    14.5450  14.7888

          k = 0.3750-0.1451 0.0000 (  6249 PWs)   bands (ev):

   -44.7097 -22.8950 -22.8854 -22.6451 -12.1248 -11.7207  -1.6234  -1.1355
    -1.0015  -0.1089   0.2235   0.9654   4.0007   6.5760   7.1531   7.5156
     7.6796   9.2517  10.0781  11.4174  11.9705  12.2723  13.6779  14.2608
    14.6130  14.9733

          k = 0.3750-0.0725 0.0000 (  6260 PWs)   bands (ev):

   -44.7112 -22.8989 -22.8552 -22.6566 -12.1466 -11.7465  -1.4252  -1.1203
    -0.8763  -0.2570   0.2747   0.8096   4.1562   6.2104   7.1901   7.5152
     7.6452   9.2565  10.1936  11.6140  12.2488  12.4177  13.7538  13.9342
    14.2237  14.9511

          k = 0.3750 0.0000 0.0000 (  6247 PWs)   bands (ev):

   -44.7117 -22.9005 -22.8413 -22.6637 -12.1545 -11.7553  -1.3159  -1.1484
    -0.7856  -0.3404   0.2739   0.7404   4.2368   6.0508   7.2114   7.4983
     7.6605   9.2611  10.2569  11.6764  12.4692  12.6453  13.4754  13.8090
    13.8825  15.0117

          k = 0.4375 0.2539 0.0000 (  6244 PWs)   bands (ev):

   -44.7035 -22.9597 -22.8751 -22.6527 -12.0422 -11.6046  -2.0261  -1.4860
    -0.9258  -0.1205   0.1547   0.9890   3.8836   7.1003   7.4383   7.8051
     7.9503   9.5274   9.9382  11.1356  11.8662  12.2036  12.8666  14.0792
    14.2683  14.5058

          k = 0.4375 0.3264 0.0000 (  6250 PWs)   bands (ev):

   -44.7021 -22.9662 -22.8709 -22.6649 -12.0247 -11.5763  -2.0493  -1.5366
    -0.9010  -0.1950   0.1566   0.8468   3.9624   7.1927   7.5026   7.7711
     8.0212   9.6517  10.0714  11.2513  11.8787  12.2323  12.6713  13.6657
    14.3839  14.4948

          k = 0.4375 0.3989 0.0000 (  6253 PWs)   bands (ev):

   -44.7008 -22.9557 -22.8671 -22.6937 -12.0086 -11.5500  -1.9568  -1.5386
    -0.8779  -0.3239   0.1386   0.5070   4.1795   7.2492   7.4898   7.7351
     7.9387   9.7624  10.5606  11.6367  12.0173  12.2999  12.3602  13.5178
    14.4418  14.6704

          k = 0.4375 0.4715 0.0000 (  6249 PWs)   bands (ev):

   -44.6998 -22.9315 -22.8641 -22.7325 -11.9962 -11.5298  -1.7732  -1.5038
    -0.8637  -0.4653   0.0199   0.1933   4.4603   7.0412   7.3143   7.8828
     7.9711   9.9456  11.0065  11.8009  12.1068  12.4238  12.6134  13.6970
    14.5275  14.7547

          k = 0.4375 0.5440 0.0000 (  6241 PWs)   bands (ev):

   -44.6993 -22.9060 -22.8625 -22.7661 -11.9894 -11.5189  -1.5990  -1.4488
    -0.8612  -0.5839  -0.2460   0.1481   4.6853   6.7713   7.2059   7.8851
     8.1689  10.1570  11.0535  11.6298  12.2843  12.8015  13.2086  13.9218
    14.4191  14.6607

          k = 0.4375-0.1813 0.0000 (  6255 PWs)   bands (ev):

   -44.7048 -22.9380 -22.8791 -22.6580 -12.0584 -11.6304  -1.8954  -1.3842
    -0.9492  -0.1642   0.1759   0.8853   3.9665   6.9926   7.2936   7.7356
     7.8732   9.5863   9.9721  11.3103  11.9631  12.2315  13.0816  13.9251
    14.4858  14.8053

          k = 0.4375-0.1088 0.0000 (  6256 PWs)   bands (ev):

   -44.7058 -22.9082 -22.8820 -22.6762 -12.0710 -11.6498  -1.6971  -1.2437
    -0.9750  -0.3036   0.2036   0.6480   4.1482   6.6091   7.3095   7.6742
     7.9227   9.7321  10.0678  11.6335  12.1655  12.3251  13.2471  13.8058
    14.5589  14.8822

          k = 0.4375-0.0363 0.0000 (  6255 PWs)   bands (ev):

   -44.7063 -22.8862 -22.8812 -22.6944 -12.0778 -11.6601  -1.5234  -1.1153
    -1.0096  -0.4269   0.1664   0.4916   4.3077   6.3012   7.2979   7.7050
     7.9787   9.7863  10.2101  11.8366  12.3947  12.5470  13.3075  13.6765
    14.2486  14.8059

          k =-0.5000-0.2901 0.0000 (  6254 PWs)   bands (ev):

   -44.7022 -22.9743 -22.8710 -22.6560 -12.0252 -11.5765  -2.1067  -1.5620
    -0.9018  -0.1439   0.1514   0.9731   3.8815   7.1466   7.5829   7.8306
     8.0841   9.5600   9.9603  11.1009  11.7744  12.2344  12.6808  13.8818
    14.1629  14.3766

          k =-0.5000-0.2176 0.0000 (  6241 PWs)   bands (ev):

   -44.7021 -22.9659 -22.8710 -22.6650 -12.0250 -11.5767  -2.0479  -1.5354
    -0.9011  -0.1935   0.1548   0.8449   3.9640   7.1936   7.5116   7.7717
     8.0093   9.6460  10.0728  11.2521  11.8826  12.2329  12.6713  13.6594
    14.3864  14.5017

          k =-0.5000-0.1451 0.0000 (  6254 PWs)   bands (ev):

   -44.7022 -22.9430 -22.8710 -22.6892 -12.0245 -11.5774  -1.8873  -1.4616
    -0.9023  -0.3200   0.1550   0.5416   4.1683   7.0457   7.3961   7.7319
     8.0066   9.8467  10.2745  11.6309  12.0822  12.2447  12.7126  13.5911
    14.4908  14.8099

          k =-0.5000-0.0725 0.0000 (  6252 PWs)   bands (ev):

   -44.7022 -22.9147 -22.8711 -22.7189 -12.0241 -11.5780  -1.6850  -1.3656
    -0.9125  -0.4588   0.0710   0.2994   4.3970   6.6699   7.3088   7.8766
     8.0584  10.0677  10.4145  11.9100  12.0460  12.4786  13.0661  13.7709
    14.5077  14.7754

          k =-0.5000 0.0000 0.0000 (  6268 PWs)   bands (ev):

   -44.7022 -22.9001 -22.8710 -22.7342 -12.0239 -11.5782  -1.5795  -1.3141
    -0.9232  -0.5219  -0.0459   0.2645   4.5070   6.4945   7.2627   7.9601
     8.0832  10.1747  10.4565  11.8443  12.1031  12.7251  13.3904  13.8060
    14.4407  14.5760

     highest occupied, lowest unoccupied level (ev):     4.8980    5.8264

!    total energy              =    -591.24417205 Ry
     total all-electron energy =    -13333.877448 Ry
     estimated scf accuracy    <          3.5E-12 Ry

     The total energy is the sum of the following terms:
     one-electron contribution =    -204.87636442 Ry
     hartree contribution      =     110.39739300 Ry
     xc contribution           =     -37.60976428 Ry
     ewald contribution        =     -28.03841455 Ry
     one-center paw contrib.   =    -431.11702180 Ry

     convergence has been achieved in   6 iterations

     negative rho (up, down):  9.838E-08 0.000E+00

     Forces acting on atoms (cartesian axes, Ry/au):

     atom    1 type  1   force =     0.00000000   -0.00021589    0.00001378
     atom    2 type  2   force =     0.00000000    0.00008749    0.00022990
     atom    3 type  3   force =     0.00000000    0.00012839   -0.00024368
     The non-local contrib.  to forces
     atom    1 type  1   force =     0.00000000   -0.00067693   -0.00063778
     atom    2 type  2   force =     0.00000000   -0.00042364   -0.21307139
     atom    3 type  3   force =     0.00000000   -0.00040714    0.20933745
     The ionic contribution  to forces
     atom    1 type  1   force =    -0.00000001   -0.03651099   -0.33711175
     atom    2 type  2   force =     0.00000000    0.02081704   21.27411739
     atom    3 type  3   force =     0.00000000    0.01569395  -20.93700564
     The local contribution  to forces
     atom    1 type  1   force =    -0.00000000    0.03693806    0.33748177
     atom    2 type  2   force =     0.00000003   -0.02023917  -21.06873295
     atom    3 type  3   force =    -0.00000000   -0.01514374   20.73097596
     The core correction contribution to forces
     atom    1 type  1   force =    -0.00000000    0.00001579    0.00035709
     atom    2 type  2   force =    -0.00000000   -0.00008483    0.00798692
     atom    3 type  3   force =    -0.00000000   -0.00003245   -0.00348512
     The Hubbard contrib.    to forces
     atom    1 type  1   force =     0.00000000    0.00000000    0.00000000
     atom    2 type  2   force =     0.00000000    0.00000000    0.00000000
     atom    3 type  3   force =     0.00000000    0.00000000    0.00000000
     The SCF correction term to forces
     atom    1 type  1   force =    -0.00000000    0.00000065   -0.00000693
     atom    2 type  2   force =     0.00000000    0.00000056   -0.00000145
     atom    3 type  3   force =     0.00000000    0.00000024    0.00000230

     Total force =     0.000428     Total SCF correction =     0.000007
     Energy error            =      4.3E-07 Ry
     Gradient error          =      2.4E-04 Ry/Bohr

     number of scf cycles    =   5
     number of bfgs steps    =   4

     energy             old  =    -591.2441716201 Ry
     energy             new  =    -591.2441720453 Ry

     CASE: energy            _new < energy            _old

     new trust radius        =       0.0007956055 bohr
     new conv_thr            =            1.0E-10 Ry


ATOMIC_POSITIONS (angstrom)
Zr            0.0000000000        0.0058415941       10.2765393807
Cl           -0.0000000017        2.0113329637       11.9692097645
Br           -0.0000000017        2.0116822868        8.4173996292



     Writing config-only to output data dir ./tmp/ZrClBr.save/
     NEW-OLD atomic charge density approx. for the potential

     Check: negative core charge=   -0.000004

     negative rho (up, down):  9.724E-08 0.000E+00

     total cpu time spent up to now is       58.6 secs

     Self-consistent Calculation

     iteration #  1     ecut=    65.00 Ry     beta= 0.70
     Davidson diagonalization with overlap
     ethr =  1.00E-06,  avg # of iterations =  2.0

     Threshold (ethr) on eigenvalues was too large:
     Diagonalizing with lowered threshold

     Davidson diagonalization with overlap
     ethr =  3.96E-10,  avg # of iterations =  4.0

     negative rho (up, down):  9.703E-08 0.000E+00

     total cpu time spent up to now is       61.9 secs

     total energy              =    -591.24417225 Ry
     estimated scf accuracy    <       0.00000012 Ry

     iteration #  2     ecut=    65.00 Ry     beta= 0.70
     Davidson diagonalization with overlap
     ethr =  4.44E-10,  avg # of iterations =  2.0

     negative rho (up, down):  9.744E-08 0.000E+00

     total cpu time spent up to now is       63.4 secs

     total energy              =    -591.24417224 Ry
     estimated scf accuracy    <       0.00000046 Ry

     iteration #  3     ecut=    65.00 Ry     beta= 0.70
     Davidson diagonalization with overlap
     ethr =  4.44E-10,  avg # of iterations =  2.0

     negative rho (up, down):  9.748E-08 0.000E+00

     total cpu time spent up to now is       64.9 secs

     total energy              =    -591.24417231 Ry
     estimated scf accuracy    <          1.5E-09 Ry

     iteration #  4     ecut=    65.00 Ry     beta= 0.70
     Davidson diagonalization with overlap
     ethr =  5.68E-12,  avg # of iterations =  2.0

     negative rho (up, down):  9.749E-08 0.000E+00

     total cpu time spent up to now is       66.5 secs

     total energy              =    -591.24417231 Ry
     estimated scf accuracy    <          1.2E-09 Ry

     iteration #  5     ecut=    65.00 Ry     beta= 0.70
     Davidson diagonalization with overlap
     ethr =  4.50E-12,  avg # of iterations =  1.2

     negative rho (up, down):  9.750E-08 0.000E+00

     total cpu time spent up to now is       67.8 secs

     End of self-consistent calculation

          k = 0.0000 0.0000 0.0000 (  6307 PWs)   bands (ev):

   -44.7389 -22.9808 -22.5753 -22.5685 -12.6226 -12.0623  -1.9844   0.0654
     0.3651   0.3888   1.5557   1.5860   4.3500   6.0818   6.1343   6.8160
     6.8380   6.9753   8.5148   9.6342  11.4644  13.7643  13.8376  14.0705
    14.8172  15.3864

          k = 0.0000 0.0725 0.0000 (  6317 PWs)   bands (ev):

   -44.7375 -22.9767 -22.5847 -22.5788 -12.5959 -12.0502  -1.9385   0.0102
     0.3194   0.3514   1.4200   1.5190   4.3578   6.0622   6.1178   6.7997
     6.8760   7.1564   8.6482   9.8709  11.5338  13.3444  13.8941  14.4739
    14.8370  15.0087

          k = 0.0000 0.1451 0.0000 (  6313 PWs)   bands (ev):

   -44.7336 -22.9648 -22.6303 -22.5886 -12.5204 -12.0142  -1.8094  -0.1943
     0.1708   0.3080   1.0100   1.4230   4.3548   5.9348   6.2336   6.7585
     7.0353   7.5898   9.0210  10.4271  11.7431  12.7752  14.2049  14.2637
    14.7032  15.0746

          k = 0.0000 0.2176 0.0000 (  6299 PWs)   bands (ev):

   -44.7277 -22.9470 -22.6978 -22.6032 -12.4098 -11.9547  -1.6238  -0.5505
    -0.0381   0.2321   0.5633   1.2998   4.2828   5.9232   6.4449   6.7940
     7.2447   8.0864   9.5404  10.9892  11.9962  12.3836  13.7185  14.5120
    14.8011  15.3491

          k = 0.0000 0.2901 0.0000 (  6283 PWs)   bands (ev):

   -44.7207 -22.9260 -22.7761 -22.6204 -12.2857 -11.8725  -1.4360  -0.9524
    -0.4220   0.1290   0.3101   1.1786   4.1404   6.1153   6.7589   6.9024
     7.4520   8.5514   9.9703  11.3404  11.9502  12.2610  13.9362  14.2320
    15.2270  15.2819

          k = 0.0000 0.3627 0.0000 (  6252 PWs)   bands (ev):

   -44.7137 -22.9049 -22.8529 -22.6375 -12.1724 -11.7726  -1.4869  -1.1338
    -0.8602   0.0161   0.2143   1.0759   4.0026   6.4684   7.0419   7.1581
     7.6217   8.9682  10.0929  11.3940  11.8823  12.2419  13.9211  14.4868
    14.8920  15.1238

          k = 0.0000 0.4352 0.0000 (  6242 PWs)   bands (ev):

   -44.7077 -22.9176 -22.8864 -22.6519 -12.0869 -11.6711  -1.7947  -1.2687
    -0.9882  -0.0841   0.1764   0.9987   3.9236   6.8666   7.1944   7.5825
     7.7442   9.3152  10.0218  11.2396  11.9067  12.2321  13.4303  14.4460
    14.5323  14.7972

          k = 0.0000 0.5077 0.0000 (  6244 PWs)   bands (ev):

   -44.7038 -22.9598 -22.8746 -22.6615 -12.0352 -11.5942  -2.0211  -1.4898
    -0.9222  -0.1521   0.1634   0.9506   3.8999   7.0894   7.4299   7.7912
     7.9568   9.5312   9.9584  11.1138  11.8794  12.2251  12.8921  14.0203
    14.2876  14.5301

          k = 0.0000-0.5803 0.0000 (  6262 PWs)   bands (ev):

   -44.7024 -22.9746 -22.8703 -22.6649 -12.0179 -11.5656  -2.1019  -1.5669
    -0.8987  -0.1761   0.1606   0.9342   3.8982   7.1339   7.5725   7.8158
     8.0960   9.5771   9.9718  11.0747  11.7917  12.2636  12.7017  13.8186
    14.1718  14.4001

          k = 0.0625 0.0363 0.0000 (  6315 PWs)   bands (ev):

   -44.7376 -22.9767 -22.5901 -22.5731 -12.5962 -12.0505  -1.9389   0.0076
     0.3037   0.3707   1.3980   1.5437   4.3564   6.0234   6.1599   6.7860
     6.8924   7.1556   8.6455   9.8676  11.5331  13.3183  13.9472  14.4534
    14.8235  14.9735

          k = 0.0625 0.1088 0.0000 (  6305 PWs)   bands (ev):

   -44.7349 -22.9687 -22.6171 -22.5836 -12.5451 -12.0265  -1.8512  -0.1206
     0.2005   0.3354   1.1280   1.4599   4.3598   5.9452   6.2151   6.7606
     6.9905   7.4614   8.8988  10.2623  11.6758  12.9194  14.1053  14.3971
    14.7589  14.9643

          k = 0.0625 0.1813 0.0000 (  6302 PWs)   bands (ev):

   -44.7300 -22.9539 -22.6713 -22.5982 -12.4520 -11.9787  -1.6926  -0.4001
     0.0393   0.2601   0.7149   1.3341   4.3284   5.8641   6.3932   6.7769
     7.1656   7.9198   9.3521  10.8120  11.9649  12.4884  13.7850  14.3479
    14.8355  15.3025

          k = 0.0625 0.2539 0.0000 (  6270 PWs)   bands (ev):

   -44.7235 -22.9345 -22.7420 -22.6162 -12.3346 -11.9075  -1.4987  -0.7789
    -0.2246   0.0943   0.4218   1.1914   4.2294   5.9321   6.6852   6.8718
     7.3629   8.3943   9.8473  11.2421  12.0991  12.3362  13.5815  14.2476
    15.0931  15.2960

          k = 0.0625 0.3264 0.0000 (  6266 PWs)   bands (ev):

   -44.7165 -22.9134 -22.8176 -22.6354 -12.2165 -11.8154  -1.3730  -1.1132
    -0.6525  -0.0437   0.3001   1.0538   4.1015   6.1848   6.9861   7.1018
     7.5380   8.8407  10.1114  11.4548  12.0038  12.2823  13.9469  14.2003
    14.8632  15.1656

          k = 0.0625 0.3989 0.0000 (  6247 PWs)   bands (ev):

   -44.7101 -22.8947 -22.8854 -22.6529 -12.1187 -11.7122  -1.6210  -1.1351
    -0.9986  -0.1327   0.2278   0.9375   4.0109   6.5711   7.1390   7.5151
     7.6710   9.2505  10.0915  11.4124  11.9685  12.2775  13.7057  14.2792
    14.6225  14.9690

          k = 0.0625 0.4715 0.0000 (  6262 PWs)   bands (ev):

   -44.7051 -22.9385 -22.8785 -22.6663 -12.0516 -11.6205  -1.8927  -1.3886
    -0.9451  -0.1920   0.1836   0.8540   3.9782   6.9838   7.2801   7.7230
     7.8840   9.5870   9.9927  11.2912  11.9683  12.2436  13.1023  13.9165
    14.5025  14.8033

          k = 0.0625 0.5440 0.0000 (  6254 PWs)   bands (ev):

   -44.7024 -22.9663 -22.8704 -22.6735 -12.0180 -11.5662  -2.0443  -1.5408
    -0.8979  -0.2229   0.1635   0.8107   3.9778   7.1816   7.4997   7.7582
     8.0226   9.6665  10.0802  11.2246  11.8947  12.2582  12.6844  13.6338
    14.3979  14.4999

          k = 0.1250 0.0725 0.0000 (  6312 PWs)   bands (ev):

   -44.7337 -22.9650 -22.6349 -22.5829 -12.5215 -12.0153  -1.8108  -0.2026
     0.1629   0.3276   0.9931   1.4498   4.3488   5.9088   6.2709   6.7520
     7.0489   7.5879   9.0122  10.4189  11.7394  12.7615  14.1791  14.3113
    14.6916  15.0491

          k = 0.1250 0.1451 0.0000 (  6311 PWs)   bands (ev):

   -44.7301 -22.9541 -22.6734 -22.5952 -12.4527 -11.9795  -1.6936  -0.4057
     0.0370   0.2696   0.7076   1.3498   4.3231   5.8587   6.4070   6.7729
     7.1734   7.9188   9.3467  10.8082  11.9610  12.4820  13.7754  14.3497
    14.8485  15.2898

          k = 0.1250 0.2176 0.0000 (  6267 PWs)   bands (ev):

   -44.7246 -22.9376 -22.7291 -22.6149 -12.3528 -11.9200  -1.5226  -0.7021
    -0.1494   0.0619   0.4703   1.1877   4.2735   5.8348   6.6944   6.8685
     7.3282   8.3466   9.7956  11.2018  12.2426  12.3855  13.3288  14.1730
    15.0575  15.1898

          k = 0.1250 0.2901 0.0000 (  6259 PWs)   bands (ev):

   -44.7181 -22.9181 -22.7933 -22.6386 -12.2419 -11.8379  -1.3421  -1.0358
    -0.4739  -0.1671   0.3589   0.9939   4.2072   5.9409   6.9991   7.1203
     7.4798   8.7997  10.1396  11.4738  12.2158  12.5507  13.3735  13.9825
    14.7825  15.0887

          k = 0.1250 0.3627 0.0000 (  6256 PWs)   bands (ev):

   -44.7117 -22.8987 -22.8562 -22.6626 -12.1412 -11.7392  -1.4278  -1.1167
    -0.8812  -0.2716   0.2761   0.7990   4.1578   6.2077   7.1686   7.5168
     7.6470   9.2589  10.2009  11.6118  12.2357  12.4138  13.7572  13.9483
    14.2208  14.9718

          k = 0.1250 0.4352 0.0000 (  6261 PWs)   bands (ev):

   -44.7062 -22.9093 -22.8816 -22.6829 -12.0649 -11.6410  -1.6992  -1.2503
    -0.9711  -0.3224   0.2077   0.6323   4.1516   6.6037   7.2951   7.6624
     7.9385   9.7341  10.0820  11.6179  12.1589  12.3271  13.2414  13.8240
    14.5726  14.8864

          k = 0.1250 0.5077 0.0000 (  6266 PWs)   bands (ev):

   -44.7025 -22.9439 -22.8706 -22.6964 -12.0182 -11.5679  -1.8870  -1.4685
    -0.8991  -0.3421   0.1614   0.5203   4.1750   7.0396   7.3864   7.7134
     8.0243   9.8671  10.2800  11.6012  12.0780  12.2580  12.7133  13.5950
    14.5101  14.8009

          k = 0.1250 0.5803 0.0000 (  6248 PWs)   bands (ev):

   -44.7012 -22.9560 -22.8667 -22.7012 -12.0025 -11.5409  -1.9536  -1.5441
    -0.8752  -0.3462   0.1449   0.4809   4.1896   7.2444   7.4890   7.7184
     7.9406   9.7840  10.5614  11.6029  12.0241  12.3203  12.3617  13.5131
    14.4633  14.6578

          k = 0.1250 0.0000 0.0000 (  6317 PWs)   bands (ev):

   -44.7350 -22.9689 -22.6208 -22.5790 -12.5459 -12.0273  -1.8523  -0.1257
     0.1955   0.3478   1.1171   1.4772   4.3566   5.9189   6.2490   6.7607
     6.9967   7.4600   8.8917  10.2555  11.6742  12.9067  14.1524  14.3767
    14.7328  14.9550

          k = 0.1875 0.1088 0.0000 (  6289 PWs)   bands (ev):

   -44.7279 -22.9475 -22.7015 -22.5971 -12.4120 -11.9572  -1.6264  -0.5597
    -0.0452   0.2539   0.5532   1.3298   4.2710   5.9095   6.4773   6.7931
     7.2560   8.0844   9.5268  10.9810  11.9888  12.3727  13.7027  14.4954
    14.8429  15.3172

          k = 0.1875 0.1813 0.0000 (  6278 PWs)   bands (ev):

   -44.7237 -22.9349 -22.7446 -22.6115 -12.3365 -11.9098  -1.5007  -0.7868
    -0.2320   0.1080   0.4210   1.2170   4.2177   5.9311   6.7015   6.8689
     7.3731   8.3932   9.8388  11.2370  12.0938  12.3251  13.5708  14.2307
    15.1088  15.2864

          k = 0.1875 0.2539 0.0000 (  6269 PWs)   bands (ev):

   -44.7183 -22.9184 -22.7946 -22.6361 -12.2430 -11.8393  -1.3431  -1.0401
    -0.4791  -0.1600   0.3612   1.0071   4.2005   5.9429   6.9994   7.1249
     7.4843   8.7997  10.1365  11.4708  12.2115  12.5548  13.3631  13.9697
    14.7881  15.0815

          k = 0.1875 0.3264 0.0000 (  6268 PWs)   bands (ev):

   -44.7123 -22.9005 -22.8437 -22.6672 -12.1501 -11.7496  -1.3242  -1.1453
    -0.7966  -0.3467   0.2769   0.7459   4.2299   6.0513   7.1861   7.5060
     7.6673   9.2654  10.2604  11.6721  12.4587  12.6282  13.4667  13.8137
    13.8837  15.0224

          k = 0.1875 0.3989 0.0000 (  6260 PWs)   bands (ev):

   -44.7068 -22.8876 -22.8820 -22.6985 -12.0728 -11.6529  -1.5324  -1.1256
    -1.0064  -0.4368   0.1690   0.4945   4.3018   6.2995   7.2860   7.6944
     7.9988   9.7933  10.2142  11.8248  12.3966  12.5285  13.2883  13.6822
    14.2477  14.8211

          k = 0.1875 0.4715 0.0000 (  6258 PWs)   bands (ev):

   -44.7026 -22.9165 -22.8709 -22.7239 -12.0188 -11.5701  -1.6907  -1.3751
    -0.9094  -0.4718   0.0691   0.3008   4.3945   6.6677   7.3034   7.8561
     8.0825  10.0823  10.4221  11.8960  12.0298  12.4727  13.0442  13.7867
    14.5192  14.7752

          k = 0.1875 0.5440 0.0000 (  6250 PWs)   bands (ev):

   -44.7004 -22.9324 -22.8640 -22.7381 -11.9912 -11.5223  -1.7742  -1.5108
    -0.8612  -0.4798   0.0111   0.1943   4.4625   7.0418   7.3114   7.8924
     7.9535   9.9642  11.0107  11.7901  12.0709  12.4353  12.6167  13.6960
    14.5437  14.7420

          k = 0.1875-0.0363 0.0000 (  6298 PWs)   bands (ev):

   -44.7302 -22.9543 -22.6747 -22.5926 -12.4539 -11.9808  -1.6950  -0.4067
     0.0372   0.2738   0.7088   1.3547   4.3212   5.8451   6.4272   6.7852
     7.1686   7.9180   9.3378  10.8027  11.9608  12.4842  13.7724  14.3752
    14.8305  15.2846

          k = 0.2500 0.1451 0.0000 (  6281 PWs)   bands (ev):

   -44.7211 -22.9267 -22.7788 -22.6138 -12.2892 -11.8769  -1.4395  -0.9599
    -0.4296   0.1539   0.3048   1.2118   4.1254   6.1096   6.7841   6.9053
     7.4623   8.5501   9.9577  11.3329  11.9452  12.2510  13.9200  14.2057
    15.1880  15.3209

          k = 0.2500 0.2176 0.0000 (  6264 PWs)   bands (ev):

   -44.7169 -22.9141 -22.8199 -22.6294 -12.2196 -11.8196  -1.3767  -1.1200
    -0.6600  -0.0277   0.3032   1.0858   4.0864   6.1858   6.9898   7.1139
     7.5480   8.8407  10.1029  11.4470  12.0035  12.2758  13.9212  14.1729
    14.8549  15.1663

          k = 0.2500 0.2901 0.0000 (  6259 PWs)   bands (ev):

   -44.7120 -22.8992 -22.8579 -22.6581 -12.1435 -11.7426  -1.4329  -1.1192
    -0.8861  -0.2604   0.2796   0.8212   4.1467   6.2095   7.1717   7.5235
     7.6529   9.2600  10.1945  11.6067  12.2445  12.4142  13.7352  13.9570
    14.1966  14.9494

          k = 0.2500 0.3627 0.0000 (  6261 PWs)   bands (ev):

   -44.7070 -22.8883 -22.8825 -22.6962 -12.0741 -11.6548  -1.5354  -1.1264
    -1.0077  -0.4312   0.1720   0.5031   4.2965   6.2994   7.2890   7.6963
     8.0021   9.7936  10.2102  11.8229  12.3997  12.5408  13.3090  13.6543
    14.2279  14.8036

          k = 0.2500 0.4352 0.0000 (  6252 PWs)   bands (ev):

   -44.7028 -22.9031 -22.8712 -22.7365 -12.0199 -11.5723  -1.5910  -1.3253
    -0.9203  -0.5278  -0.0415   0.2730   4.4971   6.4932   7.2598   7.9437
     8.1110  10.1791  10.4683  11.8432  12.0867  12.7158  13.3574  13.8113
    14.4415  14.5743

          k = 0.2500 0.5077 0.0000 (  6256 PWs)   bands (ev):

   -44.7000 -22.9079 -22.8627 -22.7693 -11.9857 -11.5134  -1.6058  -1.4570
    -0.8588  -0.5901  -0.2487   0.1549   4.6796   6.7721   7.2036   7.9065
     8.1504  10.1691  11.0513  11.6405  12.2636  12.7929  13.1879  13.9181
    14.4244  14.6638

          k = 0.2500 0.5803 0.0000 (  6270 PWs)   bands (ev):

   -44.6990 -22.9078 -22.8598 -22.7825 -11.9740 -11.4920  -1.6131  -1.4916
    -0.8390  -0.6222  -0.3203   0.1150   4.7554   6.9653   7.1819   7.7060
     8.2260  10.1520  11.1356  11.9549  12.3811  12.7853  12.8374  13.7980
    14.6402  14.7065

          k = 0.2500-0.0725 0.0000 (  6282 PWs)   bands (ev):

   -44.7239 -22.9352 -22.7444 -22.6102 -12.3379 -11.9115  -1.5022  -0.7835
    -0.2289   0.1109   0.4217   1.2142   4.2196   5.9236   6.7105   6.8847
     7.3648   8.3925   9.8313  11.2350  12.0988  12.3305  13.5768  14.2444
    15.0983  15.2827

          k = 0.2500 0.0000 0.0000 (  6275 PWs)   bands (ev):

   -44.7249 -22.9381 -22.7301 -22.6111 -12.3554 -11.9230  -1.5255  -0.7010
    -0.1482   0.0697   0.4730   1.1935   4.2712   5.8250   6.7131   6.8907
     7.3190   8.3452   9.7811  11.1963  12.2510  12.3881  13.3310  14.1854
    15.0489  15.1790

          k = 0.3125 0.1813 0.0000 (  6264 PWs)   bands (ev):

   -44.7143 -22.9060 -22.8548 -22.6303 -12.1771 -11.7791  -1.4916  -1.1382
    -0.8643   0.0442   0.2086   1.1119   3.9869   6.4668   7.0478   7.1736
     7.6322   8.9685  10.0807  11.3896  11.8824  12.2336  13.8853  14.4589
    14.8547  15.1673

          k = 0.3125 0.2539 0.0000 (  6249 PWs)   bands (ev):

   -44.7106 -22.8958 -22.8871 -22.6460 -12.1230 -11.7186  -1.6273  -1.1372
    -1.0032  -0.1125   0.2290   0.9733   3.9945   6.5707   7.1446   7.5270
     7.6802   9.2529  10.0782  11.4127  11.9700  12.2712  13.6721  14.2800
    14.6107  14.9477

          k = 0.3125 0.3264 0.0000 (  6259 PWs)   bands (ev):

   -44.7066 -22.9108 -22.8824 -22.6771 -12.0685 -11.6464  -1.7052  -1.2510
    -0.9738  -0.3069   0.2090   0.6597   4.1386   6.6018   7.3030   7.6680
     7.9467   9.7377  10.0682  11.6230  12.1650  12.3262  13.2481  13.8050
    14.5491  14.8564

          k = 0.3125 0.3989 0.0000 (  6251 PWs)   bands (ev):

   -44.7030 -22.9176 -22.8715 -22.7199 -12.0213 -11.5741  -1.6948  -1.3741
    -0.9108  -0.4614   0.0757   0.3105   4.3870   6.6632   7.3078   7.8629
     8.0883  10.0671  10.4282  11.9005  12.0399  12.4860  13.0437  13.7720
    14.4978  14.7561

          k = 0.3125 0.4715 0.0000 (  6249 PWs)   bands (ev):

   -44.7001 -22.9085 -22.8630 -22.7672 -11.9869 -11.5154  -1.6067  -1.4560
    -0.8595  -0.5852  -0.2423   0.1541   4.6776   6.7674   7.2046   7.9089
     8.1561  10.1591  11.0593  11.6447  12.2644  12.8039  13.1717  13.9330
    14.4172  14.6597

          k = 0.3125 0.5440 0.0000 (  6258 PWs)   bands (ev):

   -44.6986 -22.8900 -22.8584 -22.8064 -11.9688 -11.4825  -1.5773  -1.3882
    -0.8342  -0.7537  -0.4303   0.0929   4.8946   6.8848   7.1275   7.6383
     8.3477  10.2982  10.9094  12.2636  12.4676  13.0227  13.1916  13.4922
    14.5664  14.7750

          k = 0.3125-0.1088 0.0000 (  6276 PWs)   bands (ev):

   -44.7171 -22.9144 -22.8190 -22.6289 -12.2210 -11.8213  -1.3760  -1.1167
    -0.6543  -0.0238   0.2994   1.0794   4.0913   6.1835   7.0006   7.1140
     7.5421   8.8395  10.0994  11.4499  12.0061  12.2790  13.9328  14.1897
    14.8339  15.1655

          k = 0.3125-0.0363 0.0000 (  6274 PWs)   bands (ev):

   -44.7186 -22.9190 -22.7936 -22.6342 -12.2457 -11.8428  -1.3455  -1.0329
    -0.4707  -0.1551   0.3598   1.0017   4.2054   5.9376   7.0226   7.1294
     7.4723   8.7974  10.1273  11.4713  12.2247  12.5608  13.3770  13.9881
    14.7535  15.0726

          k = 0.3750 0.2176 0.0000 (  6245 PWs)   bands (ev):

   -44.7084 -22.9187 -22.8878 -22.6443 -12.0926 -11.6795  -1.7993  -1.2674
    -0.9921  -0.0532   0.1690   1.0367   3.9074   6.8696   7.2018   7.5873
     7.7548   9.3175  10.0024  11.2490  11.9005  12.2225  13.3951  14.4123
    14.5829  14.7662

          k = 0.3750 0.2901 0.0000 (  6254 PWs)   bands (ev):

   -44.7058 -22.9396 -22.8798 -22.6588 -12.0570 -11.6287  -1.8983  -1.3869
    -0.9481  -0.1669   0.1805   0.8913   3.9616   6.9843   7.2861   7.7334
     7.8907   9.5904   9.9718  11.3070  11.9599  12.2303  13.0790  13.9426
    14.4790  14.7835

          k = 0.3750 0.3627 0.0000 (  6254 PWs)   bands (ev):

   -44.7031 -22.9449 -22.8717 -22.6900 -12.0229 -11.5752  -1.8919  -1.4654
    -0.9011  -0.3220   0.1585   0.5491   4.1623   7.0346   7.3928   7.7235
     8.0319   9.8508  10.2801  11.6236  12.0757  12.2476  12.7055  13.5978
    14.4870  14.7922

          k = 0.3750 0.4352 0.0000 (  6248 PWs)   bands (ev):

   -44.7008 -22.9331 -22.8649 -22.7332 -11.9948 -11.5280  -1.7766  -1.5064
    -0.8626  -0.4659   0.0214   0.1982   4.4561   7.0334   7.3121   7.8985
     7.9665   9.9456  11.0165  11.8035  12.0936  12.4311  12.5957  13.7017
    14.5253  14.7456

          k = 0.3750 0.5077 0.0000 (  6255 PWs)   bands (ev):

   -44.6993 -22.9081 -22.8603 -22.7796 -11.9763 -11.4957  -1.6105  -1.4880
    -0.8400  -0.6155  -0.3119   0.1108   4.7558   6.9585   7.1812   7.7023
     8.2387  10.1367  11.1523  11.9467  12.3881  12.7880  12.8300  13.8306
    14.6314  14.7102

          k = 0.3750 0.5803 0.0000 (  6256 PWs)   bands (ev):

   -44.6988 -22.8895 -22.8587 -22.8057 -11.9699 -11.4843  -1.5740  -1.3834
    -0.8351  -0.7537  -0.4285   0.0900   4.8977   6.8837   7.1271   7.6292
     8.3545  10.2910  10.9177  12.2369  12.4757  13.0331  13.2092  13.5023
    14.5442  14.7881

          k = 0.3750-0.1451 0.0000 (  6249 PWs)   bands (ev):

   -44.7107 -22.8959 -22.8862 -22.6460 -12.1241 -11.7202  -1.6225  -1.1349
    -1.0007  -0.1080   0.2234   0.9663   4.0002   6.5747   7.1522   7.5150
     7.6783   9.2509  10.0769  11.4173  11.9703  12.2721  13.6775  14.2605
    14.6130  14.9730

          k = 0.3750-0.0725 0.0000 (  6260 PWs)   bands (ev):

   -44.7122 -22.8998 -22.8560 -22.6574 -12.1460 -11.7460  -1.4243  -1.1196
    -0.8756  -0.2563   0.2747   0.8104   4.1559   6.2090   7.1893   7.5142
     7.6441   9.2561  10.1918  11.6146  12.2486  12.4177  13.7533  13.9337
    14.2234  14.9508

          k = 0.3750 0.0000 0.0000 (  6247 PWs)   bands (ev):

   -44.7128 -22.9013 -22.8421 -22.6646 -12.1538 -11.7548  -1.3149  -1.1478
    -0.7848  -0.3398   0.2740   0.7410   4.2366   6.0494   7.2106   7.4972
     7.6594   9.2608  10.2549  11.6771  12.4694  12.6456  13.4744  13.8086
    13.8819  15.0114

          k = 0.4375 0.2539 0.0000 (  6244 PWs)   bands (ev):

   -44.7046 -22.9604 -22.8760 -22.6536 -12.0416 -11.6040  -2.0253  -1.4855
    -0.9250  -0.1195   0.1545   0.9899   3.8831   7.0992   7.4372   7.8036
     7.9499   9.5256   9.9384  11.1349  11.8657  12.2032  12.8662  14.0789
    14.2675  14.5058

          k = 0.4375 0.3264 0.0000 (  6250 PWs)   bands (ev):

   -44.7032 -22.9669 -22.8718 -22.6658 -12.0241 -11.5757  -2.0486  -1.5361
    -0.9002  -0.1940   0.1564   0.8476   3.9619   7.1915   7.5015   7.7696
     8.0205   9.6507  10.0709  11.2507  11.8782  12.2320  12.6708  13.6651
    14.3841  14.4941

          k = 0.4375 0.3989 0.0000 (  6253 PWs)   bands (ev):

   -44.7019 -22.9564 -22.8680 -22.6946 -12.0080 -11.5494  -1.9560  -1.5381
    -0.8771  -0.3231   0.1385   0.5077   4.1791   7.2479   7.4886   7.7340
     7.9376   9.7619  10.5596  11.6362  12.0169  12.2998  12.3597  13.5172
    14.4424  14.6694

          k = 0.4375 0.4715 0.0000 (  6249 PWs)   bands (ev):

   -44.7009 -22.9323 -22.8650 -22.7333 -11.9955 -11.5292  -1.7725  -1.5031
    -0.8629  -0.4647   0.0203   0.1934   4.4599   7.0402   7.3127   7.8816
     7.9699   9.9450  11.0055  11.8005  12.1068  12.4236  12.6130  13.6966
    14.5278  14.7539

          k = 0.4375 0.5440 0.0000 (  6241 PWs)   bands (ev):

   -44.7004 -22.9068 -22.8634 -22.7669 -11.9888 -11.5183  -1.5982  -1.4480
    -0.8604  -0.5834  -0.2455   0.1480   4.6850   6.7704   7.2041   7.8840
     8.1676  10.1562  11.0528  11.6293  12.2848  12.8015  13.2081  13.9215
    14.4186  14.6603

          k = 0.4375-0.1813 0.0000 (  6255 PWs)   bands (ev):

   -44.7059 -22.9388 -22.8799 -22.6589 -12.0578 -11.6298  -1.8946  -1.3837
    -0.9484  -0.1632   0.1758   0.8861   3.9660   6.9914   7.2926   7.7341
     7.8726   9.5846   9.9721  11.3098  11.9627  12.2312  13.0812  13.9247
    14.4860  14.8045

          k = 0.4375-0.1088 0.0000 (  6256 PWs)   bands (ev):

   -44.7068 -22.9089 -22.8828 -22.6771 -12.0703 -11.6492  -1.6963  -1.2431
    -0.9742  -0.3029   0.2035   0.6487   4.1478   6.6079   7.3083   7.6729
     7.9220   9.7312  10.0668  11.6335  12.1652  12.3248  13.2465  13.8057
    14.5590  14.8818

          k = 0.4375-0.0363 0.0000 (  6255 PWs)   bands (ev):

   -44.7074 -22.8871 -22.8820 -22.6952 -12.0772 -11.6596  -1.5226  -1.1145
    -1.0088  -0.4263   0.1666   0.4920   4.3075   6.2998   7.2967   7.7037
     7.9780   9.7860  10.2083  11.8371  12.3943  12.5470  13.3072  13.6762
    14.2480  14.8057

          k =-0.5000-0.2901 0.0000 (  6254 PWs)   bands (ev):

   -44.7032 -22.9750 -22.8719 -22.6568 -12.0246 -11.5759  -2.1059  -1.5616
    -0.9010  -0.1428   0.1512   0.9740   3.8810   7.1454   7.5817   7.8290
     8.0837   9.5587   9.9600  11.1002  11.7739  12.2340  12.6802  13.8816
    14.1615  14.3773

          k =-0.5000-0.2176 0.0000 (  6241 PWs)   bands (ev):

   -44.7032 -22.9666 -22.8719 -22.6658 -12.0244 -11.5762  -2.0472  -1.5350
    -0.9003  -0.1925   0.1546   0.8457   3.9635   7.1924   7.5105   7.7702
     8.0087   9.6450  10.0724  11.2515  11.8821  12.2326  12.6708  13.6588
    14.3867  14.5010

          k =-0.5000-0.1451 0.0000 (  6254 PWs)   bands (ev):

   -44.7032 -22.9438 -22.8719 -22.6901 -12.0239 -11.5768  -1.8865  -1.4610
    -0.9015  -0.3192   0.1549   0.5423   4.1679   7.0446   7.3947   7.7306
     8.0058   9.8458  10.2739  11.6305  12.0815  12.2445  12.7122  13.5907
    14.4911  14.8091

          k =-0.5000-0.0725 0.0000 (  6252 PWs)   bands (ev):

   -44.7032 -22.9155 -22.8719 -22.7198 -12.0234 -11.5774  -1.6842  -1.3649
    -0.9118  -0.4581   0.0714   0.2996   4.3967   6.6687   7.3072   7.8754
     8.0576  10.0669  10.4138  11.9098  12.0457  12.4785  13.0656  13.7707
    14.5076  14.7751

          k =-0.5000 0.0000 0.0000 (  6268 PWs)   bands (ev):

   -44.7032 -22.9009 -22.8719 -22.7350 -12.0232 -11.5776  -1.5788  -1.3132
    -0.9224  -0.5214  -0.0454   0.2644   4.5068   6.4932   7.2611   7.9589
     8.0824  10.1739  10.4557  11.8438  12.1035  12.7252  13.3899  13.8058
    14.4401  14.5756

     highest occupied, lowest unoccupied level (ev):     4.8977    5.8250

!    total energy              =    -591.24417231 Ry
     total all-electron energy =    -13333.877448 Ry
     estimated scf accuracy    <          6.0E-11 Ry

     The total energy is the sum of the following terms:
     one-electron contribution =    -204.81045675 Ry
     hartree contribution      =     110.36421984 Ry
     xc contribution           =     -37.60936677 Ry
     ewald contribution        =     -28.07156930 Ry
     one-center paw contrib.   =    -431.11699934 Ry

     convergence has been achieved in   5 iterations

     negative rho (up, down):  9.750E-08 0.000E+00

     Forces acting on atoms (cartesian axes, Ry/au):

     atom    1 type  1   force =     0.00000000   -0.00021615   -0.00000189
     atom    2 type  2   force =     0.00000000    0.00009259    0.00011040
     atom    3 type  3   force =     0.00000000    0.00012356   -0.00010851
     The non-local contrib.  to forces
     atom    1 type  1   force =     0.00000000   -0.00067678   -0.00063757
     atom    2 type  2   force =     0.00000000   -0.00042193   -0.21314372
     atom    3 type  3   force =     0.00000000   -0.00040907    0.20939224
     The ionic contribution  to forces
     atom    1 type  1   force =    -0.00000001   -0.03652384   -0.33761905
     atom    2 type  2   force =     0.00000000    0.02087071   21.27069230
     atom    3 type  3   force =     0.00000000    0.01565313  -20.93307325
     The local contribution  to forces
     atom    1 type  1   force =    -0.00000000    0.03695164    0.33793659
     atom    2 type  2   force =     0.00000003   -0.02028873  -21.06536356
     atom    3 type  3   force =    -0.00000000   -0.01510509   20.72712866
     The core correction contribution to forces
     atom    1 type  1   force =    -0.00000000    0.00001575    0.00035663
     atom    2 type  2   force =    -0.00000000   -0.00008468    0.00799816
     atom    3 type  3   force =    -0.00000000   -0.00003213   -0.00349376
     The Hubbard contrib.    to forces
     atom    1 type  1   force =     0.00000000    0.00000000    0.00000000
     atom    2 type  2   force =     0.00000000    0.00000000    0.00000000
     atom    3 type  3   force =     0.00000000    0.00000000    0.00000000
     The SCF correction term to forces
     atom    1 type  1   force =    -0.00000000    0.00000019    0.00002932
     atom    2 type  2   force =     0.00000000    0.00000033   -0.00000498
     atom    3 type  3   force =     0.00000000   -0.00000016    0.00000540

     Total force =     0.000307     Total SCF correction =     0.000030
     Energy error            =      2.7E-07 Ry
     Gradient error          =      2.2E-04 Ry/Bohr

     number of scf cycles    =   6
     number of bfgs steps    =   5

     energy             old  =    -591.2441720453 Ry
     energy             new  =    -591.2441723142 Ry

     CASE: energy            _new < energy            _old

     new trust radius        =       0.0007301264 bohr
     new conv_thr            =            1.0E-10 Ry


ATOMIC_POSITIONS (angstrom)
Zr            0.0000000000        0.0056136588       10.2765466634
Cl           -0.0000000017        2.0114152130       11.9695603288
Br           -0.0000000017        2.0118279728        8.4170417822



     Writing config-only to output data dir ./tmp/ZrClBr.save/
     NEW-OLD atomic charge density approx. for the potential

     Check: negative core charge=   -0.000004

     negative rho (up, down):  9.670E-08 0.000E+00

     total cpu time spent up to now is       68.3 secs

     Self-consistent Calculation

     iteration #  1     ecut=    65.00 Ry     beta= 0.70
     Davidson diagonalization with overlap
     ethr =  1.00E-06,  avg # of iterations =  2.0

     Threshold (ethr) on eigenvalues was too large:
     Diagonalizing with lowered threshold

     Davidson diagonalization with overlap
     ethr =  3.43E-10,  avg # of iterations =  4.0

     negative rho (up, down):  9.654E-08 0.000E+00

     total cpu time spent up to now is       71.7 secs

     total energy              =    -591.24417244 Ry
     estimated scf accuracy    <       0.00000008 Ry

     iteration #  2     ecut=    65.00 Ry     beta= 0.70
     Davidson diagonalization with overlap
     ethr =  3.23E-10,  avg # of iterations =  2.0

     negative rho (up, down):  9.688E-08 0.000E+00

     total cpu time spent up to now is       73.2 secs

     total energy              =    -591.24417243 Ry
     estimated scf accuracy    <       0.00000030 Ry

     iteration #  3     ecut=    65.00 Ry     beta= 0.70
     Davidson diagonalization with overlap
     ethr =  3.23E-10,  avg # of iterations =  2.0

     negative rho (up, down):  9.691E-08 0.000E+00

     total cpu time spent up to now is       74.7 secs

     total energy              =    -591.24417249 Ry
     estimated scf accuracy    <          2.0E-09 Ry

     iteration #  4     ecut=    65.00 Ry     beta= 0.70
     Davidson diagonalization with overlap
     ethr =  7.76E-12,  avg # of iterations =  2.0

     negative rho (up, down):  9.692E-08 0.000E+00

     total cpu time spent up to now is       76.2 secs

     total energy              =    -591.24417249 Ry
     estimated scf accuracy    <          1.2E-09 Ry

     iteration #  5     ecut=    65.00 Ry     beta= 0.70
     Davidson diagonalization with overlap
     ethr =  4.68E-12,  avg # of iterations =  1.2

     negative rho (up, down):  9.693E-08 0.000E+00

     total cpu time spent up to now is       77.5 secs

     End of self-consistent calculation

          k = 0.0000 0.0000 0.0000 (  6307 PWs)   bands (ev):

   -44.7398 -22.9815 -22.5761 -22.5692 -12.6220 -12.0621  -1.9838   0.0651
     0.3659   0.3900   1.5564   1.5874   4.3486   6.0805   6.1336   6.8164
     6.8370   6.9751   8.5152   9.6342  11.4651  13.7650  13.8374  14.0692
    14.8174  15.3850

          k = 0.0000 0.0725 0.0000 (  6317 PWs)   bands (ev):

   -44.7385 -22.9774 -22.5854 -22.5796 -12.5952 -12.0500  -1.9379   0.0103
     0.3203   0.3523   1.4212   1.5197   4.3566   6.0615   6.1165   6.7988
     6.8764   7.1561   8.6485   9.8709  11.5344  13.3438  13.8947  14.4731
    14.8372  15.0089

          k = 0.0000 0.1451 0.0000 (  6313 PWs)   bands (ev):

   -44.7345 -22.9655 -22.6311 -22.5894 -12.5198 -12.0139  -1.8088  -0.1936
     0.1711   0.3088   1.0110   1.4238   4.3539   5.9340   6.2325   6.7577
     7.0354   7.5895   9.0210  10.4271  11.7434  12.7746  14.2053  14.2643
    14.7018  15.0754

          k = 0.0000 0.2176 0.0000 (  6299 PWs)   bands (ev):

   -44.7286 -22.9478 -22.6985 -22.6040 -12.4092 -11.9543  -1.6232  -0.5496
    -0.0376   0.2328   0.5636   1.3006   4.2823   5.9221   6.4440   6.7932
     7.2445   8.0860   9.5399  10.9895  11.9958  12.3833  13.7193  14.5107
    14.8015  15.3498

          k = 0.0000 0.2901 0.0000 (  6283 PWs)   bands (ev):

   -44.7216 -22.9267 -22.7768 -22.6212 -12.2852 -11.8721  -1.4354  -0.9516
    -0.4213   0.1297   0.3099   1.1794   4.1402   6.1140   6.7582   6.9014
     7.4515   8.5510   9.9692  11.3410  11.9495  12.2608  13.9370  14.2312
    15.2270  15.2821

          k = 0.0000 0.3627 0.0000 (  6252 PWs)   bands (ev):

   -44.7146 -22.9057 -22.8536 -22.6383 -12.1719 -11.7721  -1.4860  -1.1333
    -0.8595   0.0167   0.2142   1.0766   4.0026   6.4670   7.0407   7.1576
     7.6209   8.9675  10.0918  11.3943  11.8816  12.2417  13.9210  14.4870
    14.8918  15.1237

          k = 0.0000 0.4352 0.0000 (  6242 PWs)   bands (ev):

   -44.7087 -22.9182 -22.8872 -22.6527 -12.0864 -11.6705  -1.7939  -1.2683
    -0.9877  -0.0834   0.1764   0.9993   3.9236   6.8653   7.1930   7.5821
     7.7432   9.3141  10.0213  11.2392  11.9062  12.2318  13.4302  14.4460
    14.5322  14.7969

          k = 0.0000 0.5077 0.0000 (  6244 PWs)   bands (ev):

   -44.7047 -22.9604 -22.8753 -22.6623 -12.0346 -11.5937  -2.0203  -1.4895
    -0.9217  -0.1515   0.1635   0.9512   3.8999   7.0879   7.4287   7.7900
     7.9564   9.5293   9.9587  11.1131  11.8789  12.2248  12.8919  14.0203
    14.2874  14.5302

          k = 0.0000-0.5803 0.0000 (  6262 PWs)   bands (ev):

   -44.7033 -22.9752 -22.8711 -22.6657 -12.0174 -11.5651  -2.1011  -1.5667
    -0.8983  -0.1755   0.1608   0.9348   3.8982   7.1322   7.5713   7.8146
     8.0957   9.5754   9.9720  11.0739  11.7914  12.2633  12.7012  13.8186
    14.1714  14.4006

          k = 0.0625 0.0363 0.0000 (  6315 PWs)   bands (ev):

   -44.7385 -22.9774 -22.5909 -22.5738 -12.5955 -12.0503  -1.9382   0.0076
     0.3045   0.3718   1.3987   1.5449   4.3551   6.0223   6.1592   6.7861
     6.8916   7.1554   8.6457   9.8676  11.5337  13.3181  13.9472  14.4527
    14.8235  14.9727

          k = 0.0625 0.1088 0.0000 (  6305 PWs)   bands (ev):

   -44.7358 -22.9694 -22.6179 -22.5843 -12.5444 -12.0262  -1.8506  -0.1201
     0.2009   0.3362   1.1290   1.4608   4.3587   5.9442   6.2142   6.7600
     6.9904   7.4611   8.8989  10.2623  11.6762  12.9189  14.1058  14.3968
    14.7577  14.9651

          k = 0.0625 0.1813 0.0000 (  6302 PWs)   bands (ev):

   -44.7309 -22.9546 -22.6720 -22.5990 -12.4514 -11.9784  -1.6920  -0.3992
     0.0396   0.2608   0.7155   1.3349   4.3277   5.8631   6.3923   6.7762
     7.1654   7.9195   9.3518  10.8122  11.9648  12.4880  13.7853  14.3480
    14.8345  15.3034

          k = 0.0625 0.2539 0.0000 (  6270 PWs)   bands (ev):

   -44.7244 -22.9352 -22.7427 -22.6170 -12.3341 -11.9072  -1.4981  -0.7781
    -0.2238   0.0948   0.4219   1.1922   4.2291   5.9309   6.6844   6.8710
     7.3625   8.3939   9.8464  11.2426  12.0987  12.3357  13.5822  14.2468
    15.0931  15.2957

          k = 0.0625 0.3264 0.0000 (  6266 PWs)   bands (ev):

   -44.7174 -22.9142 -22.8182 -22.6361 -12.2160 -11.8149  -1.3723  -1.1126
    -0.6518  -0.0433   0.3001   1.0545   4.1015   6.1835   6.9852   7.1011
     7.5372   8.8403  10.1101  11.4554  12.0031  12.2821  13.9467  14.2005
    14.8630  15.1656

          k = 0.0625 0.3989 0.0000 (  6247 PWs)   bands (ev):

   -44.7110 -22.8955 -22.8860 -22.6537 -12.1182 -11.7117  -1.6202  -1.1346
    -0.9980  -0.1321   0.2278   0.9381   4.0109   6.5698   7.1377   7.5146
     7.6700   9.2497  10.0906  11.4124  11.9679  12.2773  13.7055  14.2791
    14.6225  14.9689

          k = 0.0625 0.4715 0.0000 (  6262 PWs)   bands (ev):

   -44.7060 -22.9391 -22.8793 -22.6671 -12.0511 -11.6199  -1.8919  -1.3883
    -0.9447  -0.1914   0.1837   0.8546   3.9782   6.9825   7.2787   7.7219
     7.8835   9.5854   9.9927  11.2907  11.9678  12.2433  13.1022  13.9163
    14.5027  14.8030

          k = 0.0625 0.5440 0.0000 (  6254 PWs)   bands (ev):

   -44.7033 -22.9669 -22.8712 -22.6743 -12.0174 -11.5657  -2.0435  -1.5405
    -0.8975  -0.2223   0.1636   0.8112   3.9778   7.1800   7.4986   7.7570
     8.0222   9.6651  10.0802  11.2239  11.8943  12.2579  12.6840  13.6336
    14.3981  14.4999

          k = 0.1250 0.0725 0.0000 (  6312 PWs)   bands (ev):

   -44.7346 -22.9658 -22.6356 -22.5837 -12.5208 -12.0151  -1.8101  -0.2021
     0.1632   0.3287   0.9937   1.4509   4.3477   5.9077   6.2702   6.7519
     7.0481   7.5876   9.0122  10.4192  11.7398  12.7612  14.1782  14.3113
    14.6909  15.0495

          k = 0.1250 0.1451 0.0000 (  6311 PWs)   bands (ev):

   -44.7310 -22.9548 -22.6741 -22.5960 -12.4521 -11.9792  -1.6929  -0.4049
     0.0373   0.2704   0.7081   1.3508   4.3222   5.8576   6.4062   6.7725
     7.1729   7.9185   9.3464  10.8085  11.9611  12.4816  13.7750  14.3500
    14.8473  15.2906

          k = 0.1250 0.2176 0.0000 (  6267 PWs)   bands (ev):

   -44.7255 -22.9383 -22.7299 -22.6156 -12.3522 -11.9196  -1.5220  -0.7012
    -0.1488   0.0626   0.4705   1.1884   4.2731   5.8336   6.6937   6.8680
     7.3276   8.3463   9.7948  11.2023  12.2424  12.3851  13.3288  14.1727
    15.0570  15.1895

          k = 0.1250 0.2901 0.0000 (  6259 PWs)   bands (ev):

   -44.7190 -22.9189 -22.7940 -22.6394 -12.2413 -11.8374  -1.3414  -1.0350
    -0.4732  -0.1667   0.3590   0.9946   4.2071   5.9396   6.9984   7.1197
     7.4789   8.7994  10.1382  11.4744  12.2158  12.5502  13.3735  13.9820
    14.7824  15.0883

          k = 0.1250 0.3627 0.0000 (  6256 PWs)   bands (ev):

   -44.7126 -22.8995 -22.8569 -22.6633 -12.1407 -11.7387  -1.4270  -1.1162
    -0.8806  -0.2712   0.2762   0.7995   4.1578   6.2063   7.1676   7.5161
     7.6460   9.2584  10.1994  11.6123  12.2352  12.4137  13.7569  13.9482
    14.2207  14.9718

          k = 0.1250 0.4352 0.0000 (  6261 PWs)   bands (ev):

   -44.7071 -22.9099 -22.8824 -22.6836 -12.0644 -11.6404  -1.6984  -1.2498
    -0.9706  -0.3219   0.2078   0.6328   4.1516   6.6025   7.2938   7.6612
     7.9379   9.7332  10.0812  11.6179  12.1584  12.3267  13.2411  13.8239
    14.5727  14.8863

          k = 0.1250 0.5077 0.0000 (  6266 PWs)   bands (ev):

   -44.7034 -22.9445 -22.8714 -22.6972 -12.0177 -11.5674  -1.8862  -1.4681
    -0.8986  -0.3416   0.1616   0.5208   4.1750   7.0384   7.3849   7.7123
     8.0236   9.8661  10.2797  11.6009  12.0773  12.2578  12.7131  13.5947
    14.5104  14.8006

          k = 0.1250 0.5803 0.0000 (  6248 PWs)   bands (ev):

   -44.7021 -22.9566 -22.8675 -22.7019 -12.0020 -11.5404  -1.9529  -1.5437
    -0.8747  -0.3458   0.1450   0.4814   4.1896   7.2429   7.4878   7.7173
     7.9398   9.7833  10.5608  11.6024  12.0237  12.3201  12.3615  13.5126
    14.4639  14.6576

          k = 0.1250 0.0000 0.0000 (  6317 PWs)   bands (ev):

   -44.7359 -22.9696 -22.6215 -22.5798 -12.5452 -12.0271  -1.8516  -0.1254
     0.1959   0.3490   1.1177   1.4785   4.3554   5.9177   6.2484   6.7610
     6.9955   7.4597   8.8918  10.2558  11.6748  12.9065  14.1521  14.3755
    14.7318  14.9557

          k = 0.1875 0.1088 0.0000 (  6289 PWs)   bands (ev):

   -44.7288 -22.9482 -22.7022 -22.5979 -12.4114 -11.9569  -1.6257  -0.5590
    -0.0450   0.2549   0.5534   1.3309   4.2701   5.9083   6.4767   6.7928
     7.2551   8.0842   9.5264  10.9816  11.9888  12.3725  13.7022  14.4950
    14.8428  15.3174

          k = 0.1875 0.1813 0.0000 (  6278 PWs)   bands (ev):

   -44.7247 -22.9356 -22.7453 -22.6122 -12.3359 -11.9095  -1.5000  -0.7861
    -0.2316   0.1088   0.4211   1.2179   4.2171   5.9299   6.7009   6.8685
     7.3722   8.3929   9.8379  11.2377  12.0937  12.3247  13.5705  14.2307
    15.1082  15.2862

          k = 0.1875 0.2539 0.0000 (  6269 PWs)   bands (ev):

   -44.7192 -22.9191 -22.7953 -22.6369 -12.2424 -11.8389  -1.3424  -1.0394
    -0.4785  -0.1593   0.3613   1.0078   4.2002   5.9416   6.9989   7.1244
     7.4830   8.7994  10.1351  11.4714  12.2115  12.5547  13.3625  13.9696
    14.7879  15.0811

          k = 0.1875 0.3264 0.0000 (  6268 PWs)   bands (ev):

   -44.7132 -22.9013 -22.8443 -22.6679 -12.1496 -11.7491  -1.3234  -1.1447
    -0.7960  -0.3461   0.2770   0.7464   4.2298   6.0500   7.1856   7.5049
     7.6664   9.2651  10.2587  11.6726  12.4586  12.6285  13.4660  13.8135
    13.8834  15.0221

          k = 0.1875 0.3989 0.0000 (  6260 PWs)   bands (ev):

   -44.7078 -22.8883 -22.8828 -22.6993 -12.0723 -11.6524  -1.5316  -1.1250
    -1.0058  -0.4362   0.1692   0.4948   4.3017   6.2983   7.2850   7.6929
     7.9983   9.7930  10.2127  11.8251  12.3960  12.5285  13.2881  13.6820
    14.2474  14.8211

          k = 0.1875 0.4715 0.0000 (  6258 PWs)   bands (ev):

   -44.7036 -22.9171 -22.8717 -22.7247 -12.0183 -11.5696  -1.6899  -1.3745
    -0.9088  -0.4714   0.0694   0.3011   4.3945   6.6666   7.3020   7.8547
     8.0819  10.0815  10.4215  11.8960  12.0294  12.4726  13.0437  13.7866
    14.5192  14.7750

          k = 0.1875 0.5440 0.0000 (  6250 PWs)   bands (ev):

   -44.7013 -22.9330 -22.8648 -22.7389 -11.9906 -11.5218  -1.7734  -1.5102
    -0.8607  -0.4795   0.0115   0.1946   4.4624   7.0408   7.3099   7.8913
     7.9522   9.9635  11.0100  11.7898  12.0709  12.4352  12.6163  13.6955
    14.5441  14.7417

          k = 0.1875-0.0363 0.0000 (  6298 PWs)   bands (ev):

   -44.7311 -22.9550 -22.6754 -22.5934 -12.4533 -11.9805  -1.6943  -0.4062
     0.0373   0.2750   0.7091   1.3558   4.3201   5.8440   6.4265   6.7854
     7.1674   7.9177   9.3376  10.8033  11.9610  12.4841  13.7714  14.3745
    14.8305  15.2849

          k = 0.2500 0.1451 0.0000 (  6281 PWs)   bands (ev):

   -44.7220 -22.9275 -22.7795 -22.6145 -12.2886 -11.8765  -1.4387  -0.9593
    -0.4291   0.1549   0.3046   1.2129   4.1248   6.1085   6.7836   6.9050
     7.4612   8.5498   9.9566  11.3336  11.9450  12.2507  13.9198  14.2056
    15.1875  15.3208

          k = 0.2500 0.2176 0.0000 (  6264 PWs)   bands (ev):

   -44.7178 -22.9148 -22.8206 -22.6301 -12.2191 -11.8191  -1.3759  -1.1194
    -0.6595  -0.0268   0.3031   1.0867   4.0859   6.1847   6.9894   7.1135
     7.5467   8.8404  10.1016  11.4476  12.0033  12.2756  13.9210  14.1729
    14.8544  15.1659

          k = 0.2500 0.2901 0.0000 (  6259 PWs)   bands (ev):

   -44.7129 -22.9000 -22.8586 -22.6589 -12.1430 -11.7421  -1.4321  -1.1186
    -0.8856  -0.2596   0.2795   0.8219   4.1464   6.2084   7.1715   7.5226
     7.6517   9.2596  10.1930  11.6071  12.2445  12.4141  13.7350  13.9565
    14.1964  14.9492

          k = 0.2500 0.3627 0.0000 (  6261 PWs)   bands (ev):

   -44.7079 -22.8890 -22.8833 -22.6969 -12.0735 -11.6543  -1.5347  -1.1259
    -1.0070  -0.4305   0.1722   0.5034   4.2963   6.2983   7.2884   7.6946
     8.0016   9.7933  10.2087  11.8233  12.3991  12.5410  13.3088  13.6542
    14.2274  14.8035

          k = 0.2500 0.4352 0.0000 (  6252 PWs)   bands (ev):

   -44.7037 -22.9037 -22.8719 -22.7373 -12.0193 -11.5718  -1.5903  -1.3246
    -0.9197  -0.5274  -0.0411   0.2730   4.4970   6.4921   7.2585   7.9423
     8.1104  10.1786  10.4675  11.8427  12.0868  12.7161  13.3567  13.8113
    14.4411  14.5741

          k = 0.2500 0.5077 0.0000 (  6256 PWs)   bands (ev):

   -44.7009 -22.9085 -22.8635 -22.7700 -11.9851 -11.5128  -1.6051  -1.4563
    -0.8581  -0.5897  -0.2483   0.1549   4.6795   6.7713   7.2022   7.9056
     8.1490  10.1685  11.0506  11.6401  12.2639  12.7930  13.1874  13.9177
    14.4242  14.6637

          k = 0.2500 0.5803 0.0000 (  6270 PWs)   bands (ev):

   -44.6999 -22.9085 -22.8605 -22.7833 -11.9734 -11.4914  -1.6124  -1.4909
    -0.8384  -0.6219  -0.3200   0.1151   4.7552   6.9648   7.1804   7.7046
     8.2245  10.1513  11.1349  11.9548  12.3814  12.7853  12.8371  13.7975
    14.6403  14.7059

          k = 0.2500-0.0725 0.0000 (  6282 PWs)   bands (ev):

   -44.7248 -22.9359 -22.7452 -22.6109 -12.3373 -11.9111  -1.5015  -0.7828
    -0.2286   0.1119   0.4218   1.2153   4.2187   5.9225   6.7098   6.8845
     7.3637   8.3923   9.8304  11.2359  12.0988  12.3303  13.5763  14.2436
    15.0987  15.2822

          k = 0.2500 0.0000 0.0000 (  6275 PWs)   bands (ev):

   -44.7258 -22.9389 -22.7309 -22.6119 -12.3548 -11.9227  -1.5248  -0.7003
    -0.1481   0.0709   0.4732   1.1945   4.2704   5.8239   6.7124   6.8907
     7.3177   8.3449   9.7804  11.1973  12.2512  12.3881  13.3299  14.1844
    15.0492  15.1787

          k = 0.3125 0.1813 0.0000 (  6264 PWs)   bands (ev):

   -44.7152 -22.9067 -22.8555 -22.6311 -12.1765 -11.7786  -1.4908  -1.1376
    -0.8638   0.0452   0.2083   1.1128   3.9863   6.4658   7.0473   7.1731
     7.6310   8.9681  10.0795  11.3897  11.8824  12.2335  13.8852  14.4590
    14.8541  15.1669

          k = 0.3125 0.2539 0.0000 (  6249 PWs)   bands (ev):

   -44.7115 -22.8965 -22.8878 -22.6468 -12.1225 -11.7181  -1.6266  -1.1368
    -1.0025  -0.1116   0.2287   0.9741   3.9940   6.5697   7.1442   7.5266
     7.6787   9.2522  10.0771  11.4127  11.9699  12.2709  13.6719  14.2796
    14.6107  14.9472

          k = 0.3125 0.3264 0.0000 (  6259 PWs)   bands (ev):

   -44.7075 -22.9115 -22.8832 -22.6779 -12.0680 -11.6459  -1.7045  -1.2506
    -0.9731  -0.3060   0.2088   0.6603   4.1382   6.6009   7.3027   7.6661
     7.9463   9.7367  10.0675  11.6231  12.1646  12.3259  13.2476  13.8050
    14.5492  14.8559

          k = 0.3125 0.3989 0.0000 (  6251 PWs)   bands (ev):

   -44.7039 -22.9183 -22.8722 -22.7206 -12.0208 -11.5735  -1.6941  -1.3735
    -0.9101  -0.4608   0.0759   0.3106   4.3867   6.6622   7.3067   7.8614
     8.0877  10.0666  10.4273  11.9003  12.0394  12.4861  13.0433  13.7720
    14.4978  14.7557

          k = 0.3125 0.4715 0.0000 (  6249 PWs)   bands (ev):

   -44.7011 -22.9091 -22.8638 -22.7680 -11.9864 -11.5148  -1.6060  -1.4553
    -0.8588  -0.5847  -0.2418   0.1539   4.6773   6.7667   7.2031   7.9079
     8.1549  10.1586  11.0585  11.6443  12.2647  12.8040  13.1713  13.9326
    14.4170  14.6595

          k = 0.3125 0.5440 0.0000 (  6258 PWs)   bands (ev):

   -44.6995 -22.8907 -22.8592 -22.8072 -11.9683 -11.4820  -1.5765  -1.3875
    -0.8335  -0.7532  -0.4301   0.0928   4.8943   6.8845   7.1260   7.6367
     8.3464  10.2973  10.9091  12.2635  12.4679  13.0229  13.1914  13.4918
    14.5658  14.7744

          k = 0.3125-0.1088 0.0000 (  6276 PWs)   bands (ev):

   -44.7180 -22.9151 -22.8197 -22.6296 -12.2205 -11.8209  -1.3752  -1.1161
    -0.6538  -0.0231   0.2995   1.0803   4.0906   6.1825   7.0001   7.1133
     7.5411   8.8392  10.0981  11.4505  12.0059  12.2791  13.9324  14.1897
    14.8330  15.1653

          k = 0.3125-0.0363 0.0000 (  6274 PWs)   bands (ev):

   -44.7195 -22.9197 -22.7944 -22.6349 -12.2451 -11.8424  -1.3447  -1.0323
    -0.4701  -0.1545   0.3600   1.0026   4.2047   5.9365   7.0223   7.1287
     7.4712   8.7972  10.1259  11.4723  12.2253  12.5606  13.3761  13.9872
    14.7530  15.0723

          k = 0.3750 0.2176 0.0000 (  6245 PWs)   bands (ev):

   -44.7094 -22.9193 -22.8885 -22.6450 -12.0921 -11.6790  -1.7986  -1.2670
    -0.9914  -0.0522   0.1686   1.0375   3.9068   6.8688   7.2011   7.5869
     7.7535   9.3165  10.0019  11.2486  11.9003  12.2223  13.3947  14.4121
    14.5826  14.7656

          k = 0.3750 0.2901 0.0000 (  6254 PWs)   bands (ev):

   -44.7067 -22.9403 -22.8805 -22.6596 -12.0565 -11.6282  -1.8977  -1.3865
    -0.9474  -0.1659   0.1802   0.8921   3.9610   6.9835   7.2855   7.7318
     7.8903   9.5890   9.9718  11.3067  11.9595  12.2300  13.0785  13.9425
    14.4791  14.7824

          k = 0.3750 0.3627 0.0000 (  6254 PWs)   bands (ev):

   -44.7040 -22.9456 -22.8725 -22.6907 -12.0224 -11.5747  -1.8913  -1.4649
    -0.9003  -0.3211   0.1582   0.5497   4.1618   7.0338   7.3921   7.7219
     8.0313   9.8503  10.2794  11.6235  12.0751  12.2473  12.7049  13.5977
    14.4873  14.7911

          k = 0.3750 0.4352 0.0000 (  6248 PWs)   bands (ev):

   -44.7017 -22.9338 -22.8656 -22.7340 -11.9943 -11.5275  -1.7760  -1.5057
    -0.8619  -0.4652   0.0219   0.1982   4.4557   7.0327   7.3108   7.8975
     7.9654   9.9453  11.0154  11.8031  12.0936  12.4310  12.5954  13.7014
    14.5255  14.7447

          k = 0.3750 0.5077 0.0000 (  6255 PWs)   bands (ev):

   -44.7002 -22.9088 -22.8611 -22.7803 -11.9758 -11.4952  -1.6098  -1.4873
    -0.8393  -0.6150  -0.3114   0.1106   4.7554   6.9581   7.1797   7.7009
     8.2378  10.1361  11.1517  11.9464  12.3885  12.7877  12.8299  13.8302
    14.6313  14.7093

          k = 0.3750 0.5803 0.0000 (  6256 PWs)   bands (ev):

   -44.6997 -22.8902 -22.8595 -22.8064 -11.9694 -11.4837  -1.5731  -1.3828
    -0.8346  -0.7530  -0.4282   0.0899   4.8974   6.8835   7.1256   7.6275
     8.3535  10.2900  10.9176  12.2366  12.4762  13.0330  13.2089  13.5020
    14.5431  14.7878

          k = 0.3750-0.1451 0.0000 (  6249 PWs)   bands (ev):

   -44.7116 -22.8966 -22.8869 -22.6467 -12.1236 -11.7197  -1.6218  -1.1343
    -1.0000  -0.1074   0.2234   0.9672   3.9996   6.5738   7.1514   7.5142
     7.6774   9.2503  10.0758  11.4171  11.9703  12.2722  13.6771  14.2599
    14.6131  14.9727

          k = 0.3750-0.0725 0.0000 (  6260 PWs)   bands (ev):

   -44.7132 -22.9005 -22.8567 -22.6582 -12.1455 -11.7456  -1.4235  -1.1190
    -0.8748  -0.2559   0.2748   0.8112   4.1553   6.2079   7.1884   7.5134
     7.6434   9.2559  10.1904  11.6151  12.2485  12.4180  13.7527  13.9331
    14.2231  14.9505

          k = 0.3750 0.0000 0.0000 (  6247 PWs)   bands (ev):

   -44.7137 -22.9021 -22.8428 -22.6653 -12.1533 -11.7544  -1.3141  -1.1471
    -0.7840  -0.3395   0.2742   0.7417   4.2360   6.0482   7.2097   7.4964
     7.6587   9.2607  10.2533  11.6779  12.4703  12.6456  13.4733  13.8080
    13.8809  15.0112

          k = 0.4375 0.2539 0.0000 (  6244 PWs)   bands (ev):

   -44.7055 -22.9611 -22.8768 -22.6543 -12.0410 -11.6035  -2.0247  -1.4851
    -0.9242  -0.1184   0.1541   0.9907   3.8824   7.0985   7.4363   7.8022
     7.9494   9.5242   9.9384  11.1344  11.8653  12.2029  12.8658  14.0786
    14.2665  14.5057

          k = 0.4375 0.3264 0.0000 (  6250 PWs)   bands (ev):

   -44.7041 -22.9676 -22.8726 -22.6665 -12.0236 -11.5752  -2.0480  -1.5357
    -0.8994  -0.1929   0.1561   0.8483   3.9612   7.1909   7.5006   7.7682
     8.0200   9.6500  10.0703  11.2503  11.8779  12.2317  12.6701  13.6648
    14.3842  14.4932

          k = 0.4375 0.3989 0.0000 (  6253 PWs)   bands (ev):

   -44.7028 -22.9571 -22.8687 -22.6953 -12.0074 -11.5489  -1.9555  -1.5375
    -0.8763  -0.3222   0.1382   0.5083   4.1785   7.2470   7.4877   7.7331
     7.9366   9.7617  10.5587  11.6358  12.0166  12.2997  12.3592  13.5167
    14.4429  14.6683

          k = 0.4375 0.4715 0.0000 (  6249 PWs)   bands (ev):

   -44.7018 -22.9330 -22.8658 -22.7340 -11.9950 -11.5287  -1.7719  -1.5023
    -0.8622  -0.4642   0.0207   0.1934   4.4595   7.0395   7.3112   7.8804
     7.9694   9.9446  11.0048  11.8000  12.1068  12.4234  12.6128  13.6961
    14.5280  14.7531

          k = 0.4375 0.5440 0.0000 (  6241 PWs)   bands (ev):

   -44.7013 -22.9075 -22.8642 -22.7676 -11.9882 -11.5178  -1.5976  -1.4471
    -0.8597  -0.5830  -0.2449   0.1479   4.6847   6.7696   7.2026   7.8828
     8.1670  10.1554  11.0526  11.6288  12.2854  12.8010  13.2079  13.9213
    14.4178  14.6596

          k = 0.4375-0.1813 0.0000 (  6255 PWs)   bands (ev):

   -44.7068 -22.9395 -22.8807 -22.6597 -12.0573 -11.6293  -1.8940  -1.3832
    -0.9476  -0.1624   0.1756   0.8870   3.9654   6.9906   7.2917   7.7331
     7.8719   9.5834   9.9720  11.3093  11.9624  12.2310  13.0809  13.9237
    14.4863  14.8039

          k = 0.4375-0.1088 0.0000 (  6256 PWs)   bands (ev):

   -44.7078 -22.9096 -22.8836 -22.6778 -12.0698 -11.6487  -1.6957  -1.2424
    -0.9734  -0.3023   0.2035   0.6494   4.1473   6.6070   7.3070   7.6725
     7.9212   9.7306  10.0659  11.6333  12.1652  12.3248  13.2458  13.8053
    14.5592  14.8814

          k = 0.4375-0.0363 0.0000 (  6255 PWs)   bands (ev):

   -44.7083 -22.8878 -22.8827 -22.6959 -12.0767 -11.6591  -1.5219  -1.1137
    -1.0081  -0.4260   0.1668   0.4926   4.3071   6.2987   7.2951   7.7035
     7.9772   9.7859  10.2068  11.8377  12.3945  12.5467  13.3069  13.6755
    14.2472  14.8052

          k =-0.5000-0.2901 0.0000 (  6254 PWs)   bands (ev):

   -44.7041 -22.9757 -22.8726 -22.6576 -12.0240 -11.5754  -2.1053  -1.5612
    -0.9003  -0.1418   0.1508   0.9748   3.8803   7.1448   7.5808   7.8276
     8.0834   9.5579   9.9594  11.0997  11.7735  12.2337  12.6797  13.8813
    14.1599  14.3780

          k =-0.5000-0.2176 0.0000 (  6241 PWs)   bands (ev):

   -44.7041 -22.9673 -22.8726 -22.6666 -12.0239 -11.5756  -2.0466  -1.5345
    -0.8995  -0.1916   0.1543   0.8465   3.9629   7.1916   7.5098   7.7690
     8.0079   9.6443  10.0719  11.2509  11.8816  12.2323  12.6705  13.6580
    14.3869  14.5003

          k =-0.5000-0.1451 0.0000 (  6254 PWs)   bands (ev):

   -44.7041 -22.9445 -22.8727 -22.6908 -12.0234 -11.5762  -1.8859  -1.4604
    -0.9007  -0.3185   0.1548   0.5430   4.1673   7.0437   7.3933   7.7302
     8.0048   9.8452  10.2736  11.6301  12.0809  12.2444  12.7121  13.5899
    14.4914  14.8084

          k =-0.5000-0.0725 0.0000 (  6252 PWs)   bands (ev):

   -44.7041 -22.9162 -22.8727 -22.7205 -12.0229 -11.5769  -1.6836  -1.3641
    -0.9110  -0.4577   0.0717   0.2999   4.3963   6.6677   7.3056   7.8751
     8.0566  10.0661  10.4133  11.9099  12.0456  12.4781  13.0653  13.7703
    14.5072  14.7748

          k =-0.5000 0.0000 0.0000 (  6268 PWs)   bands (ev):

   -44.7041 -22.9016 -22.8727 -22.7357 -12.0227 -11.5771  -1.5782  -1.3123
    -0.9217  -0.5211  -0.0449   0.2645   4.5064   6.4922   7.2595   7.9586
     8.0815  10.1731  10.4552  11.8438  12.1041  12.7247  13.3899  13.8053
    14.4393  14.5749

     highest occupied, lowest unoccupied level (ev):     4.8974    5.8239

!    total energy              =    -591.24417249 Ry
     total all-electron energy =    -13333.877449 Ry
     estimated scf accuracy    <          6.4E-11 Ry

     The total energy is the sum of the following terms:
     one-electron contribution =    -204.75430305 Ry
     hartree contribution      =     110.33597006 Ry
     xc contribution           =     -37.60902736 Ry
     ewald contribution        =     -28.09983227 Ry
     one-center paw contrib.   =    -431.11697986 Ry

     convergence has been achieved in   5 iterations

     negative rho (up, down):  9.693E-08 0.000E+00

     Forces acting on atoms (cartesian axes, Ry/au):

     atom    1 type  1   force =     0.00000000   -0.00009755   -0.00001195
     atom    2 type  2   force =     0.00000000    0.00003883    0.00000530
     atom    3 type  3   force =     0.00000000    0.00005872    0.00000665
     The non-local contrib.  to forces
     atom    1 type  1   force =     0.00000000   -0.00063161   -0.00063510
     atom    2 type  2   force =     0.00000000   -0.00044516   -0.21320518
     atom    3 type  3   force =     0.00000000   -0.00043795    0.20944132
     The ionic contribution  to forces
     atom    1 type  1   force =    -0.00000001   -0.03528430   -0.33804740
     atom    2 type  2   force =     0.00000000    0.02021036   21.26776263
     atom    3 type  3   force =     0.00000000    0.01507394  -20.92971523
     The local contribution  to forces
     atom    1 type  1   force =    -0.00000000    0.03578600    0.33835223
     atom    2 type  2   force =     0.00000003   -0.01965672  -21.06248865
     atom    3 type  3   force =    -0.00000000   -0.01456377   20.72384432
     The core correction contribution to forces
     atom    1 type  1   force =    -0.00000000    0.00001659    0.00035647
     atom    2 type  2   force =    -0.00000000   -0.00008243    0.00800745
     atom    3 type  3   force =    -0.00000000   -0.00002778   -0.00350134
     The Hubbard contrib.    to forces
     atom    1 type  1   force =     0.00000000    0.00000000    0.00000000
     atom    2 type  2   force =     0.00000000    0.00000000    0.00000000
     atom    3 type  3   force =     0.00000000    0.00000000    0.00000000
     The SCF correction term to forces
     atom    1 type  1   force =    -0.00000000   -0.00000027    0.00003053
     atom    2 type  2   force =     0.00000000   -0.00000325   -0.00000226
     atom    3 type  3   force =    -0.00000000   -0.00000174    0.00000626

     Total force =     0.000121     Total SCF correction =     0.000031
     SCF correction compared to forces is large: reduce conv_thr to get better values
     Energy error            =      1.7E-07 Ry
     Gradient error          =      9.8E-05 Ry/Bohr

     bfgs converged in   7 scf cycles and   6 bfgs steps
     (criteria: energy <  1.0E-05 Ry, force <  1.0E-04 Ry/Bohr)

     End of BFGS Geometry Optimization

     Final energy             =    -591.2441724870 Ry

     File ./tmp/ZrClBr.bfgs deleted, as requested
Begin final coordinates

ATOMIC_POSITIONS (angstrom)
Zr            0.0000000000        0.0056136588       10.2765466634
Cl           -0.0000000017        2.0114152130       11.9695603288
Br           -0.0000000017        2.0118279728        8.4170417822
End final coordinates



     Writing all to output data dir ./tmp/ZrClBr.save/

     init_run     :      0.68s CPU      0.71s WALL (       1 calls)
     electrons    :     71.93s CPU     73.49s WALL (       7 calls)
     update_pot   :      0.75s CPU      0.80s WALL (       6 calls)
     forces       :      1.70s CPU      1.70s WALL (       7 calls)

     Called by init_run:
     wfcinit      :      0.46s CPU      0.47s WALL (       1 calls)
     potinit      :      0.11s CPU      0.12s WALL (       1 calls)
     hinit0       :      0.09s CPU      0.09s WALL (       1 calls)

     Called by electrons:
     c_bands      :     61.29s CPU     62.27s WALL (      46 calls)
     sum_band     :      8.50s CPU      8.69s WALL (      46 calls)
     v_of_rho     :      0.15s CPU      0.16s WALL (      46 calls)
     newd         :      0.43s CPU      0.47s WALL (      46 calls)
     PAW_pot      :      2.15s CPU      2.58s WALL (      52 calls)
     mix_rho      :      0.01s CPU      0.01s WALL (      46 calls)

     Called by c_bands:
     init_us_2    :      0.51s CPU      0.51s WALL (    7738 calls)
     init_us_2:cp :      0.50s CPU      0.51s WALL (    7738 calls)
     cegterg      :     60.00s CPU     60.96s WALL (    3358 calls)

     Called by *egterg:
     cdiaghg      :      9.04s CPU      9.12s WALL (   10895 calls)
     h_psi        :     35.17s CPU     35.96s WALL (   11917 calls)
     s_psi        :      2.40s CPU      2.42s WALL (   11917 calls)
     g_psi        :      0.09s CPU      0.09s WALL (    8486 calls)

     Called by h_psi:
     h_psi:calbec :      3.99s CPU      4.07s WALL (   11917 calls)
     vloc_psi     :     28.70s CPU     29.38s WALL (   11917 calls)
     add_vuspsi   :      2.39s CPU      2.42s WALL (   11917 calls)

     General routines
     calbec       :      6.89s CPU      7.01s WALL (   17757 calls)
     fft          :      0.11s CPU      0.11s WALL (     596 calls)
     ffts         :      0.01s CPU      0.01s WALL (      46 calls)
     fftw         :     32.40s CPU     33.15s WALL (  497390 calls)

     Parallel routines

     PWSCF        :   1m16.32s CPU   1m18.23s WALL


   This run was terminated on:   8:38:56  18Sep2026            

=------------------------------------------------------------------------------=
   JOB DONE.
=------------------------------------------------------------------------------=
Note: The following floating-point exceptions are signalling: IEEE_INVALID_FLAG
