
     Program PWSCF v.7.2 starts on 18Sep2026 at  8:32:19 

     This program is part of the open-source Quantum ESPRESSO suite
     for quantum simulation of materials; please cite
         "P. Giannozzi et al., J. Phys.:Condens. Matter 21 395502 (2009);
         "P. Giannozzi et al., J. Phys.:Condens. Matter 29 465901 (2017);
         "P. Giannozzi et al., J. Chem. Phys. 152 154105 (2020);
          URL http://www.quantum-espresso.org", 
     in publications or presentations arising from this work. More details at
     http://www.quantum-espresso.org/quote

     Parallel version (MPI), running on    32 processors

     MPI processes distributed on     1 nodes
     228792 MiB available memory on the printing compute node when the environment starts

     Waiting for input...
     Reading input from standard input

     Current dimensions of program PWSCF are:
     Max number of different atomic species (ntypx) = 10
     Max number of k-points (npk) =  40000
     Max angular momentum in pseudopotentials (lmaxx) =  4
     file Zr.pbe-spn-kjpaw_psl.1.0.0.UPF: wavefunction(s)  4S 4P renormalized
     file Cl.pbe-n-kjpaw_psl.1.0.0.UPF: wavefunction(s)  3S 3P renormalized
     file Br.pbe-n-kjpaw_psl.1.0.0.UPF: wavefunction(s)  4S 4P renormalized
     Message from routine setup:
     using ibrav=0 with symmetry is DISCOURAGED, use correct ibrav instead

     R & G space division:  proc/nbgrp/npool/nimage =      32
     Subspace diagonalization in iterative solution of the eigenvalue problem:
     a serial algorithm will be used


     Parallelization info
     --------------------
     sticks:   dense  smooth     PW     G-vecs:    dense   smooth      PW
     Min          24      24      7                 1592     1592     249
     Max          25      25      9                 1603     1603     257
     Sum         785     785    239                51097    51097    8071

     Using Slab Decomposition



     bravais-lattice index     =            0
     lattice parameter (alat)  =       6.6923  a.u.
     unit-cell volume          =     722.1347 (a.u.)^3
     number of atoms/cell      =            3
     number of atomic types    =            3
     number of electrons       =        26.00
     number of Kohn-Sham states=           26
     kinetic-energy cutoff     =      65.0000  Ry
     charge density cutoff     =     260.0000  Ry
     scf convergence threshold =      1.0E-08
     mixing beta               =       0.7000
     number of iterations used =            8  plain     mixing
     energy convergence thresh.=      1.0E-05
     force convergence thresh. =      1.0E-04
     Exchange-correlation= SLA  PW   PBX  PBC
                           (   1   4   3   4   0   0   0)
     nstep                     =           50


     celldm(1)=   6.692330  celldm(2)=   0.000000  celldm(3)=   0.000000
     celldm(4)=   0.000000  celldm(5)=   0.000000  celldm(6)=   0.000000

     crystal axes: (cart. coord. in units of alat)
               a(1) = (   1.000000   0.000000   0.000000 )  
               a(2) = (  -0.500000   0.853227   0.000000 )  
               a(3) = (   0.000000   0.000000   2.823719 )  

     reciprocal axes: (cart. coord. in units 2 pi/alat)
               b(1) = (  1.000000  0.586011 -0.000000 )  
               b(2) = (  0.000000  1.172021  0.000000 )  
               b(3) = (  0.000000 -0.000000  0.354143 )  


     PseudoPot. # 1 for Zr read from file:
     /mgpfs/home/rabdillah/repo/qe/pseudo/Zr.pbe-spn-kjpaw_psl.1.0.0.UPF
     MD5 check sum: 02112c41713a0468aff2bb39ef194e36
     Pseudo is Projector augmented-wave + core cor, Zval = 12.0
     Generated using &quot;atomic&quot; code by A. Dal Corso  v.6.2.2
     Shape of augmentation charge: PSQ
     Using radial grid of 1225 points,  6 beta functions with: 
                l(1) =   0
                l(2) =   0
                l(3) =   1
                l(4) =   1
                l(5) =   2
                l(6) =   2
     Q(r) pseudized with 0 coefficients 


     PseudoPot. # 2 for Cl read from file:
     /mgpfs/home/rabdillah/repo/qe/pseudo/Cl.pbe-n-kjpaw_psl.1.0.0.UPF
     MD5 check sum: 530da96d25dcb7781b0586ca00827062
     Pseudo is Projector augmented-wave + core cor, Zval =  7.0
     Generated using &quot;atomic&quot; code by A. Dal Corso  v.6.3
     Shape of augmentation charge: PSQ
     Using radial grid of 1157 points,  6 beta functions with: 
                l(1) =   0
                l(2) =   0
                l(3) =   1
                l(4) =   1
                l(5) =   2
                l(6) =   2
     Q(r) pseudized with 0 coefficients 


     PseudoPot. # 3 for Br read from file:
     /mgpfs/home/rabdillah/repo/qe/pseudo/Br.pbe-n-kjpaw_psl.1.0.0.UPF
     MD5 check sum: b00de77caabc69c0a6b76eb37264f235
     Pseudo is Projector augmented-wave + core cor, Zval =  7.0
     Generated using &quot;atomic&quot; code by A. Dal Corso  v.6.3
     Shape of augmentation charge: PSQ
     Using radial grid of 1213 points,  4 beta functions with: 
                l(1) =   0
                l(2) =   0
                l(3) =   1
                l(4) =   1
     Q(r) pseudized with 0 coefficients 


     atomic species   valence    mass     pseudopotential
        Zr            12.00    91.22400     Zr( 1.00)
        Cl             7.00    35.45300     Cl( 1.00)
        Br             7.00    79.90400     Br( 1.00)

      2 Sym. Ops. (no inversion) found



   Cartesian axes

     site n.     atom                  positions (alat units)
         1           Zr  tau(   1) = (   0.0000000   0.0000000   2.9018599  )
         2           Cl  tau(   2) = (  -0.0000000   0.5688180   3.3785208  )
         3           Br  tau(   3) = (  -0.0000000   0.5688180   2.3780312  )

     number of k points=    73
                       cart. coord. in units 2pi/alat
        k(    1) = (   0.0000000   0.0000000   0.0000000), wk =   0.0078125
        k(    2) = (   0.0000000   0.0732513   0.0000000), wk =   0.0156250
        k(    3) = (   0.0000000   0.1465026   0.0000000), wk =   0.0156250
        k(    4) = (   0.0000000   0.2197539   0.0000000), wk =   0.0156250
        k(    5) = (   0.0000000   0.2930053   0.0000000), wk =   0.0156250
        k(    6) = (   0.0000000   0.3662566   0.0000000), wk =   0.0156250
        k(    7) = (   0.0000000   0.4395079   0.0000000), wk =   0.0156250
        k(    8) = (   0.0000000   0.5127592   0.0000000), wk =   0.0156250
        k(    9) = (   0.0000000  -0.5860105   0.0000000), wk =   0.0078125
        k(   10) = (   0.0625000   0.0366257   0.0000000), wk =   0.0312500
        k(   11) = (   0.0625000   0.1098770   0.0000000), wk =   0.0312500
        k(   12) = (   0.0625000   0.1831283   0.0000000), wk =   0.0312500
        k(   13) = (   0.0625000   0.2563796   0.0000000), wk =   0.0312500
        k(   14) = (   0.0625000   0.3296309   0.0000000), wk =   0.0312500
        k(   15) = (   0.0625000   0.4028822   0.0000000), wk =   0.0312500
        k(   16) = (   0.0625000   0.4761336   0.0000000), wk =   0.0312500
        k(   17) = (   0.0625000   0.5493849   0.0000000), wk =   0.0312500
        k(   18) = (   0.1250000   0.0732513   0.0000000), wk =   0.0312500
        k(   19) = (   0.1250000   0.1465026   0.0000000), wk =   0.0312500
        k(   20) = (   0.1250000   0.2197539   0.0000000), wk =   0.0312500
        k(   21) = (   0.1250000   0.2930053   0.0000000), wk =   0.0312500
        k(   22) = (   0.1250000   0.3662566   0.0000000), wk =   0.0312500
        k(   23) = (   0.1250000   0.4395079   0.0000000), wk =   0.0312500
        k(   24) = (   0.1250000   0.5127592   0.0000000), wk =   0.0312500
        k(   25) = (   0.1250000   0.5860105   0.0000000), wk =   0.0156250
        k(   26) = (   0.1250000   0.0000000   0.0000000), wk =   0.0156250
        k(   27) = (   0.1875000   0.1098770   0.0000000), wk =   0.0312500
        k(   28) = (   0.1875000   0.1831283   0.0000000), wk =   0.0312500
        k(   29) = (   0.1875000   0.2563796   0.0000000), wk =   0.0312500
        k(   30) = (   0.1875000   0.3296309   0.0000000), wk =   0.0312500
        k(   31) = (   0.1875000   0.4028822   0.0000000), wk =   0.0312500
        k(   32) = (   0.1875000   0.4761336   0.0000000), wk =   0.0312500
        k(   33) = (   0.1875000   0.5493849   0.0000000), wk =   0.0312500
        k(   34) = (   0.1875000  -0.0366257   0.0000000), wk =   0.0312500
        k(   35) = (   0.2500000   0.1465026   0.0000000), wk =   0.0312500
        k(   36) = (   0.2500000   0.2197539   0.0000000), wk =   0.0312500
        k(   37) = (   0.2500000   0.2930053   0.0000000), wk =   0.0312500
        k(   38) = (   0.2500000   0.3662566   0.0000000), wk =   0.0312500
        k(   39) = (   0.2500000   0.4395079   0.0000000), wk =   0.0312500
        k(   40) = (   0.2500000   0.5127592   0.0000000), wk =   0.0312500
        k(   41) = (   0.2500000   0.5860105   0.0000000), wk =   0.0156250
        k(   42) = (   0.2500000  -0.0732513   0.0000000), wk =   0.0312500
        k(   43) = (   0.2500000   0.0000000   0.0000000), wk =   0.0156250
        k(   44) = (   0.3125000   0.1831283   0.0000000), wk =   0.0312500
        k(   45) = (   0.3125000   0.2563796   0.0000000), wk =   0.0312500
        k(   46) = (   0.3125000   0.3296309   0.0000000), wk =   0.0312500
        k(   47) = (   0.3125000   0.4028822   0.0000000), wk =   0.0312500
        k(   48) = (   0.3125000   0.4761336   0.0000000), wk =   0.0312500
        k(   49) = (   0.3125000   0.5493849   0.0000000), wk =   0.0312500
        k(   50) = (   0.3125000  -0.1098770   0.0000000), wk =   0.0312500
        k(   51) = (   0.3125000  -0.0366257   0.0000000), wk =   0.0312500
        k(   52) = (   0.3750000   0.2197539   0.0000000), wk =   0.0312500
        k(   53) = (   0.3750000   0.2930053   0.0000000), wk =   0.0312500
        k(   54) = (   0.3750000   0.3662566   0.0000000), wk =   0.0312500
        k(   55) = (   0.3750000   0.4395079   0.0000000), wk =   0.0312500
        k(   56) = (   0.3750000   0.5127592   0.0000000), wk =   0.0312500
        k(   57) = (   0.3750000   0.5860105   0.0000000), wk =   0.0156250
        k(   58) = (   0.3750000  -0.1465026   0.0000000), wk =   0.0312500
        k(   59) = (   0.3750000  -0.0732513   0.0000000), wk =   0.0312500
        k(   60) = (   0.3750000   0.0000000   0.0000000), wk =   0.0156250
        k(   61) = (   0.4375000   0.2563796   0.0000000), wk =   0.0312500
        k(   62) = (   0.4375000   0.3296309   0.0000000), wk =   0.0312500
        k(   63) = (   0.4375000   0.4028822   0.0000000), wk =   0.0312500
        k(   64) = (   0.4375000   0.4761336   0.0000000), wk =   0.0312500
        k(   65) = (   0.4375000   0.5493849   0.0000000), wk =   0.0312500
        k(   66) = (   0.4375000  -0.1831283   0.0000000), wk =   0.0312500
        k(   67) = (   0.4375000  -0.1098770   0.0000000), wk =   0.0312500
        k(   68) = (   0.4375000  -0.0366257   0.0000000), wk =   0.0312500
        k(   69) = (  -0.5000000  -0.2930053   0.0000000), wk =   0.0156250
        k(   70) = (  -0.5000000  -0.2197539   0.0000000), wk =   0.0312500
        k(   71) = (  -0.5000000  -0.1465026   0.0000000), wk =   0.0312500
        k(   72) = (  -0.5000000  -0.0732513   0.0000000), wk =   0.0312500
        k(   73) = (  -0.5000000   0.0000000   0.0000000), wk =   0.0156250

     Dense  grid:    51097 G-vectors     FFT dimensions: (  36,  36, 100)

     Estimated max dynamical RAM per process >      15.56 MB

     Estimated total dynamical RAM >     497.81 MB

     Check: negative core charge=   -0.000004

     Initial potential from superposition of free atoms

     starting charge      25.9978, renormalised to      26.0000

     negative rho (up, down):  3.717E-08 0.000E+00
     Starting wfcs are   21 randomized atomic wfcs +    5 random wfcs
     Checking if some PAW data can be deallocated... 

     total cpu time spent up to now is        1.1 secs

     Self-consistent Calculation

     iteration #  1     ecut=    65.00 Ry     beta= 0.70
     Davidson diagonalization with overlap
     ethr =  1.00E-02,  avg # of iterations =  6.4

     Threshold (ethr) on eigenvalues was too large:
     Diagonalizing with lowered threshold

     Davidson diagonalization with overlap
     ethr =  4.08E-04,  avg # of iterations =  2.4

     negative rho (up, down):  6.341E-07 0.000E+00

     total cpu time spent up to now is        5.1 secs

     total energy              =    -591.19126270 Ry
     estimated scf accuracy    <       0.10948475 Ry

     iteration #  2     ecut=    65.00 Ry     beta= 0.70
     Davidson diagonalization with overlap
     ethr =  4.21E-04,  avg # of iterations =  4.9

     total cpu time spent up to now is        7.4 secs

     total energy              =    -591.18781020 Ry
     estimated scf accuracy    <       0.27592513 Ry

     iteration #  3     ecut=    65.00 Ry     beta= 0.70
     Davidson diagonalization with overlap
     ethr =  4.21E-04,  avg # of iterations =  2.4

     total cpu time spent up to now is        9.2 secs

     total energy              =    -591.24200424 Ry
     estimated scf accuracy    <       0.00735513 Ry

     iteration #  4     ecut=    65.00 Ry     beta= 0.70
     Davidson diagonalization with overlap
     ethr =  2.83E-05,  avg # of iterations =  5.6

     negative rho (up, down):  1.286E-08 0.000E+00

     total cpu time spent up to now is       11.0 secs

     total energy              =    -591.24369559 Ry
     estimated scf accuracy    <       0.00040946 Ry

     iteration #  5     ecut=    65.00 Ry     beta= 0.70
     Davidson diagonalization with overlap
     ethr =  1.57E-06,  avg # of iterations =  5.7

     negative rho (up, down):  2.038E-08 0.000E+00

     total cpu time spent up to now is       13.2 secs

     total energy              =    -591.24376715 Ry
     estimated scf accuracy    <       0.00000995 Ry

     iteration #  6     ecut=    65.00 Ry     beta= 0.70
     Davidson diagonalization with overlap
     ethr =  3.83E-08,  avg # of iterations =  2.0

     negative rho (up, down):  2.586E-08 0.000E+00

     total cpu time spent up to now is       14.8 secs

     total energy              =    -591.24376843 Ry
     estimated scf accuracy    <       0.00000227 Ry

     iteration #  7     ecut=    65.00 Ry     beta= 0.70
     Davidson diagonalization with overlap
     ethr =  8.74E-09,  avg # of iterations =  2.0

     negative rho (up, down):  2.857E-08 0.000E+00

     total cpu time spent up to now is       16.3 secs

     total energy              =    -591.24376904 Ry
     estimated scf accuracy    <       0.00000216 Ry

     iteration #  8     ecut=    65.00 Ry     beta= 0.70
     Davidson diagonalization with overlap
     ethr =  8.29E-09,  avg # of iterations =  1.2

     negative rho (up, down):  2.966E-08 0.000E+00

     total cpu time spent up to now is       17.7 secs

     total energy              =    -591.24376945 Ry
     estimated scf accuracy    <       0.00000001 Ry

     iteration #  9     ecut=    65.00 Ry     beta= 0.70
     Davidson diagonalization with overlap
     ethr =  4.69E-11,  avg # of iterations =  2.6

     negative rho (up, down):  2.983E-08 0.000E+00

     total cpu time spent up to now is       19.4 secs

     End of self-consistent calculation

          k = 0.0000 0.0000 0.0000 (  6443 PWs)   bands (ev):

   -44.9648 -23.1869 -22.8173 -22.7981 -12.7368 -12.1875  -2.0961  -0.0460
     0.1389   0.2020   1.2965   1.3731   4.2540   5.8432   5.9861   6.5493
     6.6279   6.7057   8.3304   9.3528  11.3180  13.4250  13.6481  13.8561
    14.5664  15.0930

          k = 0.0000 0.0733 0.0000 (  6449 PWs)   bands (ev):

   -44.9635 -23.1831 -22.8206 -22.8130 -12.7116 -12.1758  -2.0517  -0.1110
     0.1259   0.1474   1.2145   1.2598   4.2583   5.8783   5.9181   6.5853
     6.6094   6.8871   8.4584   9.5909  11.3822  13.1379  13.5525  14.2669
    14.6005  14.8243

          k = 0.0000 0.1465 0.0000 (  6425 PWs)   bands (ev):

   -44.9600 -23.1723 -22.8549 -22.8299 -12.6402 -12.1409  -1.9268  -0.3356
     0.0314   0.0845   0.8238   1.1640   4.2462   5.7983   5.9910   6.5361
     6.7693   7.3275   8.8136  10.1555  11.5731  12.5602  13.9157  14.0153
    14.4706  14.8658

          k = 0.0000 0.2198 0.0000 (  6389 PWs)   bands (ev):

   -44.9546 -23.1560 -22.9169 -22.8437 -12.5358 -12.0833  -1.7470  -0.6937
    -0.1635   0.0113   0.4054   1.0412   4.1657   5.7885   6.1967   6.5658
     6.9803   7.8390   9.3108  10.7459  11.7989  12.1561  13.5107  14.2805
    14.4422  15.1407

          k = 0.0000 0.2930 0.0000 (  6385 PWs)   bands (ev):

   -44.9483 -23.1368 -22.9890 -22.8600 -12.4188 -12.0042  -1.5640  -1.0866
    -0.5435  -0.0889   0.1792   0.9210   4.0211   5.9689   6.5023   6.6726
     7.1904   8.3153   9.7389  11.1376  11.7335  12.0180  13.6930  14.0034
    14.8998  14.9928

          k = 0.0000 0.3663 0.0000 (  6391 PWs)   bands (ev):

   -44.9420 -23.1175 -23.0597 -22.8762 -12.3115 -11.9092  -1.6038  -1.2678
    -0.9723  -0.1994   0.0948   0.8199   3.8851   6.2981   6.8148   6.8907
     7.3634   8.7358   9.8792  11.2304  11.6314  11.9930  13.6966  14.2741
    14.6231  14.7230

          k = 0.0000 0.4395 0.0000 (  6376 PWs)   bands (ev):

   -44.9366 -23.1195 -23.1005 -22.8899 -12.2300 -11.8136  -1.8965  -1.3691
    -1.1276  -0.2978   0.0615   0.7443   3.8084   6.6678   6.9708   7.3048
     7.4881   9.0879   9.8104  11.0539  11.6767  11.9981  13.2188  14.1362
    14.2239  14.5825

          k = 0.0000 0.5128 0.0000 (  6396 PWs)   bands (ev):

   -44.9331 -23.1583 -23.0898 -22.8990 -12.1803 -11.7417  -2.1119  -1.5820
    -1.0652  -0.3648   0.0503   0.6975   3.7861   6.8803   7.1942   7.5359
     7.6711   9.3275   9.7127  10.9046  11.6707  12.0214  12.6917  13.6304
    14.0644  14.3493

          k = 0.0000-0.5860 0.0000 (  6374 PWs)   bands (ev):

   -44.9318 -23.1719 -23.0859 -22.9022 -12.1636 -11.7150  -2.1886  -1.6570
    -1.0423  -0.3885   0.0480   0.6816   3.7847   6.9261   7.3259   7.5630
     7.8050   9.3921   9.6968  10.8563  11.6036  12.0739  12.4968  13.4316
    13.9547  14.2245

          k = 0.0625 0.0366 0.0000 (  6429 PWs)   bands (ev):

   -44.9636 -23.1833 -22.8295 -22.8033 -12.7124 -12.1765  -2.0528  -0.1210
     0.1049   0.1809   1.1562   1.3257   4.2545   5.8031   6.0022   6.5301
     6.6731   6.8847   8.4507   9.5799  11.3800  13.0511  13.7142  14.2098
    14.5695  14.7249

          k = 0.0625 0.1099 0.0000 (  6435 PWs)   bands (ev):

   -44.9612 -23.1760 -22.8483 -22.8191 -12.6641 -12.1532  -1.9680  -0.2640
     0.0375   0.1349   0.9187   1.2230   4.2507   5.7791   6.0073   6.5241
     6.7444   7.1946   8.6929   9.9810  11.5097  12.6923  13.7962  14.1867
    14.5244  14.7335

          k = 0.0625 0.1831 0.0000 (  6415 PWs)   bands (ev):

   -44.9567 -23.1624 -22.8945 -22.8364 -12.5761 -12.1069  -1.8145  -0.5498
    -0.0981   0.0564   0.5355   1.0905   4.2089   5.7226   6.1614   6.5414
     6.9116   7.6654   9.1252  10.5525  11.7682  12.2631  13.5812  14.0485
    14.5632  15.0814

          k = 0.0625 0.2564 0.0000 (  6399 PWs)   bands (ev):

   -44.9509 -23.1447 -22.9585 -22.8545 -12.4654 -12.0384  -1.6263  -0.9209
    -0.3510  -0.1043   0.2647   0.9468   4.1037   5.7900   6.4409   6.6345
     7.1086   8.1537   9.6068  11.0200  11.8788  12.0987  13.3472  14.0000
    14.7740  15.0761

          k = 0.0625 0.3296 0.0000 (  6396 PWs)   bands (ev):

   -44.9446 -23.1254 -23.0276 -22.8730 -12.3538 -11.9503  -1.5000  -1.2475
    -0.7714  -0.2330   0.1553   0.8101   3.9759   6.0267   6.7448   6.8494
     7.2856   8.6067   9.8833  11.2712  11.7626  12.0295  13.7058  13.9499
    14.5518  14.8604

          k = 0.0625 0.4029 0.0000 (  6391 PWs)   bands (ev):

   -44.9388 -23.1078 -23.0904 -22.8898 -12.2608 -11.8529  -1.7316  -1.2557
    -1.1244  -0.3260   0.0961   0.6953   3.8875   6.3886   6.9064   7.2447
     7.4197   9.0172   9.8797  11.2357  11.7185  12.0286  13.4824  13.9625
    14.3916  14.6738

          k = 0.0625 0.4761 0.0000 (  6381 PWs)   bands (ev):

   -44.9343 -23.1387 -23.0935 -22.9026 -12.1966 -11.7669  -1.9900  -1.4854
    -1.0882  -0.3915   0.0625   0.6132   3.8567   6.7776   7.0502   7.4720
     7.6044   9.3604   9.7706  11.0834  11.7404  12.0176  12.8882  13.5936
    14.2879  14.5485

          k = 0.0625 0.5494 0.0000 (  6375 PWs)   bands (ev):

   -44.9319 -23.1643 -23.0861 -22.9094 -12.1642 -11.7163  -2.1338  -1.6328
    -1.0423  -0.4261   0.0479   0.5705   3.8573   6.9721   7.2522   7.5096
     7.7454   9.4609   9.8165  10.9967  11.6911  12.0636  12.4572  13.3301
    14.1565  14.2884

          k = 0.1250 0.0733 0.0000 (  6425 PWs)   bands (ev):

   -44.9603 -23.1729 -22.8681 -22.8135 -12.6434 -12.1437  -1.9311  -0.3593
     0.0117   0.1369   0.7803   1.2345   4.2309   5.7234   6.0966   6.5069
     6.8203   7.3209   8.7886  10.1274  11.5622  12.5162  13.9530  14.0558
    14.4321  14.8014

          k = 0.1250 0.1465 0.0000 (  6418 PWs)   bands (ev):

   -44.9570 -23.1629 -22.9006 -22.8279 -12.5784 -12.1091  -1.8175  -0.5650
    -0.1018   0.0800   0.5162   1.1327   4.1951   5.7072   6.1991   6.5267
     6.9377   7.6617   9.1098  10.5385  11.7561  12.2445  13.5612  14.0548
    14.5975  15.0455

          k = 0.1250 0.2198 0.0000 (  6400 PWs)   bands (ev):

   -44.9520 -23.1478 -22.9497 -22.8486 -12.4841 -12.0519  -1.6517  -0.8554
    -0.2806  -0.1212   0.3000   0.9712   4.1358   5.6961   6.4643   6.6187
     7.0912   8.1024   9.5446  10.9682  12.0061  12.1330  13.1132  13.8957
    14.7885  14.9740

          k = 0.1250 0.2930 0.0000 (  6406 PWs)   bands (ev):

   -44.9462 -23.1300 -23.0073 -22.8724 -12.3792 -11.9733  -1.4752  -1.1779
    -0.6058  -0.3301   0.1989   0.7805   4.0650   5.7969   6.7477   6.8719
     7.2432   8.5646   9.8915  11.2676  11.9619  12.3026  13.1112  13.7195
    14.4832  14.8625

          k = 0.1250 0.3663 0.0000 (  6386 PWs)   bands (ev):

   -44.9404 -23.1122 -23.0642 -22.8958 -12.2836 -11.8800  -1.5498  -1.2582
    -1.0012  -0.4351   0.1271   0.5891   4.0160   6.0462   6.9236   7.2606
     7.3956   9.0261   9.9722  11.4230  11.9736  12.1474  13.4936  13.6628
    13.9354  14.6980

          k = 0.1250 0.4395 0.0000 (  6376 PWs)   bands (ev):

   -44.9354 -23.1127 -23.0965 -22.9154 -12.2106 -11.7879  -1.8075  -1.3568
    -1.1155  -0.4946   0.0713   0.4247   4.0120   6.4174   7.0653   7.4145
     7.6562   9.4951   9.8678  11.4115  11.8973  12.0674  12.9934  13.5430
    14.3501  14.6106

          k = 0.1250 0.5128 0.0000 (  6364 PWs)   bands (ev):

   -44.9321 -23.1441 -23.0866 -22.9285 -12.1658 -11.7198  -1.9847  -1.5662
    -1.0454  -0.5231   0.0368   0.3127   4.0373   6.8283   7.1679   7.4562
     7.7490   9.6484  10.0270  11.3556  11.8120  12.0504  12.4777  13.3409
    14.3090  14.5175

          k = 0.1250 0.5860 0.0000 (  6374 PWs)   bands (ev):

   -44.9310 -23.1551 -23.0830 -22.9331 -12.1506 -11.6946  -2.0473  -1.6392
    -1.0219  -0.5311   0.0254   0.2727   4.0527   7.0341   7.2521   7.4565
     7.6848   9.5660  10.2838  11.3396  11.8048  12.0858  12.1415  13.2752
    14.2814  14.3527

          k = 0.1250 0.0000 0.0000 (  6413 PWs)   bands (ev):

   -44.9614 -23.1764 -22.8568 -22.8081 -12.6664 -12.1553  -1.9713  -0.2786
     0.0335   0.1593   0.8954   1.2643   4.2430   5.7150   6.0918   6.5131
     6.7749   7.1897   8.6728   9.9578  11.5051  12.6498  13.9454  14.1389
    14.4452  14.7061

          k = 0.1875 0.1099 0.0000 (  6419 PWs)   bands (ev):

   -44.9553 -23.1574 -22.9273 -22.8266 -12.5423 -12.0897  -1.7554  -0.7180
    -0.1809   0.0686   0.3786   1.1219   4.1364   5.7486   6.2864   6.5543
     7.0218   7.8311   9.2710  10.7149  11.7750  12.1241  13.4810  14.2166
    14.5732  15.0577

          k = 0.1875 0.1831 0.0000 (  6403 PWs)   bands (ev):

   -44.9515 -23.1458 -22.9659 -22.8412 -12.4710 -12.0443  -1.6331  -0.9418
    -0.3691  -0.0664   0.2598   1.0165   4.0744   5.7866   6.4841   6.6211
     7.1425   8.1491   9.5810  11.0024  11.8613  12.0644  13.3303  13.9422
    14.8334  15.0427

          k = 0.1875 0.2564 0.0000 (  6398 PWs)   bands (ev):

   -44.9466 -23.1307 -23.0107 -22.8654 -12.3824 -11.9772  -1.4788  -1.1890
    -0.6177  -0.3117   0.2044   0.8166   4.0483   5.8017   6.7447   6.8837
     7.2586   8.5640   9.8813  11.2589  11.9497  12.3072  13.0903  13.6789
    14.5045  14.8413

          k = 0.1875 0.3296 0.0000 (  6399 PWs)   bands (ev):

   -44.9412 -23.1144 -23.0548 -22.8954 -12.2941 -11.8924  -1.4547  -1.2930
    -0.9278  -0.4892   0.1251   0.5665   4.0716   5.9028   6.9336   7.2641
     7.4167   9.0353  10.0164  11.4661  12.1747  12.3901  13.1708  13.4758
    13.6530  14.7672

          k = 0.1875 0.4029 0.0000 (  6386 PWs)   bands (ev):

   -44.9363 -23.0999 -23.0918 -22.9258 -12.2202 -11.8019  -1.6529  -1.2450
    -1.1529  -0.5836   0.0202   0.3279   4.1416   6.1334   7.0627   7.4401
     7.7157   9.5637   9.9829  11.6139  12.1054  12.2673  13.0065  13.4190
    13.9570  14.5222

          k = 0.1875 0.4761 0.0000 (  6372 PWs)   bands (ev):

   -44.9325 -23.1198 -23.0873 -22.9504 -12.1683 -11.7247  -1.8003  -1.4815
    -1.0585  -0.6278  -0.0829   0.1506   4.2355   6.4747   7.1060   7.5805
     7.8027   9.8662  10.1713  11.6368  11.7614  12.2282  12.7799  13.5248
    14.2638  14.4997

          k = 0.1875 0.5494 0.0000 (  6373 PWs)   bands (ev):

   -44.9304 -23.1338 -23.0811 -22.9642 -12.1417 -11.6803  -1.8771  -1.6110
    -1.0103  -0.6433  -0.1475   0.0588   4.3050   6.8206   7.1197   7.6339
     7.6758   9.7489  10.7250  11.5214  11.7865  12.2303  12.3669  13.4450
    14.3310  14.4392

          k = 0.1875-0.0366 0.0000 (  6423 PWs)   bands (ev):

   -44.9573 -23.1636 -22.9038 -22.8212 -12.5820 -12.1124  -1.8221  -0.5665
    -0.0970   0.0856   0.5229   1.1428   4.1922   5.6700   6.2537   6.5529
     6.9335   7.6579   9.0838  10.5176  11.7552  12.2454  13.5594  14.1423
    14.5348  15.0313

          k = 0.2500 0.1465 0.0000 (  6405 PWs)   bands (ev):

   -44.9494 -23.1389 -22.9966 -22.8415 -12.4288 -12.0156  -1.5758  -1.1062
    -0.5607  -0.0238   0.1646   1.0118   3.9849   5.9506   6.5711   6.6725
     7.2261   8.3091   9.6994  11.1119  11.7135  11.9885  13.6590  13.9173
    14.8777  15.0290

          k = 0.2500 0.2198 0.0000 (  6381 PWs)   bands (ev):

   -44.9456 -23.1274 -23.0342 -22.8563 -12.3628 -11.9614  -1.5120  -1.2656
    -0.7889  -0.1878   0.1601   0.8984   3.9383   6.0280   6.7480   6.8789
     7.3202   8.6051   9.8560  11.2488  11.7531  12.0115  13.6305  13.8724
    14.5473  14.8727

          k = 0.2500 0.2930 0.0000 (  6398 PWs)   bands (ev):

   -44.9411 -23.1138 -23.0690 -22.8834 -12.2902 -11.8890  -1.5640  -1.2657
    -1.0128  -0.4052   0.1362   0.6506   3.9882   6.0498   6.9227   7.2813
     7.4153   9.0293   9.9513  11.4083  11.9881  12.1529  13.4311  13.6926
    13.8632  14.6445

          k = 0.2500 0.3663 0.0000 (  6381 PWs)   bands (ev):

   -44.9367 -23.1008 -23.0941 -22.9193 -12.2237 -11.8070  -1.6609  -1.2457
    -1.1580  -0.5691   0.0297   0.3513   4.1286   6.1321   7.0662   7.4484
     7.7243   9.5660   9.9687  11.6092  12.1138  12.3020  13.0641  13.3375
    13.8987  14.4795

          k = 0.2500 0.4395 0.0000 (  6367 PWs)   bands (ev):

   -44.9329 -23.1091 -23.0881 -22.9576 -12.1716 -11.7303  -1.7099  -1.4367
    -1.0728  -0.6666  -0.1849   0.1395   4.3232   6.3084   7.0688   7.6653
     7.8330   9.9536  10.2216  11.5765  11.8519  12.4663  13.0563  13.5306
    14.1360  14.2509

          k = 0.2500 0.5128 0.0000 (  6366 PWs)   bands (ev):

   -44.9303 -23.1124 -23.0804 -22.9890 -12.1387 -11.6755  -1.7185  -1.5630
    -1.0108  -0.7335  -0.3914   0.0317   4.5039   6.5566   7.0274   7.6579
     7.8551   9.9517  10.7794  11.3767  12.0175  12.5347  12.8863  13.6094
    14.1417  14.3999

          k = 0.2500 0.5860 0.0000 (  6382 PWs)   bands (ev):

   -44.9295 -23.1118 -23.0777 -23.0019 -12.1274 -11.6556  -1.7224  -1.5963
    -0.9890  -0.7696  -0.4631  -0.0045   4.5798   6.7220   7.0075   7.4887
     7.9251   9.9410  10.8483  11.6845  12.1246  12.5383  12.5565  13.4628
    14.4035  14.4294

          k = 0.2500-0.0733 0.0000 (  6410 PWs)   bands (ev):

   -44.9519 -23.1467 -22.9652 -22.8378 -12.4750 -12.0485  -1.6380  -0.9319
    -0.3585  -0.0591   0.2619   1.0069   4.0821   5.7639   6.5101   6.6619
     7.1225   8.1461   9.5577  10.9915  11.8740  12.0774  13.3479  13.9913
    14.7896  15.0331

          k = 0.2500 0.0000 0.0000 (  6447 PWs)   bands (ev):

   -44.9528 -23.1494 -22.9523 -22.8384 -12.4916 -12.0595  -1.6610  -0.8507
    -0.2718  -0.1039   0.3081   0.9835   4.1342   5.6667   6.5162   6.6725
     7.0734   8.0962   9.5006  10.9444  12.0242  12.1340  13.1298  13.9435
    14.7490  14.9536

          k = 0.3125 0.1831 0.0000 (  6396 PWs)   bands (ev):

   -44.9435 -23.1205 -23.0649 -22.8562 -12.3247 -11.9263  -1.6177  -1.2809
    -0.9818  -0.1257   0.0809   0.9190   3.8475   6.2905   6.8218   6.9330
     7.3973   8.7344   9.8406  11.2193  11.6212  11.9672  13.5884  14.1991
    14.5176  14.8612

          k = 0.3125 0.2564 0.0000 (  6383 PWs)   bands (ev):

   -44.9402 -23.1106 -23.0955 -22.8707 -12.2729 -11.8698  -1.7488  -1.2618
    -1.1375  -0.2702   0.0980   0.7949   3.8469   6.3846   6.9105   7.2752
     7.4522   9.0233   9.8377  11.2387  11.7131  12.0084  13.3812  13.9866
    14.3555  14.6114

          k = 0.3125 0.3296 0.0000 (  6381 PWs)   bands (ev):

   -44.9366 -23.1168 -23.0990 -22.8995 -12.2206 -11.8026  -1.8233  -1.3576
    -1.1254  -0.4529   0.0762   0.5008   3.9796   6.4096   7.0733   7.4382
     7.6775   9.5069   9.8233  11.4287  11.9058  12.0664  13.0166  13.4841
    14.2868  14.5277

          k = 0.3125 0.4029 0.0000 (  6380 PWs)   bands (ev):

   -44.9333 -23.1229 -23.0890 -22.9392 -12.1752 -11.7354  -1.8106  -1.4781
    -1.0643  -0.6006  -0.0610   0.1757   4.2170   6.4604   7.1129   7.5994
     7.8179   9.8182  10.1911  11.6574  11.7910  12.2586  12.7702  13.4837
    14.2106  14.4441

          k = 0.3125 0.4761 0.0000 (  6370 PWs)   bands (ev):

   -44.9308 -23.1141 -23.0813 -22.9833 -12.1421 -11.6810  -1.7205  -1.5601
    -1.0139  -0.7207  -0.3740   0.0309   4.4992   6.5430   7.0290   7.6636
     7.8690   9.9201  10.8061  11.3904  12.0248  12.5587  12.8364  13.6548
    14.1238  14.3834

          k = 0.3125 0.5494 0.0000 (  6373 PWs)   bands (ev):

   -44.9294 -23.0965 -23.0771 -23.0201 -12.1247 -11.6505  -1.6812  -1.5039
    -0.9824  -0.8873  -0.5602  -0.0274   4.7123   6.6242   6.9617   7.4330
     8.0471  10.0789  10.6453  11.9951  12.2284  12.7333  12.8628  13.1876
    14.2960  14.5198

          k = 0.3125-0.1099 0.0000 (  6395 PWs)   bands (ev):

   -44.9460 -23.1282 -23.0316 -22.8550 -12.3667 -11.9660  -1.5107  -1.2559
    -0.7735  -0.1750   0.1489   0.8791   3.9538   6.0201   6.7790   6.8820
     7.2999   8.6005   9.8440  11.2537  11.7617  12.0172  13.6669  13.9202
    14.4854  14.8704

          k = 0.3125-0.0366 0.0000 (  6403 PWs)   bands (ev):

   -44.9474 -23.1324 -23.0081 -22.8599 -12.3902 -11.9861  -1.4867  -1.1680
    -0.5936  -0.2959   0.1997   0.7984   4.0659   5.7846   6.8076   6.8997
     7.2229   8.5559   9.8512  11.2536  11.9800  12.3230  13.1313  13.7431
    14.4007  14.8179

          k = 0.3750 0.2198 0.0000 (  6380 PWs)   bands (ev):

   -44.9385 -23.1225 -23.1043 -22.8686 -12.2457 -11.8363  -1.9086  -1.3654
    -1.1413  -0.2164   0.0447   0.8498   3.7694   6.6702   6.9824   7.3169
     7.5209   9.0924   9.7521  11.0841  11.6499  11.9650  13.1186  14.1271
    14.2945  14.4984

          k = 0.3750 0.2930 0.0000 (  6382 PWs)   bands (ev):

   -44.9361 -23.1420 -23.0971 -22.8819 -12.2114 -11.7891  -2.0047  -1.4806
    -1.0997  -0.3239   0.0558   0.7174   3.8155   6.7714   7.0566   7.5053
     7.6224   9.3695   9.7076  11.1297  11.7101  11.9758  12.8256  13.6766
    14.2282  14.4886

          k = 0.3750 0.3663 0.0000 (  6375 PWs)   bands (ev):

   -44.9336 -23.1470 -23.0897 -22.9106 -12.1785 -11.7395  -1.9969  -1.5581
    -1.0540  -0.4696   0.0317   0.3932   4.0058   6.8083   7.1760   7.4875
     7.7689   9.5943  10.0328  11.4211  11.8033  12.0175  12.4582  13.3485
    14.2508  14.4931

          k = 0.3750 0.4395 0.0000 (  6369 PWs)   bands (ev):

   -44.9316 -23.1360 -23.0835 -22.9506 -12.1515 -11.6958  -1.8822  -1.5994
    -1.0166  -0.6065  -0.1139   0.0677   4.2901   6.7924   7.1215   7.6510
     7.7048   9.6910  10.7485  11.5629  11.8562  12.2097  12.3019  13.4614
    14.2918  14.4448

          k = 0.3750 0.5128 0.0000 (  6380 PWs)   bands (ev):

   -44.9302 -23.1126 -23.0793 -22.9937 -12.1338 -11.6660  -1.7149  -1.5857
    -0.9934  -0.7521  -0.4404  -0.0142   4.5826   6.7007   7.0069   7.4766
     7.9548   9.8952  10.8996  11.6643  12.1534  12.5051  12.5625  13.5544
    14.4016  14.4236

          k = 0.3750 0.5860 0.0000 (  6374 PWs)   bands (ev):

   -44.9297 -23.0953 -23.0779 -23.0180 -12.1276 -11.6554  -1.6724  -1.4900
    -0.9833  -0.8900  -0.5551  -0.0348   4.7218   6.6197   6.9609   7.4084
     8.0625  10.0598  10.6679  11.9167  12.2565  12.7667  12.9158  13.2063
    14.2411  14.5533

          k = 0.3750-0.1465 0.0000 (  6397 PWs)   bands (ev):

   -44.9405 -23.1113 -23.0926 -22.8704 -12.2761 -11.8741  -1.7353  -1.2584
    -1.1285  -0.2555   0.0818   0.7742   3.8641   6.3952   6.9366   7.2434
     7.4388   9.0155   9.8348  11.2546  11.7111  12.0071  13.4030  13.9282
    14.3672  14.6820

          k = 0.3750-0.0733 0.0000 (  6390 PWs)   bands (ev):

   -44.9419 -23.1153 -23.0637 -22.8814 -12.2971 -11.8981  -1.5396  -1.2678
    -0.9846  -0.3897   0.1218   0.6176   4.0167   6.0470   6.9809   7.2514
     7.3828   9.0162   9.9419  11.4280  11.9997  12.1547  13.4952  13.6208
    13.9432  14.6530

          k = 0.3750 0.0000 0.0000 (  6409 PWs)   bands (ev):

   -44.9424 -23.1168 -23.0506 -22.8882 -12.3047 -11.9063  -1.4275  -1.3016
    -0.8965  -0.4654   0.1163   0.5490   4.0947   5.8953   7.0102   7.2331
     7.3882   9.0206   9.9968  11.4741  12.1909  12.4437  13.1924  13.4750
    13.6491  14.7292

          k = 0.4375 0.2564 0.0000 (  6377 PWs)   bands (ev):

   -44.9351 -23.1601 -23.0940 -22.8768 -12.1977 -11.7683  -2.1223  -1.5713
    -1.0765  -0.2782   0.0306   0.8070   3.7448   6.8963   7.2080   7.5691
     7.6540   9.3064   9.6580  10.9651  11.6268  11.9548  12.6193  13.8062
    14.0190  14.2780

          k = 0.4375 0.3296 0.0000 (  6366 PWs)   bands (ev):

   -44.9339 -23.1662 -23.0902 -22.8880 -12.1808 -11.7421  -2.1444  -1.6210
    -1.0521  -0.3488   0.0323   0.6737   3.8179   6.9864   7.2512   7.5428
     7.7404   9.4030   9.8017  11.0699  11.6384  11.9870  12.4271  13.4275
    14.1453  14.2476

          k = 0.4375 0.4029 0.0000 (  6371 PWs)   bands (ev):

   -44.9327 -23.1564 -23.0866 -22.9147 -12.1653 -11.7177  -2.0525  -1.6238
    -1.0303  -0.4692   0.0118   0.3472   4.0275   7.0323   7.2503   7.4951
     7.6768   9.4968  10.2865  11.4345  11.7818  12.0606  12.1029  13.2897
    14.2211  14.3945

          k = 0.4375 0.4761 0.0000 (  6378 PWs)   bands (ev):

   -44.9318 -23.1337 -23.0840 -22.9507 -12.1535 -11.6991  -1.8706  -1.5910
    -1.0173  -0.6026  -0.1166   0.0531   4.3013   6.8122   7.1229   7.6060
     7.7088   9.6922  10.7159  11.5550  11.8939  12.1922  12.3466  13.4479
    14.3017  14.4667

          k = 0.4375 0.5494 0.0000 (  6377 PWs)   bands (ev):

   -44.9313 -23.1097 -23.0825 -22.9823 -12.1470 -11.6890  -1.6962  -1.5390
    -1.0161  -0.7157  -0.3824   0.0134   4.5213   6.5505   7.0293   7.5947
     7.8933   9.9170  10.7806  11.3503  12.0812  12.5571  12.9415  13.6172
    14.1324  14.3882

          k = 0.4375-0.1831 0.0000 (  6386 PWs)   bands (ev):

   -44.9363 -23.1397 -23.0976 -22.8820 -12.2134 -11.7922  -1.9941  -1.4724
    -1.1004  -0.3120   0.0422   0.7021   3.8286   6.7937   7.0779   7.4960
     7.5751   9.3504   9.7119  11.1409  11.7167  11.9756  12.8304  13.6343
    14.2541  14.5354

          k = 0.4375-0.1099 0.0000 (  6391 PWs)   bands (ev):

   -44.9372 -23.1118 -23.1000 -22.8992 -12.2257 -11.8101  -1.7980  -1.3377
    -1.1263  -0.4382   0.0605   0.4678   4.0069   6.4262   7.1041   7.4310
     7.6095   9.4844   9.8235  11.4628  11.9031  12.0554  13.0187  13.4892
    14.3192  14.5987

          k = 0.4375-0.0366 0.0000 (  6394 PWs)   bands (ev):

   -44.9377 -23.1023 -23.0880 -22.9164 -12.2324 -11.8197  -1.6239  -1.2188
    -1.1588  -0.5509   0.0147   0.3168   4.1621   6.1325   7.1036   7.4458
     7.6581   9.5422   9.9637  11.6452  12.0916  12.3247  13.0597  13.4046
    13.9588  14.4901

          k =-0.5000-0.2930 0.0000 (  6372 PWs)   bands (ev):

   -44.9340 -23.1732 -23.0903 -22.8797 -12.1817 -11.7430  -2.1984  -1.6438
    -1.0525  -0.3001   0.0272   0.7924   3.7424   6.9459   7.3455   7.6004
     7.7703   9.3226   9.6798  10.9279  11.5480  11.9867  12.4383  13.6206
    13.9377  14.1564

          k =-0.5000-0.2198 0.0000 (  6370 PWs)   bands (ev):

   -44.9340 -23.1653 -23.0903 -22.8881 -12.1815 -11.7432  -2.1405  -1.6181
    -1.0524  -0.3443   0.0271   0.6681   3.8227   6.9922   7.2755   7.5412
     7.7065   9.3891   9.8049  11.0736  11.6511  11.9869  12.4228  13.4163
    14.1551  14.2603

          k =-0.5000-0.1465 0.0000 (  6372 PWs)   bands (ev):

   -44.9340 -23.1439 -23.0904 -22.9108 -12.1812 -11.7438  -1.9817  -1.5468
    -1.0552  -0.4601   0.0219   0.3727   4.0223   6.8387   7.1890   7.4932
     7.6957   9.5841  10.0141  11.4451  11.8206  12.0053  12.4724  13.3356
    14.2654  14.5343

          k =-0.5000-0.0733 0.0000 (  6379 PWs)   bands (ev):

   -44.9340 -23.1172 -23.0904 -22.9387 -12.1809 -11.7443  -1.7804  -1.4547
    -1.0672  -0.5888  -0.0721   0.1427   4.2456   6.4759   7.1203   7.6189
     7.7322   9.8219  10.1484  11.6667  11.8240  12.2384  12.8345  13.4809
    14.2441  14.4973

          k =-0.5000 0.0000 0.0000 (  6383 PWs)   bands (ev):

   -44.9340 -23.1033 -23.0903 -22.9532 -12.1808 -11.7446  -1.6742  -1.4057
    -1.0795  -0.6461  -0.1957   0.1138   4.3526   6.3081   7.0785   7.6891
     7.7566   9.9442  10.1813  11.5744  11.9004  12.5001  13.1447  13.5162
    14.1318  14.2634

     highest occupied, lowest unoccupied level (ev):     4.7218    5.6667

!    total energy              =    -591.24376945 Ry
     total all-electron energy =    -13333.877046 Ry
     estimated scf accuracy    <          7.1E-10 Ry

     The total energy is the sum of the following terms:
     one-electron contribution =    -202.94118961 Ry
     hartree contribution      =     109.24845256 Ry
     xc contribution           =     -37.58095264 Ry
     ewald contribution        =     -28.85502972 Ry
     one-center paw contrib.   =    -431.11505004 Ry

     convergence has been achieved in   9 iterations

     negative rho (up, down):  2.983E-08 0.000E+00

     Forces acting on atoms (cartesian axes, Ry/au):

     atom    1 type  1   force =     0.00000000   -0.00191614   -0.00008238
     atom    2 type  2   force =     0.00000000    0.00089987   -0.00296425
     atom    3 type  3   force =     0.00000000    0.00101627    0.00304663
     The non-local contrib.  to forces
     atom    1 type  1   force =     0.00000000   -0.00257681   -0.00067802
     atom    2 type  2   force =     0.00000000   -0.00110898   -0.21389598
     atom    3 type  3   force =     0.00000000   -0.00095670    0.21036734
     The ionic contribution  to forces
     atom    1 type  1   force =    -0.00000001   -0.12377913   -0.31443233
     atom    2 type  2   force =     0.00000000    0.06984253   20.82166259
     atom    3 type  3   force =     0.00000000    0.05393660  -20.50723026
     The local contribution  to forces
     atom    1 type  1   force =    -0.00000000    0.12438147    0.31466368
     atom    2 type  2   force =     0.00000003   -0.06778649  -20.61885515
     atom    3 type  3   force =    -0.00000000   -0.05182606   20.30387265
     The core correction contribution to forces
     atom    1 type  1   force =    -0.00000000    0.00005811    0.00038262
     atom    2 type  2   force =    -0.00000000   -0.00004862    0.00816832
     atom    3 type  3   force =    -0.00000000   -0.00013805   -0.00388924
     The Hubbard contrib.    to forces
     atom    1 type  1   force =     0.00000000    0.00000000    0.00000000
     atom    2 type  2   force =     0.00000000    0.00000000    0.00000000
     atom    3 type  3   force =     0.00000000    0.00000000    0.00000000
     The SCF correction term to forces
     atom    1 type  1   force =    -0.00000000    0.00000024    0.00002731
     atom    2 type  2   force =     0.00000000    0.00000144    0.00000162
     atom    3 type  3   force =     0.00000000    0.00000049   -0.00002823

     Total force =     0.004857     Total SCF correction =     0.000039

     BFGS Geometry Optimization
     Energy error            =      0.0E+00 Ry
     Gradient error          =      3.0E-03 Ry/Bohr

     number of scf cycles    =   1
     number of bfgs steps    =   0

     energy             new  =    -591.2437694511 Ry

     new trust radius        =       0.0032116584 bohr
     new conv_thr            =       0.0000000100 Ry


ATOMIC_POSITIONS (angstrom)
Zr            0.0000000000       -0.0010139752       10.2766865272
Cl           -0.0000000017        2.0149046108       11.9632220600
Br           -0.0000000017        2.0149662090        8.4232401872



     Writing config-only to output data dir ./tmp/ZrClBr.save/
     NEW-OLD atomic charge density approx. for the potential

     Check: negative core charge=   -0.000004

     negative rho (up, down):  3.078E-08 0.000E+00

     total cpu time spent up to now is       19.9 secs

     Self-consistent Calculation

     iteration #  1     ecut=    65.00 Ry     beta= 0.70
     Davidson diagonalization with overlap
     ethr =  1.00E-06,  avg # of iterations =  2.7

     Threshold (ethr) on eigenvalues was too large:
     Diagonalizing with lowered threshold

     Davidson diagonalization with overlap
     ethr =  5.56E-09,  avg # of iterations =  3.1

     negative rho (up, down):  3.113E-08 0.000E+00

     total cpu time spent up to now is       23.7 secs

     total energy              =    -591.24379012 Ry
     estimated scf accuracy    <       0.00000160 Ry

     iteration #  2     ecut=    65.00 Ry     beta= 0.70
     Davidson diagonalization with overlap
     ethr =  6.15E-09,  avg # of iterations =  2.0

     negative rho (up, down):  3.054E-08 0.000E+00

     total cpu time spent up to now is       25.3 secs

     total energy              =    -591.24378995 Ry
     estimated scf accuracy    <       0.00000547 Ry

     iteration #  3     ecut=    65.00 Ry     beta= 0.70
     Davidson diagonalization with overlap
     ethr =  6.15E-09,  avg # of iterations =  2.0

     negative rho (up, down):  3.050E-08 0.000E+00

     total cpu time spent up to now is       26.8 secs

     total energy              =    -591.24379095 Ry
     estimated scf accuracy    <       0.00000004 Ry

     iteration #  4     ecut=    65.00 Ry     beta= 0.70
     Davidson diagonalization with overlap
     ethr =  1.53E-10,  avg # of iterations =  2.0

     negative rho (up, down):  3.048E-08 0.000E+00

     total cpu time spent up to now is       28.4 secs

     total energy              =    -591.24379095 Ry
     estimated scf accuracy    <       0.00000002 Ry

     iteration #  5     ecut=    65.00 Ry     beta= 0.70
     Davidson diagonalization with overlap
     ethr =  6.06E-11,  avg # of iterations =  1.8

     negative rho (up, down):  3.047E-08 0.000E+00

     total cpu time spent up to now is       29.8 secs

     End of self-consistent calculation

          k = 0.0000 0.0000 0.0000 (  6443 PWs)   bands (ev):

   -44.9609 -23.1839 -22.8141 -22.7948 -12.7399 -12.1884  -2.0989  -0.0446
     0.1335   0.1982   1.2907   1.3702   4.2599   5.8458   5.9917   6.5538
     6.6262   6.7067   8.3291   9.3527  11.3149  13.4259  13.6451  13.8625
    14.5652  15.0916

          k = 0.0000 0.0733 0.0000 (  6449 PWs)   bands (ev):

   -44.9597 -23.1801 -22.8174 -22.8096 -12.7146 -12.1767  -2.0546  -0.1106
     0.1206   0.1446   1.2117   1.2541   4.2640   5.8809   5.9235   6.5839
     6.6140   6.8882   8.4574   9.5905  11.3793  13.1389  13.5534  14.2692
    14.5998  14.8297

          k = 0.0000 0.1465 0.0000 (  6425 PWs)   bands (ev):

   -44.9561 -23.1692 -22.8517 -22.8266 -12.6432 -12.1419  -1.9298  -0.3374
     0.0305   0.0791   0.8217   1.1585   4.2514   5.8036   5.9935   6.5354
     6.7741   7.3288   8.8135  10.1540  11.5709  12.5615  13.9166  14.0209
    14.4719  14.8650

          k = 0.0000 0.2198 0.0000 (  6389 PWs)   bands (ev):

   -44.9507 -23.1529 -22.9137 -22.8405 -12.5387 -12.0845  -1.7503  -0.6964
    -0.1643   0.0060   0.4047   1.0361   4.1700   5.7938   6.1991   6.5659
     6.9855   7.8402   9.3128  10.7430  11.7983  12.1572  13.5151  14.2812
    14.4431  15.1407

          k = 0.0000 0.2930 0.0000 (  6385 PWs)   bands (ev):

   -44.9444 -23.1336 -22.9858 -22.8568 -12.4215 -12.0057  -1.5676  -1.0894
    -0.5452  -0.0942   0.1802   0.9163   4.0248   5.9738   6.5045   6.6733
     7.1960   8.3166   9.7436  11.1342  11.7338  12.0193  13.6953  14.0028
    14.9012  14.9954

          k = 0.0000 0.3663 0.0000 (  6391 PWs)   bands (ev):

   -44.9381 -23.1143 -23.0567 -22.8730 -12.3140 -11.9109  -1.6073  -1.2706
    -0.9744  -0.2047   0.0965   0.8156   3.8887   6.3021   6.8160   6.8928
     7.3694   8.7380   9.8846  11.2304  11.6306  11.9933  13.6968  14.2746
    14.6260  14.7252

          k = 0.0000 0.4395 0.0000 (  6376 PWs)   bands (ev):

   -44.9328 -23.1164 -23.0972 -22.8867 -12.2324 -11.8156  -1.8993  -1.3711
    -1.1312  -0.3031   0.0635   0.7403   3.8121   6.6707   6.9728   7.3069
     7.4942   9.0925   9.8128  11.0558  11.6768  11.9981  13.2210  14.1383
    14.2263  14.5849

          k = 0.0000 0.5128 0.0000 (  6396 PWs)   bands (ev):

   -44.9292 -23.1553 -23.0865 -22.8959 -12.1826 -11.7439  -2.1143  -1.5841
    -1.0691  -0.3701   0.0524   0.6937   3.7898   6.8820   7.1973   7.5422
     7.6732   9.3333   9.7126  10.9065  11.6725  12.0222  12.6937  13.6324
    14.0707  14.3491

          k = 0.0000-0.5860 0.0000 (  6374 PWs)   bands (ev):

   -44.9279 -23.1689 -23.0826 -22.8990 -12.1660 -11.7172  -2.1909  -1.6591
    -1.0463  -0.3938   0.0502   0.6778   3.7885   6.9276   7.3294   7.5696
     7.8069   9.3939   9.7006  10.8579  11.6055  12.0749  12.4990  13.4335
    13.9636  14.2217

          k = 0.0625 0.0366 0.0000 (  6429 PWs)   bands (ev):

   -44.9597 -23.1802 -22.8262 -22.7999 -12.7154 -12.1774  -2.0557  -0.1218
     0.1019   0.1771   1.1511   1.3224   4.2600   5.8060   6.0074   6.5338
     6.6724   6.8858   8.4497   9.5799  11.3772  13.0535  13.7124  14.2139
    14.5681  14.7245

          k = 0.0625 0.1099 0.0000 (  6435 PWs)   bands (ev):

   -44.9573 -23.1729 -22.8451 -22.8158 -12.6670 -12.1542  -1.9710  -0.2660
     0.0358   0.1306   0.9156   1.2183   4.2558   5.7833   6.0110   6.5247
     6.7474   7.1958   8.6925   9.9802  11.5073  12.6938  13.7966  14.1903
    14.5284  14.7301

          k = 0.0625 0.1831 0.0000 (  6415 PWs)   bands (ev):

   -44.9529 -23.1593 -22.8913 -22.8332 -12.5790 -12.1081  -1.8176  -0.5526
    -0.0990   0.0517   0.5339   1.0856   4.2133   5.7275   6.1644   6.5414
     6.9163   7.6667   9.1262  10.5502  11.7671  12.2641  13.5857  14.0498
    14.5649  15.0798

          k = 0.0625 0.2564 0.0000 (  6399 PWs)   bands (ev):

   -44.9470 -23.1415 -22.9554 -22.8512 -12.4682 -12.0398  -1.6297  -0.9239
    -0.3523  -0.1092   0.2646   0.9422   4.1074   5.7949   6.4435   6.6350
     7.1140   8.1549   9.6104  11.0164  11.8786  12.0997  13.3507  14.0013
    14.7743  15.0774

          k = 0.0625 0.3296 0.0000 (  6396 PWs)   bands (ev):

   -44.9407 -23.1222 -23.0245 -22.8698 -12.3564 -11.9520  -1.5038  -1.2501
    -0.7734  -0.2374   0.1559   0.8059   3.9793   6.0312   6.7459   6.8516
     7.2914   8.6082   9.8891  11.2686  11.7627  12.0299  13.7074  13.9502
    14.5550  14.8620

          k = 0.0625 0.4029 0.0000 (  6391 PWs)   bands (ev):

   -44.9349 -23.1046 -23.0873 -22.8866 -12.2632 -11.8548  -1.7346  -1.2583
    -1.1273  -0.3305   0.0974   0.6914   3.8908   6.3924   6.9078   7.2472
     7.4256   9.0202   9.8842  11.2366  11.7177  12.0286  13.4843  13.9652
    14.3913  14.6760

          k = 0.0625 0.4761 0.0000 (  6381 PWs)   bands (ev):

   -44.9304 -23.1358 -23.0902 -22.8994 -12.1990 -11.7690  -1.9926  -1.4876
    -1.0920  -0.3964   0.0643   0.6095   3.8602   6.7804   7.0521   7.4780
     7.6071   9.3662   9.7709  11.0852  11.7415  12.0178  12.8907  13.5961
    14.2889  14.5517

          k = 0.0625 0.5494 0.0000 (  6375 PWs)   bands (ev):

   -44.9280 -23.1614 -23.0828 -22.9063 -12.1665 -11.7185  -2.1361  -1.6351
    -1.0462  -0.4311   0.0499   0.5670   3.8609   6.9741   7.2550   7.5158
     7.7483   9.4628   9.8199  10.9985  11.6930  12.0645  12.4594  13.3326
    14.1618  14.2881

          k = 0.1250 0.0733 0.0000 (  6425 PWs)   bands (ev):

   -44.9564 -23.1698 -22.8649 -22.8101 -12.6463 -12.1449  -1.9339  -0.3627
     0.0111   0.1330   0.7767   1.2308   4.2352   5.7273   6.1010   6.5097
     6.8209   7.3222   8.7886  10.1272  11.5604  12.5183  13.9534  14.0545
    14.4369  14.7978

          k = 0.1250 0.1465 0.0000 (  6418 PWs)   bands (ev):

   -44.9531 -23.1597 -22.8975 -22.8246 -12.5813 -12.1104  -1.8205  -0.5684
    -0.1025   0.0755   0.5145   1.1285   4.1989   5.7118   6.2027   6.5280
     6.9408   7.6631   9.1108  10.5369  11.7555  12.2454  13.5628  14.0575
    14.5987  15.0427

          k = 0.1250 0.2198 0.0000 (  6400 PWs)   bands (ev):

   -44.9482 -23.1447 -22.9465 -22.8454 -12.4868 -12.0533  -1.6549  -0.8588
    -0.2817  -0.1257   0.2995   0.9672   4.1389   5.7011   6.4674   6.6196
     7.0958   8.1037   9.5477  10.9649  12.0058  12.1335  13.1163  13.8992
    14.7881  14.9752

          k = 0.1250 0.2930 0.0000 (  6406 PWs)   bands (ev):

   -44.9423 -23.1268 -23.0042 -22.8692 -12.3818 -11.9750  -1.4788  -1.1808
    -0.6082  -0.3333   0.1986   0.7768   4.0677   5.8019   6.7488   6.8748
     7.2486   8.5659   9.8973  11.2640  11.9604  12.3027  13.1155  13.7221
    14.4848  14.8635

          k = 0.1250 0.3663 0.0000 (  6386 PWs)   bands (ev):

   -44.9365 -23.1090 -23.0612 -22.8926 -12.2861 -11.8819  -1.5531  -1.2613
    -1.0039  -0.4384   0.1272   0.5859   4.0186   6.0508   6.9251   7.2644
     7.4002   9.0278   9.9785  11.4210  11.9733  12.1468  13.4962  13.6653
    13.9373  14.6995

          k = 0.1250 0.4395 0.0000 (  6376 PWs)   bands (ev):

   -44.9315 -23.1096 -23.0932 -22.9123 -12.2130 -11.7900  -1.8102  -1.3594
    -1.1191  -0.4983   0.0720   0.4218   4.0147   6.4213   7.0678   7.4198
     7.6590   9.4988   9.8708  11.4120  11.8976  12.0674  12.9966  13.5440
    14.3505  14.6124

          k = 0.1250 0.5128 0.0000 (  6364 PWs)   bands (ev):

   -44.9282 -23.1411 -23.0833 -22.9254 -12.1681 -11.7220  -1.9870  -1.5689
    -1.0492  -0.5272   0.0380   0.3099   4.0403   6.8315   7.1713   7.4606
     7.7526   9.6507  10.0298  11.3571  11.8144  12.0506  12.4795  13.3428
    14.3093  14.5213

          k = 0.1250 0.5860 0.0000 (  6374 PWs)   bands (ev):

   -44.9271 -23.1522 -23.0797 -22.9299 -12.1530 -11.6969  -2.0495  -1.6419
    -1.0257  -0.5353   0.0269   0.2699   4.0558   7.0372   7.2553   7.4604
     7.6896   9.5661  10.2887  11.3413  11.8064  12.0881  12.1417  13.2773
    14.2797  14.3591

          k = 0.1250 0.0000 0.0000 (  6413 PWs)   bands (ev):

   -44.9576 -23.1733 -22.8537 -22.8048 -12.6693 -12.1564  -1.9741  -0.2818
     0.0323   0.1563   0.8908   1.2611   4.2474   5.7186   6.0967   6.5173
     6.7736   7.1909   8.6725   9.9580  11.5029  12.6528  13.9423  14.1386
    14.4514  14.7018

          k = 0.1875 0.1099 0.0000 (  6419 PWs)   bands (ev):

   -44.9514 -23.1542 -22.9243 -22.8233 -12.5450 -12.0911  -1.7583  -0.7217
    -0.1826   0.0650   0.3778   1.1182   4.1391   5.7535   6.2900   6.5571
     7.0236   7.8327   9.2727  10.7136  11.7758  12.1253  13.4795  14.2218
    14.5712  15.0554

          k = 0.1875 0.1831 0.0000 (  6403 PWs)   bands (ev):

   -44.9476 -23.1426 -22.9628 -22.8379 -12.4736 -12.0459  -1.6361  -0.9454
    -0.3716  -0.0695   0.2596   1.0126   4.0768   5.7917   6.4874   6.6233
     7.1459   8.1507   9.5844  10.9996  11.8620  12.0658  13.3294  13.9471
    14.8309  15.0445

          k = 0.1875 0.2564 0.0000 (  6398 PWs)   bands (ev):

   -44.9427 -23.1275 -23.0077 -22.8621 -12.3849 -11.9789  -1.4821  -1.1922
    -0.6209  -0.3137   0.2039   0.8131   4.0502   5.8069   6.7469   6.8869
     7.2629   8.5653   9.8869  11.2553  11.9478  12.3091  13.0921  13.6832
    14.5062  14.8417

          k = 0.1875 0.3296 0.0000 (  6399 PWs)   bands (ev):

   -44.9373 -23.1111 -23.0518 -22.8923 -12.2966 -11.8943  -1.4582  -1.2959
    -0.9311  -0.4911   0.1245   0.5638   4.0732   5.9081   6.9365   7.2680
     7.4204   9.0366  10.0233  11.4630  12.1723  12.3898  13.1755  13.4786
    13.6556  14.7678

          k = 0.1875 0.4029 0.0000 (  6386 PWs)   bands (ev):

   -44.9324 -23.0966 -23.0888 -22.9227 -12.2226 -11.8040  -1.6558  -1.2482
    -1.1564  -0.5859   0.0192   0.3263   4.1433   6.1382   7.0671   7.4439
     7.7187   9.5652   9.9888  11.6116  12.1059  12.2675  13.0078  13.4212
    13.9604  14.5240

          k = 0.1875 0.4761 0.0000 (  6372 PWs)   bands (ev):

   -44.9286 -23.1168 -23.0840 -22.9473 -12.1707 -11.7270  -1.8028  -1.4847
    -1.0621  -0.6305  -0.0847   0.1506   4.2375   6.4787   7.1116   7.5834
     7.8063   9.8692  10.1739  11.6378  11.7620  12.2286  12.7814  13.5259
    14.2662  14.5012

          k = 0.1875 0.5494 0.0000 (  6373 PWs)   bands (ev):

   -44.9265 -23.1309 -23.0777 -22.9612 -12.1441 -11.6825  -1.8793  -1.6143
    -1.0140  -0.6463  -0.1501   0.0600   4.3074   6.8234   7.1256   7.6378
     7.6794   9.7501  10.7295  11.5231  11.7868  12.2308  12.3679  13.4467
    14.3325  14.4420

          k = 0.1875-0.0366 0.0000 (  6423 PWs)   bands (ev):

   -44.9535 -23.1604 -22.9007 -22.8179 -12.5847 -12.1138  -1.8249  -0.5705
    -0.0984   0.0829   0.5203   1.1395   4.1950   5.6747   6.2577   6.5568
     6.9335   7.6594   9.0848  10.5173  11.7548  12.2478  13.5581  14.1408
    14.5406  15.0265

          k = 0.2500 0.1465 0.0000 (  6405 PWs)   bands (ev):

   -44.9455 -23.1357 -22.9937 -22.8382 -12.4314 -12.0173  -1.5788  -1.1096
    -0.5636  -0.0272   0.1655   1.0081   3.9864   5.9561   6.5740   6.6758
     7.2290   8.3110   9.7037  11.1096  11.7155  11.9896  13.6570  13.9200
    14.8775  15.0291

          k = 0.2500 0.2198 0.0000 (  6381 PWs)   bands (ev):

   -44.9417 -23.1241 -23.0313 -22.8531 -12.3653 -11.9632  -1.5154  -1.2685
    -0.7919  -0.1898   0.1600   0.8948   3.9397   6.0332   6.7515   6.8821
     7.3237   8.6071   9.8614  11.2461  11.7550  12.0118  13.6323  13.8720
    14.5497  14.8722

          k = 0.2500 0.2930 0.0000 (  6398 PWs)   bands (ev):

   -44.9373 -23.1105 -23.0660 -22.8802 -12.2927 -11.8910  -1.5676  -1.2684
    -1.0159  -0.4068   0.1358   0.6475   3.9894   6.0550   6.9272   7.2847
     7.4185   9.0310   9.9575  11.4060  11.9890  12.1526  13.4337  13.6945
    13.8644  14.6448

          k = 0.2500 0.3663 0.0000 (  6381 PWs)   bands (ev):

   -44.9328 -23.0975 -23.0911 -22.9162 -12.2261 -11.8092  -1.6640  -1.2490
    -1.1611  -0.5707   0.0287   0.3494   4.1295   6.1374   7.0723   7.4510
     7.7274   9.5672   9.9750  11.6067  12.1139  12.3031  13.0650  13.3399
    13.9018  14.4807

          k = 0.2500 0.4395 0.0000 (  6367 PWs)   bands (ev):

   -44.9290 -23.1062 -23.0848 -22.9545 -12.1740 -11.7325  -1.7126  -1.4403
    -1.0759  -0.6683  -0.1871   0.1396   4.3242   6.3131   7.0754   7.6682
     7.8366   9.9574  10.2240  11.5777  11.8499  12.4673  13.0575  13.5321
    14.1392  14.2533

          k = 0.2500 0.5128 0.0000 (  6366 PWs)   bands (ev):

   -44.9264 -23.1095 -23.0771 -22.9860 -12.1411 -11.6778  -1.7211  -1.5666
    -1.0141  -0.7356  -0.3938   0.0327   4.5054   6.5598   7.0340   7.6629
     7.8582   9.9547  10.7817  11.3786  12.0151  12.5357  12.8876  13.6104
    14.1452  14.4023

          k = 0.2500 0.5860 0.0000 (  6382 PWs)   bands (ev):

   -44.9256 -23.1088 -23.0744 -22.9989 -12.1298 -11.6579  -1.7252  -1.5995
    -0.9923  -0.7721  -0.4654  -0.0032   4.5815   6.7234   7.0140   7.4954
     7.9283   9.9435  10.8513  11.6859  12.1226  12.5391  12.5578  13.4643
    14.4079  14.4302

          k = 0.2500-0.0733 0.0000 (  6410 PWs)   bands (ev):

   -44.9480 -23.1434 -22.9623 -22.8344 -12.4776 -12.0502  -1.6408  -0.9357
    -0.3613  -0.0619   0.2618   1.0036   4.0834   5.7696   6.5131   6.6655
     7.1245   8.1478   9.5611  10.9899  11.8754  12.0795  13.3459  13.9931
    14.7910  15.0332

          k = 0.2500 0.0000 0.0000 (  6447 PWs)   bands (ev):

   -44.9489 -23.1462 -22.9493 -22.8351 -12.4941 -12.0611  -1.6638  -0.8547
    -0.2746  -0.1062   0.3072   0.9806   4.1354   5.6724   6.5193   6.6764
     7.0749   8.0979   9.5036  10.9431  12.0261  12.1358  13.1282  13.9438
    14.7518  14.9545

          k = 0.3125 0.1831 0.0000 (  6396 PWs)   bands (ev):

   -44.9396 -23.1172 -23.0621 -22.8529 -12.3271 -11.9283  -1.6213  -1.2834
    -0.9843  -0.1289   0.0818   0.9156   3.8484   6.2958   6.8260   6.9353
     7.4012   8.7372   9.8455  11.2184  11.6234  11.9679  13.5893  14.1983
    14.5185  14.8622

          k = 0.3125 0.2564 0.0000 (  6383 PWs)   bands (ev):

   -44.9363 -23.1073 -23.0927 -22.8675 -12.2753 -11.8719  -1.7523  -1.2642
    -1.1402  -0.2723   0.0978   0.7915   3.8479   6.3895   6.9155   7.2784
     7.4554   9.0263   9.8420  11.2392  11.7146  12.0089  13.3824  13.9883
    14.3550  14.6116

          k = 0.3125 0.3296 0.0000 (  6381 PWs)   bands (ev):

   -44.9327 -23.1140 -23.0957 -22.8963 -12.2229 -11.8048  -1.8266  -1.3602
    -1.1281  -0.4546   0.0758   0.4979   3.9804   6.4144   7.0804   7.4403
     7.6808   9.5101   9.8268  11.4290  11.9070  12.0671  13.0185  13.4854
    14.2867  14.5281

          k = 0.3125 0.4029 0.0000 (  6380 PWs)   bands (ev):

   -44.9294 -23.1201 -23.0857 -22.9361 -12.1776 -11.7377  -1.8137  -1.4813
    -1.0672  -0.6022  -0.0623   0.1746   4.2177   6.4650   7.1205   7.6018
     7.8218   9.8223  10.1929  11.6574  11.7917  12.2600  12.7716  13.4850
    14.2120  14.4450

          k = 0.3125 0.4761 0.0000 (  6370 PWs)   bands (ev):

   -44.9269 -23.1112 -23.0779 -22.9802 -12.1445 -11.6833  -1.7235  -1.5635
    -1.0168  -0.7224  -0.3760   0.0312   4.5001   6.5464   7.0360   7.6686
     7.8728   9.9237  10.8076  11.3923  12.0223  12.5599  12.8380  13.6556
    14.1268  14.3863

          k = 0.3125 0.5494 0.0000 (  6373 PWs)   bands (ev):

   -44.9255 -23.0936 -23.0737 -23.0170 -12.1271 -11.6528  -1.6849  -1.5066
    -0.9852  -0.8899  -0.5614  -0.0267   4.7135   6.6250   6.9685   7.4401
     8.0515  10.0832  10.6463  11.9961  12.2262  12.7340  12.8635  13.1891
    14.3002  14.5217

          k = 0.3125-0.1099 0.0000 (  6395 PWs)   bands (ev):

   -44.9421 -23.1249 -23.0288 -22.8517 -12.3691 -11.9679  -1.5141  -1.2589
    -0.7762  -0.1781   0.1496   0.8759   3.9545   6.0258   6.7821   6.8845
     7.3041   8.6028   9.8495  11.2517  11.7637  12.0184  13.6676  13.9194
    14.4859  14.8714

          k = 0.3125-0.0366 0.0000 (  6403 PWs)   bands (ev):

   -44.9435 -23.1291 -23.0052 -22.8566 -12.3926 -11.9880  -1.4897  -1.1714
    -0.5965  -0.2985   0.1997   0.7959   4.0662   5.7906   6.8106   6.9020
     7.2272   8.5577   9.8569  11.2517  11.9810  12.3248  13.1310  13.7437
    14.4005  14.8191

          k = 0.3750 0.2198 0.0000 (  6380 PWs)   bands (ev):

   -44.9346 -23.1197 -23.1010 -22.8653 -12.2481 -11.8384  -1.9120  -1.3673
    -1.1439  -0.2195   0.0452   0.8466   3.7702   6.6752   6.9872   7.3188
     7.5255   9.0974   9.7543  11.0859  11.6517  11.9663  13.1193  14.1275
    14.2953  14.4999

          k = 0.3750 0.2930 0.0000 (  6382 PWs)   bands (ev):

   -44.9322 -23.1393 -23.0937 -22.8786 -12.2138 -11.7913  -2.0080  -1.4825
    -1.1023  -0.3262   0.0556   0.7143   3.8164   6.7764   7.0620   7.5091
     7.6254   9.3757   9.7076  11.1324  11.7119  11.9768  12.8260  13.6795
    14.2274  14.4892

          k = 0.3750 0.3663 0.0000 (  6375 PWs)   bands (ev):

   -44.9297 -23.1442 -23.0864 -22.9074 -12.1809 -11.7418  -2.0000  -1.5603
    -1.0567  -0.4717   0.0315   0.3905   4.0067   6.8127   7.1838   7.4895
     7.7729   9.5983  10.0343  11.4232  11.8064  12.0177  12.4581  13.3515
    14.2497  14.4944

          k = 0.3750 0.4395 0.0000 (  6369 PWs)   bands (ev):

   -44.9277 -23.1332 -23.0801 -22.9475 -12.1539 -11.6981  -1.8853  -1.6022
    -1.0194  -0.6083  -0.1155   0.0671   4.2909   6.7957   7.1286   7.6560
     7.7085   9.6938  10.7515  11.5648  11.8561  12.2104  12.3030  13.4635
    14.2912  14.4469

          k = 0.3750 0.5128 0.0000 (  6380 PWs)   bands (ev):

   -44.9263 -23.1099 -23.0759 -22.9905 -12.1362 -11.6683  -1.7180  -1.5889
    -0.9963  -0.7539  -0.4420  -0.0139   4.5835   6.7021   7.0136   7.4827
     7.9601   9.8984  10.9029  11.6649  12.1518  12.5074  12.5618  13.5562
    14.4020  14.4258

          k = 0.3750 0.5860 0.0000 (  6374 PWs)   bands (ev):

   -44.9258 -23.0926 -23.0745 -23.0148 -12.1301 -11.6576  -1.6760  -1.4930
    -0.9867  -0.8916  -0.5561  -0.0344   4.7228   6.6202   6.9676   7.4151
     8.0682  10.0635  10.6702  11.9176  12.2552  12.7649  12.9174  13.2083
    14.2427  14.5568

          k = 0.3750-0.1465 0.0000 (  6397 PWs)   bands (ev):

   -44.9366 -23.1079 -23.0898 -22.8672 -12.2784 -11.8762  -1.7389  -1.2606
    -1.1308  -0.2589   0.0826   0.7712   3.8647   6.4005   6.9403   7.2448
     7.4445   9.0193   9.8390  11.2543  11.7132  12.0087  13.4035  13.9287
    14.3668  14.6833

          k = 0.3750-0.0733 0.0000 (  6390 PWs)   bands (ev):

   -44.9380 -23.1120 -23.0610 -22.8781 -12.2995 -11.9002  -1.5432  -1.2702
    -0.9869  -0.3928   0.1222   0.6153   4.0168   6.0527   6.9834   7.2539
     7.3886   9.0186   9.9482  11.4264  12.0012  12.1560  13.4957  13.6215
    13.9432  14.6530

          k = 0.3750 0.0000 0.0000 (  6409 PWs)   bands (ev):

   -44.9385 -23.1134 -23.0479 -22.8849 -12.3071 -11.9084  -1.4314  -1.3039
    -0.8989  -0.4684   0.1162   0.5474   4.0945   5.9012   7.0121   7.2370
     7.3933   9.0225  10.0039  11.4725  12.1932  12.4419  13.1951  13.4751
    13.6492  14.7291

          k = 0.4375 0.2564 0.0000 (  6377 PWs)   bands (ev):

   -44.9312 -23.1574 -23.0906 -22.8736 -12.2001 -11.7706  -2.1256  -1.5727
    -1.0791  -0.2814   0.0308   0.8039   3.7458   6.9018   7.2126   7.5739
     7.6559   9.3140   9.6572  10.9680  11.6290  11.9560  12.6205  13.8063
    14.0217  14.2775

          k = 0.4375 0.3296 0.0000 (  6366 PWs)   bands (ev):

   -44.9300 -23.1635 -23.0868 -22.8848 -12.1833 -11.7444  -2.1477  -1.6225
    -1.0547  -0.3516   0.0323   0.6708   3.8188   6.9927   7.2548   7.5475
     7.7433   9.4076   9.8033  11.0730  11.6406  11.9876  12.4282  13.4302
    14.1449  14.2479

          k = 0.4375 0.4029 0.0000 (  6371 PWs)   bands (ev):

   -44.9288 -23.1537 -23.0832 -22.9114 -12.1678 -11.7200  -2.0557  -1.6257
    -1.0329  -0.4717   0.0119   0.3447   4.0284   7.0374   7.2555   7.4993
     7.6807   9.4994  10.2901  11.4365  11.7835  12.0608  12.1047  13.2917
    14.2189  14.3973

          k = 0.4375 0.4761 0.0000 (  6378 PWs)   bands (ev):

   -44.9279 -23.1310 -23.0806 -22.9475 -12.1559 -11.7013  -1.8737  -1.5934
    -1.0202  -0.6046  -0.1182   0.0529   4.3020   6.8155   7.1290   7.6099
     7.7143   9.6949  10.7202  11.5565  11.8939  12.1922  12.3485  13.4493
    14.3004  14.4690

          k = 0.4375 0.5494 0.0000 (  6377 PWs)   bands (ev):

   -44.9274 -23.1070 -23.0791 -22.9790 -12.1495 -11.6913  -1.6994  -1.5420
    -1.0191  -0.7174  -0.3841   0.0139   4.5219   6.5535   7.0355   7.5982
     7.8999   9.9201  10.7846  11.3521  12.0805  12.5551  12.9437  13.6190
    14.1324  14.3888

          k = 0.4375-0.1831 0.0000 (  6386 PWs)   bands (ev):

   -44.9324 -23.1370 -23.0942 -22.8787 -12.2158 -11.7944  -1.9974  -1.4740
    -1.1030  -0.3155   0.0429   0.6993   3.8293   6.7987   7.0825   7.5009
     7.5774   9.3578   9.7118  11.1424  11.7192  11.9773  12.8319  13.6338
    14.2536  14.5383

          k = 0.4375-0.1099 0.0000 (  6391 PWs)   bands (ev):

   -44.9333 -23.1091 -23.0967 -22.8959 -12.2280 -11.8124  -1.8014  -1.3395
    -1.1289  -0.4414   0.0610   0.4656   4.0073   6.4313   7.1070   7.4384
     7.6111   9.4891   9.8266  11.4621  11.9059  12.0573  13.0199  13.4887
    14.3187  14.6000

          k = 0.4375-0.0366 0.0000 (  6394 PWs)   bands (ev):

   -44.9338 -23.0990 -23.0853 -22.9132 -12.2348 -11.8219  -1.6274  -1.2210
    -1.1615  -0.5539   0.0141   0.3160   4.1620   6.1379   7.1061   7.4536
     7.6599   9.5443   9.9701  11.6442  12.0960  12.3229  13.0604  13.4048
    13.9599  14.4898

          k =-0.5000-0.2930 0.0000 (  6372 PWs)   bands (ev):

   -44.9301 -23.1706 -23.0869 -22.8765 -12.1841 -11.7453  -2.2017  -1.6451
    -1.0550  -0.3032   0.0273   0.7895   3.7434   6.9517   7.3500   7.6058
     7.7717   9.3281   9.6813  10.9309  11.5496  11.9875  12.4406  13.6209
    13.9416  14.1539

          k =-0.5000-0.2198 0.0000 (  6370 PWs)   bands (ev):

   -44.9301 -23.1626 -23.0869 -22.8849 -12.1840 -11.7455  -2.1438  -1.6195
    -1.0550  -0.3475   0.0274   0.6653   3.8236   6.9977   7.2801   7.5465
     7.7083   9.3939   9.8070  11.0761  11.6527  11.9879  12.4254  13.4166
    14.1548  14.2619

          k =-0.5000-0.1465 0.0000 (  6372 PWs)   bands (ev):

   -44.9301 -23.1412 -23.0870 -22.9075 -12.1836 -11.7461  -1.9850  -1.5485
    -1.0579  -0.4630   0.0223   0.3704   4.0230   6.8432   7.1938   7.4999
     7.6975   9.5885  10.0166  11.4459  11.8240  12.0059  12.4743  13.3354
    14.2642  14.5370

          k =-0.5000-0.0733 0.0000 (  6379 PWs)   bands (ev):

   -44.9301 -23.1145 -23.0870 -22.9355 -12.1833 -11.7466  -1.7837  -1.4570
    -1.0700  -0.5913  -0.0733   0.1424   4.2460   6.4804   7.1250   7.6260
     7.7341   9.8259  10.1514  11.6696  11.8247  12.2374  12.8366  13.4805
    14.2438  14.4984

          k =-0.5000 0.0000 0.0000 (  6383 PWs)   bands (ev):

   -44.9301 -23.1007 -23.0869 -22.9499 -12.1832 -11.7468  -1.6775  -1.4083
    -1.0824  -0.6484  -0.1974   0.1143   4.3528   6.3127   7.0833   7.6950
     7.7598   9.9476  10.1851  11.5780  11.9002  12.4968  13.1486  13.5154
    14.1327  14.2635

     highest occupied, lowest unoccupied level (ev):     4.7228    5.6724

!    total energy              =    -591.24379096 Ry
     total all-electron energy =    -13333.877067 Ry
     estimated scf accuracy    <          1.6E-09 Ry

     The total energy is the sum of the following terms:
     one-electron contribution =    -203.18745929 Ry
     hartree contribution      =     109.37240636 Ry
     xc contribution           =     -37.58243712 Ry
     ewald contribution        =     -28.73116373 Ry
     one-center paw contrib.   =    -431.11513718 Ry

     convergence has been achieved in   5 iterations

     negative rho (up, down):  3.047E-08 0.000E+00

     Forces acting on atoms (cartesian axes, Ry/au):

     atom    1 type  1   force =     0.00000000   -0.00142773   -0.00000555
     atom    2 type  2   force =     0.00000000    0.00066119   -0.00254398
     atom    3 type  3   force =     0.00000000    0.00076655    0.00254953
     The non-local contrib.  to forces
     atom    1 type  1   force =     0.00000000   -0.00237988   -0.00068764
     atom    2 type  2   force =     0.00000000   -0.00120357   -0.21363539
     atom    3 type  3   force =     0.00000000   -0.00106343    0.21016746
     The ionic contribution  to forces
     atom    1 type  1   force =    -0.00000001   -0.11851582   -0.31243529
     atom    2 type  2   force =     0.00000000    0.06685866   20.83418648
     atom    3 type  3   force =     0.00000000    0.05165716  -20.52175119
     The local contribution  to forces
     atom    1 type  1   force =    -0.00000000    0.11941621    0.31294894
     atom    2 type  2   force =     0.00000003   -0.06493873  -20.63115138
     atom    3 type  3   force =    -0.00000000   -0.04969736   20.31806388
     The core correction contribution to forces
     atom    1 type  1   force =    -0.00000000    0.00006125    0.00038655
     atom    2 type  2   force =    -0.00000000   -0.00004130    0.00812177
     atom    3 type  3   force =    -0.00000000   -0.00012151   -0.00385867
     The Hubbard contrib.    to forces
     atom    1 type  1   force =     0.00000000    0.00000000    0.00000000
     atom    2 type  2   force =     0.00000000    0.00000000    0.00000000
     atom    3 type  3   force =     0.00000000    0.00000000    0.00000000
     The SCF correction term to forces
     atom    1 type  1   force =     0.00000000   -0.00000606   -0.00016831
     atom    2 type  2   force =    -0.00000000   -0.00001044   -0.00001567
     atom    3 type  3   force =     0.00000000   -0.00000488   -0.00002214

     Total force =     0.004004     Total SCF correction =     0.000171
     Energy error            =      2.2E-05 Ry
     Gradient error          =      2.5E-03 Ry/Bohr

     number of scf cycles    =   2
     number of bfgs steps    =   1

     energy             old  =    -591.2437694511 Ry
     energy             new  =    -591.2437909570 Ry

     CASE: energy            _new < energy            _old


     WARNING: bfgs curvature condition failed, Theta= 0.972
     new trust radius        =       0.0035328243 bohr
     new conv_thr            =       0.0000000002 Ry


ATOMIC_POSITIONS (angstrom)
Zr            0.0000000000       -0.0020209838       10.2766809087
Cl           -0.0000000017        2.0153712447       11.9614379890
Br           -0.0000000017        2.0155065838        8.4250298767



     Writing config-only to output data dir ./tmp/ZrClBr.save/
     NEW-OLD atomic charge density approx. for the potential

     Check: negative core charge=   -0.000004

     negative rho (up, down):  3.147E-08 0.000E+00

     total cpu time spent up to now is       30.3 secs

     Self-consistent Calculation

     iteration #  1     ecut=    65.00 Ry     beta= 0.70
     Davidson diagonalization with overlap
     ethr =  1.00E-06,  avg # of iterations =  3.0

     Threshold (ethr) on eigenvalues was too large:
     Diagonalizing with lowered threshold

     Davidson diagonalization with overlap
     ethr =  6.95E-09,  avg # of iterations =  2.5

     negative rho (up, down):  3.186E-08 0.000E+00

     total cpu time spent up to now is       34.1 secs

     total energy              =    -591.24380874 Ry
     estimated scf accuracy    <       0.00000196 Ry

     iteration #  2     ecut=    65.00 Ry     beta= 0.70
     Davidson diagonalization with overlap
     ethr =  7.54E-09,  avg # of iterations =  2.0

     negative rho (up, down):  3.121E-08 0.000E+00

     total cpu time spent up to now is       35.7 secs

     total energy              =    -591.24380855 Ry
     estimated scf accuracy    <       0.00000661 Ry

     iteration #  3     ecut=    65.00 Ry     beta= 0.70
     Davidson diagonalization with overlap
     ethr =  7.54E-09,  avg # of iterations =  2.0

     negative rho (up, down):  3.117E-08 0.000E+00

     total cpu time spent up to now is       37.2 secs

     total energy              =    -591.24380976 Ry
     estimated scf accuracy    <       0.00000005 Ry

     iteration #  4     ecut=    65.00 Ry     beta= 0.70
     Davidson diagonalization with overlap
     ethr =  2.05E-10,  avg # of iterations =  2.0

     negative rho (up, down):  3.114E-08 0.000E+00

     total cpu time spent up to now is       38.8 secs

     total energy              =    -591.24380977 Ry
     estimated scf accuracy    <       0.00000003 Ry

     iteration #  5     ecut=    65.00 Ry     beta= 0.70
     Davidson diagonalization with overlap
     ethr =  1.07E-10,  avg # of iterations =  1.3

     negative rho (up, down):  3.112E-08 0.000E+00

     total cpu time spent up to now is       40.2 secs

     total energy              =    -591.24380978 Ry
     estimated scf accuracy    <          1.5E-09 Ry

     iteration #  6     ecut=    65.00 Ry     beta= 0.70
     Davidson diagonalization with overlap
     ethr =  5.91E-12,  avg # of iterations =  2.0

     negative rho (up, down):  3.114E-08 0.000E+00

     total cpu time spent up to now is       41.7 secs

     End of self-consistent calculation

          k = 0.0000 0.0000 0.0000 (  6443 PWs)   bands (ev):

   -44.9564 -23.1803 -22.8103 -22.7909 -12.7433 -12.1894  -2.1021  -0.0430
     0.1276   0.1938   1.2843   1.3667   4.2666   5.8490   5.9978   6.5586
     6.6247   6.7079   8.3277   9.3527  11.3115  13.4267  13.6418  13.8695
    14.5640  15.0906

          k = 0.0000 0.0733 0.0000 (  6449 PWs)   bands (ev):

   -44.9552 -23.1765 -22.8136 -22.8058 -12.7180 -12.1778  -2.0578  -0.1103
     0.1146   0.1414   1.2085   1.2478   4.2705   5.8840   5.9294   6.5827
     6.6188   6.8895   8.4563   9.5901  11.3760  13.1400  13.5542  14.2718
    14.5991  14.8354

          k = 0.0000 0.1465 0.0000 (  6425 PWs)   bands (ev):

   -44.9516 -23.1656 -22.8479 -22.8229 -12.6464 -12.1431  -1.9332  -0.3396
     0.0295   0.0732   0.8192   1.1525   4.2571   5.8094   5.9965   6.5350
     6.7793   7.3302   8.8135  10.1525  11.5684  12.5630  13.9173  14.0267
    14.4737  14.8640

          k = 0.0000 0.2198 0.0000 (  6389 PWs)   bands (ev):

   -44.9462 -23.1492 -22.9100 -22.8368 -12.5418 -12.0860  -1.7539  -0.6996
    -0.1652   0.0001   0.4039   1.0304   4.1748   5.7996   6.2018   6.5662
     6.9911   7.8416   9.3149  10.7398  11.7978  12.1584  13.5195  14.2823
    14.4438  15.1406

          k = 0.0000 0.2930 0.0000 (  6385 PWs)   bands (ev):

   -44.9399 -23.1299 -22.9822 -22.8531 -12.4244 -12.0075  -1.5717  -1.0925
    -0.5472  -0.1000   0.1813   0.9111   4.0289   5.9793   6.5070   6.6743
     7.2021   8.3181   9.7488  11.1305  11.7343  12.0208  13.6975  14.0022
    14.9026  14.9982

          k = 0.0000 0.3663 0.0000 (  6391 PWs)   bands (ev):

   -44.9336 -23.1106 -23.0532 -22.8693 -12.3168 -11.9131  -1.6113  -1.2737
    -0.9769  -0.2105   0.0983   0.8108   3.8925   6.3067   6.8178   6.8951
     7.3761   8.7404   9.8906  11.2304  11.6299  11.9936  13.6971  14.2750
    14.6291  14.7276

          k = 0.0000 0.4395 0.0000 (  6376 PWs)   bands (ev):

   -44.9282 -23.1130 -23.0935 -22.8830 -12.2350 -11.8180  -1.9025  -1.3734
    -1.1352  -0.3089   0.0656   0.7359   3.8159   6.6739   6.9754   7.3093
     7.5011   9.0976   9.8154  11.0579  11.6770  11.9982  13.2233  14.1406
    14.2287  14.5877

          k = 0.0000 0.5128 0.0000 (  6396 PWs)   bands (ev):

   -44.9247 -23.1519 -23.0827 -22.8922 -12.1852 -11.7465  -2.1171  -1.5864
    -1.0734  -0.3760   0.0547   0.6894   3.7938   6.8841   7.2010   7.5491
     7.6757   9.3401   9.7125  10.9087  11.6745  12.0231  12.6959  13.6345
    14.0774  14.3490

          k = 0.0000-0.5860 0.0000 (  6374 PWs)   bands (ev):

   -44.9234 -23.1655 -23.0788 -22.8954 -12.1686 -11.7198  -2.1936  -1.6614
    -1.0506  -0.3996   0.0525   0.6737   3.7926   6.9295   7.3335   7.5769
     7.8089   9.3962   9.7046  10.8600  11.6076  12.0760  12.5015  13.4355
    13.9732  14.2186

          k = 0.0625 0.0366 0.0000 (  6429 PWs)   bands (ev):

   -44.9552 -23.1766 -22.8225 -22.7961 -12.7188 -12.1786  -2.0589  -0.1228
     0.0985   0.1728   1.1455   1.3185   4.2663   5.8095   6.0132   6.5376
     6.6719   6.8870   8.4486   9.5799  11.3740  13.0560  13.7104  14.2182
    14.5666  14.7245

          k = 0.0625 0.1099 0.0000 (  6435 PWs)   bands (ev):

   -44.9528 -23.1693 -22.8413 -22.8120 -12.6703 -12.1554  -1.9743  -0.2683
     0.0339   0.1260   0.9120   1.2131   4.2616   5.7881   6.0153   6.5255
     6.7508   7.1973   8.6921   9.9793  11.5047  12.6955  13.7969  14.1941
    14.5330  14.7263

          k = 0.0625 0.1831 0.0000 (  6415 PWs)   bands (ev):

   -44.9484 -23.1557 -22.8876 -22.8294 -12.5822 -12.1095  -1.8211  -0.5559
    -0.1001   0.0465   0.5321   1.0803   4.2182   5.7329   6.1678   6.5417
     6.9213   7.6681   9.1274  10.5477  11.7659  12.2652  13.5903  14.0510
    14.5670  15.0780

          k = 0.0625 0.2564 0.0000 (  6399 PWs)   bands (ev):

   -44.9425 -23.1378 -22.9517 -22.8475 -12.4712 -12.0415  -1.6335  -0.9273
    -0.3539  -0.1146   0.2645   0.9372   4.1115   5.8004   6.4465   6.6358
     7.1199   8.1563   9.6145  11.0125  11.8786  12.1008  13.3542  14.0028
    14.7747  15.0788

          k = 0.0625 0.3296 0.0000 (  6396 PWs)   bands (ev):

   -44.9362 -23.1185 -23.0210 -22.8661 -12.3592 -11.9540  -1.5082  -1.2530
    -0.7758  -0.2422   0.1566   0.8012   3.9828   6.0363   6.7474   6.8542
     7.2979   8.6099   9.8955  11.2658  11.7630  12.0304  13.7091  13.9505
    14.5585  14.8637

          k = 0.0625 0.4029 0.0000 (  6391 PWs)   bands (ev):

   -44.9304 -23.1008 -23.0839 -22.8830 -12.2659 -11.8571  -1.7381  -1.2611
    -1.1307  -0.3355   0.0988   0.6871   3.8944   6.3967   6.9096   7.2499
     7.4323   9.0235   9.8893  11.2376  11.7169  12.0287  13.4863  13.9680
    14.3909  14.6783

          k = 0.0625 0.4761 0.0000 (  6381 PWs)   bands (ev):

   -44.9259 -23.1323 -23.0864 -22.8957 -12.2016 -11.7715  -1.9955  -1.4900
    -1.0962  -0.4017   0.0662   0.6054   3.8638   6.7836   7.0548   7.4846
     7.6101   9.3728   9.7712  11.0873  11.7427  12.0182  12.8935  13.5987
    14.2899  14.5555

          k = 0.0625 0.5494 0.0000 (  6375 PWs)   bands (ev):

   -44.9235 -23.1580 -23.0790 -22.9026 -12.1691 -11.7211  -2.1387  -1.6375
    -1.0505  -0.4366   0.0520   0.5630   3.8647   6.9765   7.2584   7.5227
     7.7515   9.4651   9.8236  11.0006  11.6950  12.0654  12.4619  13.3353
    14.1672  14.2882

          k = 0.1250 0.0733 0.0000 (  6425 PWs)   bands (ev):

   -44.9519 -23.1662 -22.8613 -22.8063 -12.6495 -12.1462  -1.9372  -0.3665
     0.0105   0.1286   0.7728   1.2266   4.2401   5.7318   6.1059   6.5127
     6.8218   7.3237   8.7885  10.1269  11.5584  12.5206  13.9539  14.0530
    14.4424  14.7939

          k = 0.1250 0.1465 0.0000 (  6418 PWs)   bands (ev):

   -44.9486 -23.1561 -22.8938 -22.8209 -12.5844 -12.1119  -1.8238  -0.5723
    -0.1033   0.0704   0.5125   1.1238   4.2032   5.7171   6.2067   6.5294
     6.9443   7.6647   9.1119  10.5350  11.7549  12.2465  13.5646  14.0602
    14.6004  15.0396

          k = 0.1250 0.2198 0.0000 (  6400 PWs)   bands (ev):

   -44.9437 -23.1410 -22.9429 -22.8416 -12.4898 -12.0550  -1.6584  -0.8626
    -0.2832  -0.1307   0.2989   0.9626   4.1424   5.7068   6.4708   6.6208
     7.1010   8.1051   9.5512  10.9613  12.0056  12.1341  13.1195  13.9030
    14.7879  14.9765

          k = 0.1250 0.2930 0.0000 (  6406 PWs)   bands (ev):

   -44.9378 -23.1231 -23.0006 -22.8655 -12.3847 -11.9770  -1.4827  -1.1842
    -0.6110  -0.3368   0.1983   0.7727   4.0706   5.8075   6.7502   6.8780
     7.2547   8.5672   9.9038  11.2600  11.9588  12.3030  13.1201  13.7250
    14.4865  14.8646

          k = 0.1250 0.3663 0.0000 (  6386 PWs)   bands (ev):

   -44.9320 -23.1052 -23.0577 -22.8889 -12.2888 -11.8842  -1.5568  -1.2646
    -1.0070  -0.4420   0.1274   0.5823   4.0213   6.0560   6.9270   7.2685
     7.4055   9.0297   9.9856  11.4188  11.9730  12.1463  13.4990  13.6679
    13.9392  14.7010

          k = 0.1250 0.4395 0.0000 (  6376 PWs)   bands (ev):

   -44.9270 -23.1062 -23.0894 -22.9086 -12.2156 -11.7925  -1.8133  -1.3623
    -1.1231  -0.5023   0.0728   0.4185   4.0176   6.4258   7.0708   7.4257
     7.6621   9.5029   9.8743  11.4125  11.8980  12.0677  13.0001  13.5450
    14.3509  14.6145

          k = 0.1250 0.5128 0.0000 (  6364 PWs)   bands (ev):

   -44.9237 -23.1377 -23.0795 -22.9217 -12.1707 -11.7246  -1.9897  -1.5718
    -1.0534  -0.5316   0.0393   0.3067   4.0435   6.8352   7.1755   7.4656
     7.7567   9.6533  10.0330  11.3588  11.8171  12.0507  12.4815  13.3448
    14.3095  14.5256

          k = 0.1250 0.5860 0.0000 (  6374 PWs)   bands (ev):

   -44.9225 -23.1488 -23.0759 -22.9263 -12.1556 -11.6995  -2.0520  -1.6449
    -1.0299  -0.5398   0.0284   0.2668   4.0591   7.0408   7.2591   7.4649
     7.6949   9.5665  10.2941  11.3433  11.8081  12.0907  12.1420  13.2797
    14.2777  14.3662

          k = 0.1250 0.0000 0.0000 (  6413 PWs)   bands (ev):

   -44.9531 -23.1697 -22.8500 -22.8009 -12.6726 -12.1577  -1.9773  -0.2855
     0.0310   0.1527   0.8858   1.2574   4.2525   5.7227   6.1021   6.5218
     6.7726   7.1923   8.6720   9.9582  11.5005  12.6559  13.9390  14.1385
    14.4583  14.6971

          k = 0.1875 0.1099 0.0000 (  6419 PWs)   bands (ev):

   -44.9469 -23.1505 -22.9207 -22.8195 -12.5480 -12.0928  -1.7615  -0.7260
    -0.1845   0.0608   0.3768   1.1138   4.1422   5.7591   6.2941   6.5601
     7.0258   7.8344   9.2747  10.7121  11.7766  12.1267  13.4781  14.2275
    14.5692  15.0529

          k = 0.1875 0.1831 0.0000 (  6403 PWs)   bands (ev):

   -44.9431 -23.1389 -22.9593 -22.8342 -12.4765 -12.0477  -1.6394  -0.9494
    -0.3744  -0.0731   0.2595   1.0082   4.0795   5.7975   6.4911   6.6258
     7.1498   8.1525   9.5882  10.9965  11.8628  12.0674  13.3286  13.9522
    14.8285  15.0463

          k = 0.1875 0.2564 0.0000 (  6398 PWs)   bands (ev):

   -44.9382 -23.1238 -23.0042 -22.8584 -12.3877 -11.9809  -1.4858  -1.1958
    -0.6245  -0.3160   0.2034   0.8092   4.0523   5.8128   6.7494   6.8905
     7.2679   8.5669   9.8933  11.2515  11.9458  12.3113  13.0941  13.6877
    14.5079  14.8421

          k = 0.1875 0.3296 0.0000 (  6399 PWs)   bands (ev):

   -44.9328 -23.1074 -23.0483 -22.8886 -12.2992 -11.8966  -1.4622  -1.2990
    -0.9349  -0.4933   0.1239   0.5608   4.0750   5.9140   6.9396   7.2723
     7.4248   9.0380  10.0311  11.4595  12.1698  12.3894  13.1806  13.4814
    13.6585  14.7684

          k = 0.1875 0.4029 0.0000 (  6386 PWs)   bands (ev):

   -44.9279 -23.0928 -23.0853 -22.9191 -12.2252 -11.8065  -1.6590  -1.2517
    -1.1602  -0.5885   0.0182   0.3246   4.1451   6.1438   7.0720   7.4483
     7.7219   9.5668   9.9955  11.6090  12.1066  12.2677  13.0093  13.4235
    13.9642  14.5258

          k = 0.1875 0.4761 0.0000 (  6372 PWs)   bands (ev):

   -44.9241 -23.1134 -23.0802 -22.9438 -12.1733 -11.7296  -1.8055  -1.4884
    -1.0660  -0.6335  -0.0868   0.1506   4.2397   6.4832   7.1181   7.5869
     7.8103   9.8725  10.1769  11.6389  11.7627  12.2290  12.7832  13.5271
    14.2688  14.5029

          k = 0.1875 0.5494 0.0000 (  6373 PWs)   bands (ev):

   -44.9220 -23.1275 -23.0739 -22.9576 -12.1466 -11.6852  -1.8818  -1.6180
    -1.0180  -0.6495  -0.1531   0.0613   4.3100   6.8265   7.1324   7.6421
     7.6838   9.7516  10.7345  11.5250  11.7872  12.2312  12.3690  13.4486
    14.3340  14.4453

          k = 0.1875-0.0366 0.0000 (  6423 PWs)   bands (ev):

   -44.9490 -23.1568 -22.8972 -22.8140 -12.5878 -12.1153  -1.8281  -0.5750
    -0.0999   0.0797   0.5175   1.1357   4.1983   5.6801   6.2621   6.5609
     6.9339   7.6611   9.0859  10.5167  11.7544  12.2504  13.5570  14.1396
    14.5469  15.0213

          k = 0.2500 0.1465 0.0000 (  6405 PWs)   bands (ev):

   -44.9410 -23.1320 -22.9902 -22.8344 -12.4341 -12.0194  -1.5822  -1.1135
    -0.5668  -0.0310   0.1666   1.0040   3.9882   5.9621   6.5772   6.6795
     7.2325   8.3131   9.7085  11.1069  11.7176  11.9909  13.6549  13.9229
    14.8775  15.0294

          k = 0.2500 0.2198 0.0000 (  6381 PWs)   bands (ev):

   -44.9372 -23.1203 -23.0279 -22.8493 -12.3680 -11.9654  -1.5193  -1.2718
    -0.7952  -0.1922   0.1599   0.8907   3.9413   6.0390   6.7553   6.8857
     7.3278   8.6092   9.8674  11.2431  11.7571  12.0123  13.6344  13.8716
    14.5524  14.8718

          k = 0.2500 0.2930 0.0000 (  6398 PWs)   bands (ev):

   -44.9327 -23.1067 -23.0627 -22.8765 -12.2953 -11.8934  -1.5716  -1.2714
    -1.0194  -0.4088   0.1354   0.6440   3.9907   6.0608   6.9320   7.2884
     7.4224   9.0329   9.9644  11.4034  11.9900  12.1524  13.4366  13.6966
    13.8658  14.6453

          k = 0.2500 0.3663 0.0000 (  6381 PWs)   bands (ev):

   -44.9283 -23.0937 -23.0877 -22.9125 -12.2287 -11.8117  -1.6676  -1.2527
    -1.1645  -0.5726   0.0277   0.3474   4.1305   6.1432   7.0789   7.4543
     7.7309   9.5685   9.9820  11.6040  12.1142  12.3041  13.0661  13.3425
    13.9052  14.4821

          k = 0.2500 0.4395 0.0000 (  6367 PWs)   bands (ev):

   -44.9245 -23.1028 -23.0809 -22.9509 -12.1766 -11.7351  -1.7158  -1.4444
    -1.0794  -0.6703  -0.1896   0.1397   4.3253   6.3184   7.0827   7.6716
     7.8406   9.9614  10.2268  11.5790  11.8478  12.4683  13.0588  13.5337
    14.1426  14.2560

          k = 0.2500 0.5128 0.0000 (  6366 PWs)   bands (ev):

   -44.9219 -23.1061 -23.0732 -22.9824 -12.1437 -11.6804  -1.7240  -1.5705
    -1.0178  -0.7379  -0.3966   0.0338   4.5069   6.5632   7.0414   7.6685
     7.8620   9.9580  10.7843  11.3808  12.0126  12.5368  12.8892  13.6116
    14.1489  14.4050

          k = 0.2500 0.5860 0.0000 (  6382 PWs)   bands (ev):

   -44.9210 -23.1055 -23.0705 -22.9954 -12.1324 -11.6606  -1.7283  -1.6032
    -0.9960  -0.7748  -0.4680  -0.0019   4.5834   6.7249   7.0214   7.5028
     7.9322   9.9464  10.8546  11.6874  12.1204  12.5399  12.5593  13.4661
    14.4128  14.4310

          k = 0.2500-0.0733 0.0000 (  6410 PWs)   bands (ev):

   -44.9435 -23.1397 -22.9588 -22.8306 -12.4804 -12.0521  -1.6440  -0.9398
    -0.3644  -0.0651   0.2617   0.9999   4.0851   5.7758   6.5164   6.6693
     7.1271   8.1497   9.5649  10.9880  11.8768  12.0817  13.3438  13.9951
    14.7924  15.0333

          k = 0.2500 0.0000 0.0000 (  6447 PWs)   bands (ev):

   -44.9444 -23.1425 -22.9459 -22.8313 -12.4970 -12.0630  -1.6669  -0.8590
    -0.2776  -0.1090   0.3063   0.9772   4.1370   5.6787   6.5228   6.6805
     7.0769   8.0997   9.5070  10.9414  12.0281  12.1378  13.1267  13.9444
    14.7547  14.9554

          k = 0.3125 0.1831 0.0000 (  6396 PWs)   bands (ev):

   -44.9351 -23.1134 -23.0588 -22.8492 -12.3297 -11.9307  -1.6254  -1.2862
    -0.9872  -0.1326   0.0828   0.9117   3.8496   6.3017   6.8306   6.9378
     7.4058   8.7403   9.8510  11.2173  11.6258  11.9686  13.5903  14.1974
    14.5197  14.8634

          k = 0.3125 0.2564 0.0000 (  6383 PWs)   bands (ev):

   -44.9318 -23.1035 -23.0894 -22.8637 -12.2779 -11.8743  -1.7562  -1.2668
    -1.1432  -0.2748   0.0977   0.7877   3.8491   6.3948   6.9210   7.2819
     7.4595   9.0297   9.8469  11.2397  11.7162  12.0094  13.3837  13.9902
    14.3545  14.6120

          k = 0.3125 0.3296 0.0000 (  6381 PWs)   bands (ev):

   -44.9282 -23.1107 -23.0918 -22.8926 -12.2255 -11.8073  -1.8303  -1.3632
    -1.1312  -0.4567   0.0755   0.4947   3.9814   6.4197   7.0880   7.4430
     7.6845   9.5135   9.8309  11.4292  11.9085  12.0679  13.0206  13.4868
    14.2865  14.5286

          k = 0.3125 0.4029 0.0000 (  6380 PWs)   bands (ev):

   -44.9249 -23.1168 -23.0818 -22.9324 -12.1802 -11.7403  -1.8171  -1.4848
    -1.0704  -0.6040  -0.0638   0.1733   4.2186   6.4700   7.1289   7.6048
     7.8260   9.8267  10.1950  11.6574  11.7925  12.2613  12.7732  13.4864
    14.2136  14.4461

          k = 0.3125 0.4761 0.0000 (  6370 PWs)   bands (ev):

   -44.9223 -23.1080 -23.0740 -22.9767 -12.1472 -11.6859  -1.7268  -1.5674
    -1.0201  -0.7243  -0.3783   0.0317   4.5011   6.5501   7.0438   7.6741
     7.8772   9.9277  10.8095  11.3945  12.0195  12.5611  12.8398  13.6567
    14.1299  14.3895

          k = 0.3125 0.5494 0.0000 (  6373 PWs)   bands (ev):

   -44.9210 -23.0904 -23.0698 -23.0135 -12.1298 -11.6555  -1.6891  -1.5096
    -0.9884  -0.8929  -0.5628  -0.0260   4.7148   6.6258   6.9762   7.4480
     8.0566  10.0879  10.6474  11.9973  12.2238  12.7348  12.8643  13.1908
    14.3049  14.5239

          k = 0.3125-0.1099 0.0000 (  6395 PWs)   bands (ev):

   -44.9376 -23.1211 -23.0255 -22.8479 -12.3718 -11.9702  -1.5178  -1.2621
    -0.7792  -0.1816   0.1504   0.8724   3.9554   6.0321   6.7855   6.8873
     7.3090   8.6052   9.8556  11.2493  11.7658  12.0197  13.6685  13.9185
    14.4866  14.8724

          k = 0.3125-0.0366 0.0000 (  6403 PWs)   bands (ev):

   -44.9390 -23.1254 -23.0019 -22.8528 -12.3953 -11.9903  -1.4930  -1.1753
    -0.5997  -0.3014   0.1997   0.7930   4.0668   5.7973   6.8139   6.9046
     7.2321   8.5596   9.8632  11.2494  11.9819  12.3268  13.1309  13.7447
    14.4005  14.8203

          k = 0.3750 0.2198 0.0000 (  6380 PWs)   bands (ev):

   -44.9301 -23.1165 -23.0971 -22.8616 -12.2506 -11.8410  -1.9159  -1.3693
    -1.1469  -0.2232   0.0459   0.8430   3.7713   6.6806   6.9927   7.3209
     7.5308   9.1029   9.7568  11.0879  11.6536  11.9678  13.1201  14.1279
    14.2961  14.5019

          k = 0.3750 0.2930 0.0000 (  6382 PWs)   bands (ev):

   -44.9276 -23.1361 -23.0898 -22.8749 -12.2164 -11.7939  -2.0117  -1.4847
    -1.1053  -0.3290   0.0555   0.7108   3.8176   6.7817   7.0679   7.5136
     7.6288   9.3827   9.7077  11.1353  11.7140  11.9779  12.8265  13.6827
    14.2266  14.4903

          k = 0.3750 0.3663 0.0000 (  6375 PWs)   bands (ev):

   -44.9252 -23.1411 -23.0824 -22.9037 -12.1835 -11.7444  -2.0036  -1.5628
    -1.0598  -0.4741   0.0314   0.3875   4.0077   6.8174   7.1923   7.4922
     7.7773   9.6026  10.0361  11.4253  11.8099  12.0178  12.4582  13.3547
    14.2485  14.4961

          k = 0.3750 0.4395 0.0000 (  6369 PWs)   bands (ev):

   -44.9232 -23.1300 -23.0762 -22.9438 -12.1566 -11.7008  -1.8886  -1.6054
    -1.0225  -0.6103  -0.1173   0.0665   4.2919   6.7994   7.1365   7.6614
     7.7128   9.6969  10.7550  11.5668  11.8560  12.2112  12.3043  13.4658
    14.2905  14.4495

          k = 0.3750 0.5128 0.0000 (  6380 PWs)   bands (ev):

   -44.9218 -23.1067 -23.0720 -22.9869 -12.1389 -11.6709  -1.7215  -1.5926
    -0.9995  -0.7559  -0.4438  -0.0135   4.5845   6.7037   7.0212   7.4896
     7.9660   9.9018  10.9066  11.6656  12.1500  12.5099  12.5612  13.5582
    14.4022  14.4286

          k = 0.3750 0.5860 0.0000 (  6374 PWs)   bands (ev):

   -44.9213 -23.0895 -23.0705 -23.0111 -12.1327 -11.6603  -1.6800  -1.4963
    -0.9905  -0.8936  -0.5573  -0.0339   4.7239   6.6207   6.9752   7.4227
     8.0747  10.0677  10.6727  11.9185  12.2537  12.7630  12.9193  13.2104
    14.2446  14.5605

          k = 0.3750-0.1465 0.0000 (  6397 PWs)   bands (ev):

   -44.9321 -23.1041 -23.0865 -22.8634 -12.2810 -11.8787  -1.7428  -1.2630
    -1.1336  -0.2628   0.0836   0.7678   3.8654   6.4064   6.9446   7.2464
     7.4510   9.0234   9.8438  11.2540  11.7153  12.0105  13.4042  13.9295
    14.3663  14.6848

          k = 0.3750-0.0733 0.0000 (  6390 PWs)   bands (ev):

   -44.9335 -23.1081 -23.0577 -22.8743 -12.3021 -11.9027  -1.5473  -1.2730
    -0.9896  -0.3963   0.1225   0.6127   4.0171   6.0590   6.9864   7.2566
     7.3952   9.0212   9.9553  11.4244  12.0028  12.1574  13.4964  13.6225
    13.9434  14.6530

          k = 0.3750 0.0000 0.0000 (  6409 PWs)   bands (ev):

   -44.9340 -23.1096 -23.0447 -22.8811 -12.3096 -11.9109  -1.4358  -1.3065
    -0.9017  -0.4717   0.1161   0.5454   4.0945   5.9078   7.0144   7.2410
     7.3991   9.0245  10.0118  11.4705  12.1953  12.4400  13.1982  13.4752
    13.6496  14.7290

          k = 0.4375 0.2564 0.0000 (  6377 PWs)   bands (ev):

   -44.9267 -23.1542 -23.0867 -22.8698 -12.2027 -11.7732  -2.1293  -1.5743
    -1.0820  -0.2850   0.0312   0.8005   3.7469   6.9076   7.2178   7.5793
     7.6582   9.3224   9.6563  10.9712  11.6313  11.9573  12.6220  13.8065
    14.0248  14.2771

          k = 0.4375 0.3296 0.0000 (  6366 PWs)   bands (ev):

   -44.9254 -23.1603 -23.0829 -22.8811 -12.1859 -11.7470  -2.1513  -1.6242
    -1.0577  -0.3548   0.0324   0.6675   3.8200   6.9994   7.2589   7.5529
     7.7467   9.4125   9.8053  11.0763  11.6429  11.9883  12.4294  13.4331
    14.1444  14.2485

          k = 0.4375 0.4029 0.0000 (  6371 PWs)   bands (ev):

   -44.9243 -23.1505 -23.0793 -22.9077 -12.1704 -11.7227  -2.0592  -1.6279
    -1.0360  -0.4745   0.0121   0.3419   4.0294   7.0427   7.2614   7.5041
     7.6851   9.5022  10.2942  11.4388  11.7853  12.0610  12.1069  13.2939
    14.2164  14.4005

          k = 0.4375 0.4761 0.0000 (  6378 PWs)   bands (ev):

   -44.9234 -23.1279 -23.0766 -22.9439 -12.1586 -11.7040  -1.8772  -1.5963
    -1.0233  -0.6070  -0.1200   0.0527   4.3029   6.8191   7.1360   7.6144
     7.7205   9.6979  10.7249  11.5583  11.8939  12.1923  12.3505  13.4509
    14.2990  14.4716

          k = 0.4375 0.5494 0.0000 (  6377 PWs)   bands (ev):

   -44.9229 -23.1039 -23.0752 -22.9753 -12.1521 -11.6940  -1.7028  -1.5454
    -1.0225  -0.7193  -0.3862   0.0144   4.5226   6.5569   7.0425   7.6023
     7.9072   9.9236  10.7890  11.3541  12.0795  12.5531  12.9460  13.6209
    14.1326  14.3896

          k = 0.4375-0.1831 0.0000 (  6386 PWs)   bands (ev):

   -44.9279 -23.1339 -23.0903 -22.8750 -12.2184 -11.7970  -2.0012  -1.4758
    -1.1060  -0.3194   0.0437   0.6960   3.8302   6.8040   7.0877   7.5061
     7.5803   9.3659   9.7116  11.1442  11.7218  11.9791  12.8335  13.6335
    14.2531  14.5417

          k = 0.4375-0.1099 0.0000 (  6391 PWs)   bands (ev):

   -44.9288 -23.1059 -23.0928 -22.8922 -12.2306 -11.8150  -1.8052  -1.3417
    -1.1320  -0.4450   0.0615   0.4630   4.0078   6.4370   7.1105   7.4464
     7.6131   9.4942   9.8302  11.4614  11.9088  12.0595  13.0213  13.4882
    14.3181  14.6015

          k = 0.4375-0.0366 0.0000 (  6394 PWs)   bands (ev):

   -44.9293 -23.0951 -23.0821 -22.9094 -12.2373 -11.8245  -1.6312  -1.2235
    -1.1646  -0.5571   0.0135   0.3150   4.1621   6.1440   7.1093   7.4617
     7.6622   9.5465   9.9773  11.6429  12.1006  12.3211  13.0611  13.4051
    13.9613  14.4896

          k =-0.5000-0.2930 0.0000 (  6372 PWs)   bands (ev):

   -44.9255 -23.1674 -23.0830 -22.8727 -12.1867 -11.7479  -2.2054  -1.6466
    -1.0580  -0.3069   0.0275   0.7861   3.7446   6.9579   7.3550   7.6120
     7.7733   9.3340   9.6831  10.9343  11.5513  11.9885  12.4433  13.6213
    13.9463  14.1511

          k =-0.5000-0.2198 0.0000 (  6370 PWs)   bands (ev):

   -44.9255 -23.1595 -23.0830 -22.8811 -12.1866 -11.7482  -2.1474  -1.6211
    -1.0580  -0.3511   0.0278   0.6621   3.8248   7.0036   7.2853   7.5526
     7.7104   9.3991   9.8094  11.0790  11.6545  11.9890  12.4282  13.4171
    14.1543  14.2640

          k =-0.5000-0.1465 0.0000 (  6372 PWs)   bands (ev):

   -44.9255 -23.1381 -23.0830 -22.9038 -12.1863 -11.7487  -1.9886  -1.5506
    -1.0609  -0.4663   0.0227   0.3677   4.0238   6.8481   7.1991   7.5072
     7.6998   9.5933  10.0194  11.4469  11.8277  12.0065  12.4764  13.3355
    14.2628  14.5403

          k =-0.5000-0.0733 0.0000 (  6379 PWs)   bands (ev):

   -44.9255 -23.1114 -23.0830 -22.9318 -12.1859 -11.7493  -1.7873  -1.4596
    -1.0732  -0.5941  -0.0747   0.1420   4.2465   6.4854   7.1304   7.6337
     7.7364   9.8303  10.1548  11.6727  11.8255  12.2365  12.8389  13.4803
    14.2435  14.4997

          k =-0.5000 0.0000 0.0000 (  6383 PWs)   bands (ev):

   -44.9255 -23.0976 -23.0830 -22.9462 -12.1858 -11.7495  -1.6811  -1.4112
    -1.0856  -0.6509  -0.1994   0.1148   4.3531   6.3180   7.0888   7.7011
     7.7638   9.9513  10.1894  11.5819  11.8998  12.4934  13.1527  13.5146
    14.1339  14.2639

     highest occupied, lowest unoccupied level (ev):     4.7239    5.6787

!    total energy              =    -591.24380978 Ry
     total all-electron energy =    -13333.877086 Ry
     estimated scf accuracy    <          4.1E-11 Ry

     The total energy is the sum of the following terms:
     one-electron contribution =    -203.46438934 Ry
     hartree contribution      =     109.51169766 Ry
     xc contribution           =     -37.58408763 Ry
     ewald contribution        =     -28.59180013 Ry
     one-center paw contrib.   =    -431.11523034 Ry

     convergence has been achieved in   6 iterations

     negative rho (up, down):  3.114E-08 0.000E+00

     Forces acting on atoms (cartesian axes, Ry/au):

     atom    1 type  1   force =     0.00000000   -0.00094884    0.00000858
     atom    2 type  2   force =     0.00000000    0.00042852   -0.00202537
     atom    3 type  3   force =     0.00000000    0.00052032    0.00201679
     The non-local contrib.  to forces
     atom    1 type  1   force =     0.00000000   -0.00219824   -0.00070921
     atom    2 type  2   force =     0.00000000   -0.00129613   -0.21333824
     atom    3 type  3   force =     0.00000000   -0.00117257    0.20992799
     The ionic contribution  to forces
     atom    1 type  1   force =    -0.00000001   -0.11331448   -0.31043427
     atom    2 type  2   force =     0.00000000    0.06392550   20.84835255
     atom    3 type  3   force =     0.00000000    0.04938899  -20.53791828
     The local contribution  to forces
     atom    1 type  1   force =     0.00000000    0.11450041    0.31077811
     atom    2 type  2   force =     0.00000003   -0.06216564  -20.64508246
     atom    3 type  3   force =    -0.00000000   -0.04759050   20.33386575
     The core correction contribution to forces
     atom    1 type  1   force =    -0.00000000    0.00006480    0.00038565
     atom    2 type  2   force =    -0.00000000   -0.00003463    0.00806579
     atom    3 type  3   force =    -0.00000000   -0.00010539   -0.00382375
     The Hubbard contrib.    to forces
     atom    1 type  1   force =     0.00000000    0.00000000    0.00000000
     atom    2 type  2   force =     0.00000000    0.00000000    0.00000000
     atom    3 type  3   force =     0.00000000    0.00000000    0.00000000
     The SCF correction term to forces
     atom    1 type  1   force =     0.00000000   -0.00000176    0.00001728
     atom    2 type  2   force =    -0.00000000   -0.00000101    0.00000597
     atom    3 type  3   force =    -0.00000000   -0.00000064   -0.00000594

     Total force =     0.003086     Total SCF correction =     0.000019
     Energy error            =      1.9E-05 Ry
     Gradient error          =      2.0E-03 Ry/Bohr

     number of scf cycles    =   3
     number of bfgs steps    =   2

     energy             old  =    -591.2437909570 Ry
     energy             new  =    -591.2438097770 Ry

     CASE: energy            _new < energy            _old

     new trust radius        =       0.0052992364 bohr
     new conv_thr            =       0.0000000002 Ry


ATOMIC_POSITIONS (angstrom)
Zr            0.0000000000       -0.0033640420       10.2766847967
Cl           -0.0000000017        2.0159827815       11.9587269603
Br           -0.0000000017        2.0162381051        8.4277370175



     Writing config-only to output data dir ./tmp/ZrClBr.save/
     NEW-OLD atomic charge density approx. for the potential

     Check: negative core charge=   -0.000004

     negative rho (up, down):  3.231E-08 0.000E+00

     total cpu time spent up to now is       42.2 secs

     Self-consistent Calculation

     iteration #  1     ecut=    65.00 Ry     beta= 0.70
     Davidson diagonalization with overlap
     ethr =  1.00E-06,  avg # of iterations =  3.0

     Threshold (ethr) on eigenvalues was too large:
     Diagonalizing with lowered threshold

     Davidson diagonalization with overlap
     ethr =  1.63E-08,  avg # of iterations =  2.8

     negative rho (up, down):  3.291E-08 0.000E+00

     total cpu time spent up to now is       46.0 secs

     total energy              =    -591.24382626 Ry
     estimated scf accuracy    <       0.00000466 Ry

     iteration #  2     ecut=    65.00 Ry     beta= 0.70
     Davidson diagonalization with overlap
     ethr =  1.79E-08,  avg # of iterations =  2.0

     negative rho (up, down):  3.189E-08 0.000E+00

     total cpu time spent up to now is       47.6 secs

     total energy              =    -591.24382579 Ry
     estimated scf accuracy    <       0.00001638 Ry

     iteration #  3     ecut=    65.00 Ry     beta= 0.70
     Davidson diagonalization with overlap
     ethr =  1.79E-08,  avg # of iterations =  2.0

     negative rho (up, down):  3.183E-08 0.000E+00

     total cpu time spent up to now is       49.2 secs

     total energy              =    -591.24382874 Ry
     estimated scf accuracy    <       0.00000010 Ry

     iteration #  4     ecut=    65.00 Ry     beta= 0.70
     Davidson diagonalization with overlap
     ethr =  3.78E-10,  avg # of iterations =  2.0

     negative rho (up, down):  3.180E-08 0.000E+00

     total cpu time spent up to now is       50.7 secs

     total energy              =    -591.24382875 Ry
     estimated scf accuracy    <       0.00000005 Ry

     iteration #  5     ecut=    65.00 Ry     beta= 0.70
     Davidson diagonalization with overlap
     ethr =  1.88E-10,  avg # of iterations =  1.5

     negative rho (up, down):  3.177E-08 0.000E+00

     total cpu time spent up to now is       52.2 secs

     total energy              =    -591.24382876 Ry
     estimated scf accuracy    <          3.8E-09 Ry

     iteration #  6     ecut=    65.00 Ry     beta= 0.70
     Davidson diagonalization with overlap
     ethr =  1.48E-11,  avg # of iterations =  2.0

     negative rho (up, down):  3.179E-08 0.000E+00

     total cpu time spent up to now is       53.7 secs

     End of self-consistent calculation

          k = 0.0000 0.0000 0.0000 (  6443 PWs)   bands (ev):

   -44.9497 -23.1750 -22.8047 -22.7852 -12.7485 -12.1908  -2.1070  -0.0406
     0.1185   0.1868   1.2752   1.3615   4.2768   5.8541   6.0067   6.5652
     6.6230   6.7098   8.3255   9.3527  11.3063  13.4277  13.6372  13.8800
    14.5624  15.0898

          k = 0.0000 0.0733 0.0000 (  6449 PWs)   bands (ev):

   -44.9484 -23.1711 -22.8080 -22.8001 -12.7231 -12.1793  -2.0628  -0.1101
     0.1056   0.1365   1.2036   1.2389   4.2803   5.8890   5.9381   6.5814
     6.6256   6.8916   8.4546   9.5895  11.3711  13.1418  13.5551  14.2756
    14.5985  14.8437

          k = 0.0000 0.1465 0.0000 (  6425 PWs)   bands (ev):

   -44.9449 -23.1602 -22.8422 -22.8173 -12.6515 -12.1448  -1.9383  -0.3432
     0.0282   0.0643   0.8155   1.1439   4.2658   5.8180   6.0012   6.5346
     6.7865   7.3323   8.8134  10.1503  11.5649  12.5653  13.9182  14.0349
    14.4765  14.8625

          k = 0.0000 0.2198 0.0000 (  6389 PWs)   bands (ev):

   -44.9395 -23.1438 -22.9045 -22.8312 -12.5467 -12.0880  -1.7594  -0.7048
    -0.1666  -0.0087   0.4029   1.0224   4.1818   5.8084   6.2062   6.5670
     6.9991   7.8437   9.3182  10.7351  11.7973  12.1604  13.5256  14.2844
    14.4448  15.1401

          k = 0.0000 0.2930 0.0000 (  6385 PWs)   bands (ev):

   -44.9332 -23.1244 -22.9768 -22.8475 -12.4290 -12.0100  -1.5779  -1.0975
    -0.5501  -0.1088   0.1831   0.9036   4.0347   5.9877   6.5109   6.6763
     7.2111   8.3203   9.7567  11.1250  11.7353  12.0229  13.7004  14.0018
    14.9047  15.0021

          k = 0.0000 0.3663 0.0000 (  6391 PWs)   bands (ev):

   -44.9269 -23.1050 -23.0479 -22.8638 -12.3212 -11.9160  -1.6174  -1.2784
    -0.9804  -0.2193   0.1011   0.8039   3.8979   6.3138   6.8209   6.8986
     7.3860   8.7441   9.8998  11.2301  11.6293  11.9942  13.6975  14.2755
    14.6337  14.7311

          k = 0.0000 0.4395 0.0000 (  6376 PWs)   bands (ev):

   -44.9215 -23.1079 -23.0878 -22.8775 -12.2392 -11.8213  -1.9074  -1.3767
    -1.1412  -0.3177   0.0688   0.7295   3.8214   6.6791   6.9798   7.3127
     7.5114   9.1054   9.8195  11.0612  11.6775  11.9986  13.2265  14.1439
    14.2320  14.5919

          k = 0.0000 0.5128 0.0000 (  6396 PWs)   bands (ev):

   -44.9179 -23.1469 -23.0770 -22.8867 -12.1894 -11.7500  -2.1214  -1.5897
    -1.0798  -0.3847   0.0580   0.6834   3.7995   6.8877   7.2069   7.5594
     7.6794   9.3505   9.7122  10.9122  11.6775  12.0245  12.6991  13.6375
    14.0868  14.3491

          k = 0.0000-0.5860 0.0000 (  6374 PWs)   bands (ev):

   -44.9166 -23.1605 -23.0731 -22.8899 -12.1727 -11.7235  -2.1977  -1.6647
    -1.0571  -0.4084   0.0558   0.6677   3.7984   6.9330   7.3399   7.5880
     7.8120   9.4001   9.7106  10.8632  11.6107  12.0776  12.5053  13.4384
    13.9871  14.2140

          k = 0.0625 0.0366 0.0000 (  6429 PWs)   bands (ev):

   -44.9485 -23.1713 -22.8169 -22.7903 -12.7239 -12.1801  -2.0638  -0.1246
     0.0936   0.1659   1.1375   1.3128   4.2758   5.8151   6.0217   6.5428
     6.6716   6.8890   8.4469   9.5800  11.3692  13.0596  13.7076  14.2245
    14.5650  14.7248

          k = 0.0625 0.1099 0.0000 (  6435 PWs)   bands (ev):

   -44.9461 -23.1639 -22.8357 -22.8063 -12.6754 -12.1571  -1.9793  -0.2720
     0.0310   0.1189   0.9069   1.2056   4.2703   5.7952   6.0218   6.5267
     6.7557   7.1994   8.6914   9.9781  11.5008  12.6982  13.7972  14.1998
    14.5401  14.7207

          k = 0.0625 0.1831 0.0000 (  6415 PWs)   bands (ev):

   -44.9416 -23.1502 -22.8821 -22.8238 -12.5871 -12.1114  -1.8263  -0.5611
    -0.1018   0.0387   0.5296   1.0725   4.2255   5.7412   6.1731   6.5423
     6.9287   7.6703   9.1292  10.5441  11.7642  12.2670  13.5969  14.0527
    14.5705  15.0751

          k = 0.0625 0.2564 0.0000 (  6399 PWs)   bands (ev):

   -44.9358 -23.1323 -22.9463 -22.8420 -12.4759 -12.0438  -1.6392  -0.9327
    -0.3562  -0.1227   0.2645   0.9299   4.1173   5.8089   6.4510   6.6372
     7.1286   8.1584   9.6206  11.0068  11.8787  12.1027  13.3592  14.0053
    14.7753  15.0810

          k = 0.0625 0.3296 0.0000 (  6396 PWs)   bands (ev):

   -44.9295 -23.1129 -23.0157 -22.8606 -12.3637 -11.9567  -1.5147  -1.2575
    -0.7793  -0.2494   0.1578   0.7945   3.9879   6.0441   6.7498   6.8582
     7.3076   8.6125   9.9054  11.2614  11.7637  12.0312  13.7115  13.9509
    14.5635  14.8661

          k = 0.0625 0.4029 0.0000 (  6391 PWs)   bands (ev):

   -44.9236 -23.0952 -23.0787 -22.8774 -12.2702 -11.8603  -1.7435  -1.2654
    -1.1355  -0.3431   0.1009   0.6809   3.8994   6.4033   6.9128   7.2540
     7.4423   9.0286   9.8970  11.2391  11.7161  12.0289  13.4892  13.9721
    14.3904  14.6819

          k = 0.0625 0.4761 0.0000 (  6381 PWs)   bands (ev):

   -44.9191 -23.1273 -23.0807 -22.8902 -12.2057 -11.7750  -2.0001  -1.4935
    -1.1024  -0.4096   0.0690   0.5995   3.8691   6.7887   7.0591   7.4945
     7.6147   9.3829   9.7717  11.0906  11.7447  12.0189  12.8974  13.6024
    14.2909  14.5612

          k = 0.0625 0.5494 0.0000 (  6375 PWs)   bands (ev):

   -44.9167 -23.1529 -23.0733 -22.8971 -12.1732 -11.7247  -2.1429  -1.6411
    -1.0569  -0.4448   0.0552   0.5573   3.8702   6.9805   7.2637   7.5331
     7.7564   9.4689   9.8291  11.0040  11.6982  12.0668  12.4655  13.3393
    14.1743  14.2888

          k = 0.1250 0.0733 0.0000 (  6425 PWs)   bands (ev):

   -44.9452 -23.1608 -22.8558 -22.8006 -12.6544 -12.1480  -1.9421  -0.3723
     0.0096   0.1215   0.7672   1.2204   4.2476   5.7388   6.1132   6.5169
     6.8235   7.3259   8.7884  10.1263  11.5554  12.5241  13.9551  14.0508
    14.4504  14.7883

          k = 0.1250 0.1465 0.0000 (  6418 PWs)   bands (ev):

   -44.9419 -23.1507 -22.8884 -22.8152 -12.5892 -12.1139  -1.8289  -0.5785
    -0.1045   0.0628   0.5097   1.1169   4.2097   5.7251   6.2128   6.5316
     6.9496   7.6671   9.1136  10.5323  11.7540  12.2482  13.5674  14.0637
    14.6036  15.0347

          k = 0.1250 0.2198 0.0000 (  6400 PWs)   bands (ev):

   -44.9369 -23.1355 -22.9375 -22.8360 -12.4945 -12.0573  -1.6638  -0.8686
    -0.2853  -0.1383   0.2980   0.9560   4.1476   5.7153   6.4760   6.6227
     7.1087   8.1074   9.5566  10.9559  12.0054  12.1353  13.1243  13.9083
    14.7879  14.9785

          k = 0.1250 0.2930 0.0000 (  6406 PWs)   bands (ev):

   -44.9311 -23.1175 -22.9953 -22.8599 -12.3891 -11.9797  -1.4887  -1.1895
    -0.6152  -0.3422   0.1979   0.7669   4.0748   5.8161   6.7523   6.8829
     7.2639   8.5693   9.9138  11.2541  11.9565  12.3037  13.1267  13.7293
    14.4889  14.8662

          k = 0.1250 0.3663 0.0000 (  6386 PWs)   bands (ev):

   -44.9252 -23.0996 -23.0525 -22.8835 -12.2930 -11.8873  -1.5626  -1.2697
    -1.0115  -0.4475   0.1277   0.5772   4.0252   6.0640   6.9302   7.2746
     7.4137   9.0325   9.9964  11.4154  11.9729  12.1455  13.5031  13.6718
    13.9422  14.7032

          k = 0.1250 0.4395 0.0000 (  6376 PWs)   bands (ev):

   -44.9203 -23.1011 -23.0837 -22.9032 -12.2198 -11.7960  -1.8181  -1.3665
    -1.1291  -0.5084   0.0739   0.4139   4.0217   6.4327   7.0757   7.4347
     7.6667   9.5089   9.8798  11.4133  11.8989  12.0682  13.0052  13.5465
    14.3514  14.6175

          k = 0.1250 0.5128 0.0000 (  6364 PWs)   bands (ev):

   -44.9169 -23.1326 -23.0737 -22.9163 -12.1748 -11.7282  -1.9939  -1.5762
    -1.0596  -0.5382   0.0411   0.3023   4.0480   6.8408   7.1821   7.4734
     7.7627   9.6576  10.0377  11.3614  11.8214  12.0510  12.4845  13.3479
    14.3094  14.5320

          k = 0.1250 0.5860 0.0000 (  6374 PWs)   bands (ev):

   -44.9158 -23.1437 -23.0702 -22.9209 -12.1597 -11.7032  -2.0560  -1.6492
    -1.0363  -0.5467   0.0305   0.2624   4.0639   7.0464   7.2650   7.4718
     7.7028   9.5675  10.3022  11.3464  11.8108  12.0946  12.1423  13.2834
    14.2746  14.3765

          k = 0.1250 0.0000 0.0000 (  6413 PWs)   bands (ev):

   -44.9463 -23.1643 -22.8445 -22.7952 -12.6776 -12.1594  -1.9821  -0.2911
     0.0290   0.1469   0.8787   1.2520   4.2604   5.7292   6.1101   6.5280
     6.7716   7.1944   8.6714   9.9584  11.4968  12.6606  13.9346  14.1389
    14.4684  14.6904

          k = 0.1875 0.1099 0.0000 (  6419 PWs)   bands (ev):

   -44.9402 -23.1450 -22.9154 -22.8138 -12.5527 -12.0950  -1.7664  -0.7326
    -0.1872   0.0542   0.3756   1.1075   4.1470   5.7677   6.3001   6.5645
     7.0294   7.8371   9.2777  10.7097  11.7778  12.1288  13.4764  14.2357
    14.5664  15.0494

          k = 0.1875 0.1831 0.0000 (  6403 PWs)   bands (ev):

   -44.9364 -23.1334 -22.9540 -22.8285 -12.4810 -12.0502  -1.6446  -0.9556
    -0.3784  -0.0788   0.2594   1.0018   4.0836   5.8063   6.4966   6.6295
     7.1558   8.1550   9.5940  10.9918  11.8640  12.0700  13.3277  13.9596
    14.8253  15.0489

          k = 0.1875 0.2564 0.0000 (  6398 PWs)   bands (ev):

   -44.9314 -23.1182 -22.9990 -22.8529 -12.3921 -11.9837  -1.4915  -1.2015
    -0.6296  -0.3197   0.2028   0.8036   4.0556   5.8218   6.7530   6.8958
     7.2756   8.5692   9.9030  11.2457  11.9430  12.3144  13.0973  13.6941
    14.5105  14.8428

          k = 0.1875 0.3296 0.0000 (  6399 PWs)   bands (ev):

   -44.9261 -23.1017 -23.0432 -22.8831 -12.3035 -11.8998  -1.4685  -1.3038
    -0.9403  -0.4968   0.1231   0.5565   4.0775   5.9230   6.9443   7.2787
     7.4316   9.0400  10.0430  11.4544  12.1663  12.3887  13.1882  13.4857
    13.6628  14.7691

          k = 0.1875 0.4029 0.0000 (  6386 PWs)   bands (ev):

   -44.9211 -23.0872 -23.0801 -22.9136 -12.2293 -11.8099  -1.6641  -1.2569
    -1.1659  -0.5925   0.0166   0.3223   4.1476   6.1522   7.0794   7.4553
     7.7268   9.5691  10.0060  11.6052  12.1079  12.2681  13.0114  13.4268
    13.9699  14.5284

          k = 0.1875 0.4761 0.0000 (  6372 PWs)   bands (ev):

   -44.9173 -23.1084 -23.0744 -22.9384 -12.1774 -11.7332  -1.8100  -1.4938
    -1.0719  -0.6381  -0.0898   0.1508   4.2428   6.4901   7.1278   7.5925
     7.8162   9.8777  10.1815  11.6406  11.7640  12.2297  12.7859  13.5289
    14.2723  14.5054

          k = 0.1875 0.5494 0.0000 (  6373 PWs)   bands (ev):

   -44.9152 -23.1224 -23.0681 -22.9523 -12.1508 -11.6889  -1.8858  -1.6234
    -1.0241  -0.6544  -0.1573   0.0633   4.3136   6.8311   7.1428   7.6485
     7.6907   9.7540  10.7419  11.5279  11.7878  12.2319  12.3708  13.4516
    14.3356  14.4503

          k = 0.1875-0.0366 0.0000 (  6423 PWs)   bands (ev):

   -44.9422 -23.1513 -22.8918 -22.8083 -12.5925 -12.1175  -1.8329  -0.5819
    -0.1022   0.0744   0.5136   1.1301   4.2034   5.6883   6.2687   6.5667
     6.9350   7.6635   9.0875  10.5157  11.7537  12.2543  13.5559  14.1379
    14.5559  15.0137

          k = 0.2500 0.1465 0.0000 (  6405 PWs)   bands (ev):

   -44.9343 -23.1264 -22.9851 -22.8288 -12.4385 -12.0221  -1.5874  -1.1194
    -0.5714  -0.0373   0.1683   0.9978   3.9910   5.9713   6.5820   6.6849
     7.2380   8.3162   9.7158  11.1027  11.7208  11.9930  13.6520  13.9271
    14.8775  15.0300

          k = 0.2500 0.2198 0.0000 (  6381 PWs)   bands (ev):

   -44.9305 -23.1147 -23.0228 -22.8437 -12.3722 -11.9684  -1.5253  -1.2767
    -0.8000  -0.1963   0.1599   0.8848   3.9439   6.0478   6.7608   6.8911
     7.3342   8.6123   9.8767  11.2386  11.7600  12.0131  13.6372  13.8712
    14.5565  14.8713

          k = 0.2500 0.2930 0.0000 (  6398 PWs)   bands (ev):

   -44.9260 -23.1010 -23.0576 -22.8710 -12.2995 -11.8966  -1.5778  -1.2760
    -1.0245  -0.4120   0.1349   0.6390   3.9927   6.0697   6.9390   7.2940
     7.4286   9.0356   9.9751  11.3996  11.9913  12.1521  13.4408  13.7000
    13.8680  14.6459

          k = 0.2500 0.3663 0.0000 (  6381 PWs)   bands (ev):

   -44.9215 -23.0882 -23.0825 -22.9071 -12.2328 -11.8152  -1.6731  -1.2581
    -1.1696  -0.5756   0.0262   0.3446   4.1321   6.1521   7.0885   7.4598
     7.7361   9.5703   9.9929  11.5999  12.1150  12.3055  13.0676  13.3463
    13.9105  14.4840

          k = 0.2500 0.4395 0.0000 (  6367 PWs)   bands (ev):

   -44.9177 -23.0978 -23.0751 -22.9455 -12.1807 -11.7387  -1.7207  -1.4503
    -1.0848  -0.6733  -0.1931   0.1401   4.3270   6.3263   7.0936   7.6772
     7.8465   9.9673  10.2313  11.5812  11.8448  12.4695  13.0610  13.5359
    14.1479  14.2600

          k = 0.2500 0.5128 0.0000 (  6366 PWs)   bands (ev):

   -44.9152 -23.1011 -23.0674 -22.9771 -12.1478 -11.6842  -1.7287  -1.5764
    -1.0234  -0.7414  -0.4004   0.0355   4.5092   6.5685   7.0527   7.6768
     7.8679   9.9632  10.7884  11.3840  12.0089  12.5383  12.8916  13.6135
    14.1542  14.4091

          k = 0.2500 0.5860 0.0000 (  6382 PWs)   bands (ev):

   -44.9143 -23.1004 -23.0647 -22.9901 -12.1366 -11.6644  -1.7334  -1.6085
    -1.0016  -0.7788  -0.4716   0.0002   4.5861   6.7272   7.0326   7.5140
     7.9382   9.9509  10.8598  11.6895  12.1172  12.5411  12.5617  13.4688
    14.4200  14.4321

          k = 0.2500-0.0733 0.0000 (  6410 PWs)   bands (ev):

   -44.9368 -23.1342 -22.9537 -22.8249 -12.4848 -12.0547  -1.6489  -0.9463
    -0.3688  -0.0703   0.2616   0.9944   4.0879   5.7853   6.5214   6.6749
     7.1313   8.1525   9.5707  10.9849  11.8790  12.0851  13.3412  13.9984
    14.7942  15.0336

          k = 0.2500 0.0000 0.0000 (  6447 PWs)   bands (ev):

   -44.9377 -23.1369 -22.9407 -22.8255 -12.5015 -12.0656  -1.6717  -0.8658
    -0.2818  -0.1136   0.3051   0.9723   4.1397   5.6883   6.5279   6.6863
     7.0803   8.1023   9.5122  10.9386  12.0310  12.1406  13.1251  13.9457
    14.7587  14.9570

          k = 0.3125 0.1831 0.0000 (  6396 PWs)   bands (ev):

   -44.9283 -23.1077 -23.0538 -22.8435 -12.3339 -11.9340  -1.6316  -1.2905
    -0.9913  -0.1386   0.0846   0.9060   3.8516   6.3105   6.8374   6.9416
     7.4130   8.7447   9.8596  11.2157  11.6293  11.9696  13.5916  14.1962
    14.5217  14.8653

          k = 0.3125 0.2564 0.0000 (  6383 PWs)   bands (ev):

   -44.9250 -23.0978 -23.0844 -22.8581 -12.2820 -11.8777  -1.7622  -1.2708
    -1.1477  -0.2789   0.0977   0.7822   3.8510   6.4029   6.9288   7.2870
     7.4659   9.0347   9.8544  11.2403  11.7186  12.0102  13.3856  13.9932
    14.3539  14.6128

          k = 0.3125 0.3296 0.0000 (  6381 PWs)   bands (ev):

   -44.9214 -23.1059 -23.0860 -22.8871 -12.2297 -11.8109  -1.8359  -1.3675
    -1.1361  -0.4602   0.0753   0.4901   3.9830   6.4277   7.0990   7.4478
     7.6900   9.5186   9.8373  11.4295  11.9108  12.0692  13.0238  13.4888
    14.2863  14.5297

          k = 0.3125 0.4029 0.0000 (  6380 PWs)   bands (ev):

   -44.9181 -23.1119 -23.0760 -22.9270 -12.1844 -11.7440  -1.8223  -1.4900
    -1.0753  -0.6070  -0.0660   0.1717   4.2199   6.4776   7.1413   7.6096
     7.8322   9.8331  10.1986  11.6575  11.7939  12.2633  12.7758  13.4883
    14.2159  14.4480

          k = 0.3125 0.4761 0.0000 (  6370 PWs)   bands (ev):

   -44.9156 -23.1031 -23.0682 -22.9713 -12.1513 -11.6897  -1.7318  -1.5732
    -1.0251  -0.7272  -0.3815   0.0325   4.5025   6.5556   7.0556   7.6823
     7.8839   9.9337  10.8127  11.3978  12.0155  12.5627  12.8425  13.6584
    14.1345  14.3942

          k = 0.3125 0.5494 0.0000 (  6373 PWs)   bands (ev):

   -44.9142 -23.0855 -23.0640 -23.0081 -12.1340 -11.6593  -1.6955  -1.5142
    -0.9934  -0.8972  -0.5647  -0.0247   4.7168   6.6270   6.9878   7.4601
     8.0644  10.0951  10.6492  11.9990  12.2203  12.7358  12.8656  13.1934
    14.3119  14.5274

          k = 0.3125-0.1099 0.0000 (  6395 PWs)   bands (ev):

   -44.9309 -23.1155 -23.0205 -22.8422 -12.3759 -11.9733  -1.5236  -1.2671
    -0.7835  -0.1871   0.1516   0.8671   3.9570   6.0416   6.7905   6.8916
     7.3164   8.6087   9.8649  11.2457  11.7690  12.0216  13.6698  13.9174
    14.4880  14.8739

          k = 0.3125-0.0366 0.0000 (  6403 PWs)   bands (ev):

   -44.9323 -23.1197 -22.9969 -22.8471 -12.3995 -11.9933  -1.4981  -1.1812
    -0.6044  -0.3060   0.1997   0.7887   4.0678   5.8073   6.8187   6.9085
     7.2398   8.5624   9.8729  11.2457  11.9831  12.3297  13.1312  13.7464
    14.4006  14.8222

          k = 0.3750 0.2198 0.0000 (  6380 PWs)   bands (ev):

   -44.9233 -23.1117 -23.0913 -22.8559 -12.2547 -11.8446  -1.9217  -1.3724
    -1.1514  -0.2291   0.0471   0.8377   3.7731   6.6887   7.0007   7.3240
     7.5391   9.1112   9.7607  11.0909  11.6565  11.9699  13.1213  14.1288
    14.2974  14.5050

          k = 0.3750 0.2930 0.0000 (  6382 PWs)   bands (ev):

   -44.9209 -23.1313 -23.0840 -22.8693 -12.2205 -11.7976  -2.0174  -1.4878
    -1.1099  -0.3337   0.0557   0.7057   3.8194   6.7895   7.0766   7.5207
     7.6338   9.3932   9.7079  11.1396  11.7171  11.9796  12.8275  13.6874
    14.2253  14.4924

          k = 0.3750 0.3663 0.0000 (  6375 PWs)   bands (ev):

   -44.9185 -23.1363 -23.0766 -22.8982 -12.1877 -11.7481  -2.0090  -1.5666
    -1.0645  -0.4780   0.0315   0.3831   4.0094   6.8245   7.2047   7.4968
     7.7838   9.6090  10.0392  11.4286  11.8152  12.0182  12.4586  13.3592
    14.2466  14.4990

          k = 0.3750 0.4395 0.0000 (  6369 PWs)   bands (ev):

   -44.9164 -23.1253 -23.0703 -22.9384 -12.1608 -11.7045  -1.8938  -1.6101
    -1.0274  -0.6135  -0.1199   0.0658   4.2934   6.8048   7.1484   7.6696
     7.7193   9.7015  10.7604  11.5699  11.8558  12.2124  12.3063  13.4693
    14.2893  14.4535

          k = 0.3750 0.5128 0.0000 (  6380 PWs)   bands (ev):

   -44.9150 -23.1020 -23.0661 -22.9814 -12.1431 -11.6747  -1.7269  -1.5979
    -1.0046  -0.7590  -0.4464  -0.0126   4.5861   6.7060   7.0326   7.5001
     7.9748   9.9071  10.9123  11.6666  12.1472  12.5138  12.5603  13.5612
    14.4021  14.4334

          k = 0.3750 0.5860 0.0000 (  6374 PWs)   bands (ev):

   -44.9145 -23.0848 -23.0646 -23.0056 -12.1370 -11.6641  -1.6861  -1.5012
    -0.9961  -0.8965  -0.5589  -0.0329   4.7256   6.6214   6.9867   7.4343
     8.0843  10.0742  10.6763  11.9199  12.2513  12.7601  12.9222  13.2137
    14.2478  14.5662

          k = 0.3750-0.1465 0.0000 (  6397 PWs)   bands (ev):

   -44.9254 -23.0984 -23.0817 -22.8578 -12.2851 -11.8822  -1.7489  -1.2668
    -1.1376  -0.2688   0.0851   0.7629   3.8668   6.4152   6.9508   7.2490
     7.4608   9.0293   9.8513  11.2536  11.7185  12.0129  13.4054  13.9308
    14.3656  14.6872

          k = 0.3750-0.0733 0.0000 (  6390 PWs)   bands (ev):

   -44.9267 -23.1024 -23.0529 -22.8687 -12.3062 -11.9061  -1.5536  -1.2773
    -0.9936  -0.4015   0.1231   0.6089   4.0177   6.0685   6.9909   7.2606
     7.4051   9.0249   9.9661  11.4215  12.0051  12.1592  13.4977  13.6241
    13.9440  14.6532

          k = 0.3750 0.0000 0.0000 (  6409 PWs)   bands (ev):

   -44.9272 -23.1039 -23.0398 -22.8755 -12.3137 -11.9143  -1.4426  -1.3105
    -0.9059  -0.4766   0.1158   0.5426   4.0947   5.9177   7.0181   7.2469
     7.4079   9.0273  10.0240  11.4674  12.1979  12.4373  13.2034  13.4758
    13.6507  14.7289

          k = 0.4375 0.2564 0.0000 (  6377 PWs)   bands (ev):

   -44.9199 -23.1495 -23.0809 -22.8642 -12.2069 -11.7769  -2.1349  -1.5768
    -1.0866  -0.2909   0.0320   0.7955   3.7489   6.9162   7.2256   7.5875
     7.6618   9.3349   9.6551  10.9762  11.6349  11.9593  12.6243  13.8069
    14.0294  14.2767

          k = 0.4375 0.3296 0.0000 (  6366 PWs)   bands (ev):

   -44.9187 -23.1557 -23.0770 -22.8755 -12.1901 -11.7507  -2.1567  -1.6269
    -1.0623  -0.3600   0.0328   0.6627   3.8220   7.0091   7.2651   7.5614
     7.7517   9.4196   9.8086  11.0814  11.6465  11.9894  12.4315  13.4374
    14.1435  14.2500

          k = 0.4375 0.4029 0.0000 (  6371 PWs)   bands (ev):

   -44.9175 -23.1459 -23.0734 -22.9022 -12.1746 -11.7264  -2.0645  -1.6311
    -1.0408  -0.4791   0.0125   0.3378   4.0312   7.0507   7.2701   7.5115
     7.6918   9.5063  10.3006  11.4422  11.7881  12.0612  12.1102  13.2973
    14.2126  14.4057

          k = 0.4375 0.4761 0.0000 (  6378 PWs)   bands (ev):

   -44.9166 -23.1232 -23.0707 -22.9384 -12.1628 -11.7078  -1.8824  -1.6006
    -1.0283  -0.6106  -0.1227   0.0526   4.3044   6.8244   7.1465   7.6212
     7.7297   9.7025  10.7320  11.5610  11.8938  12.1924  12.3535  13.4534
    14.2968  14.4758

          k = 0.4375 0.5494 0.0000 (  6377 PWs)   bands (ev):

   -44.9161 -23.0993 -23.0693 -22.9698 -12.1564 -11.6977  -1.7082  -1.5505
    -1.0278  -0.7223  -0.3890   0.0155   4.5237   6.5619   7.0531   7.6087
     7.9179   9.9291  10.7952  11.3572  12.0778  12.5503  12.9495  13.6239
    14.1332  14.3911

          k = 0.4375-0.1831 0.0000 (  6386 PWs)   bands (ev):

   -44.9211 -23.1292 -23.0845 -22.8694 -12.2226 -11.8007  -2.0069  -1.4784
    -1.1105  -0.3254   0.0450   0.6913   3.8318   6.8120   7.0953   7.5138
     7.5852   9.3780   9.7115  11.1470  11.7257  11.9817  12.8360  13.6335
    14.2521  14.5469

          k = 0.4375-0.1099 0.0000 (  6391 PWs)   bands (ev):

   -44.9220 -23.1012 -23.0870 -22.8866 -12.2348 -11.8186  -1.8110  -1.3450
    -1.1366  -0.4504   0.0624   0.4593   4.0088   6.4454   7.1161   7.4580
     7.6163   9.5014   9.8361  11.4605  11.9129  12.0627  13.0236  13.4877
    14.3173  14.6040

          k = 0.4375-0.0366 0.0000 (  6394 PWs)   bands (ev):

   -44.9225 -23.0893 -23.0774 -22.9038 -12.2414 -11.8281  -1.6371  -1.2274
    -1.1693  -0.5618   0.0125   0.3136   4.1624   6.1531   7.1145   7.4733
     7.6658   9.5494   9.9885  11.6408  12.1069  12.3188  13.0622  13.4059
    13.9638  14.4894

          k =-0.5000-0.2930 0.0000 (  6372 PWs)   bands (ev):

   -44.9188 -23.1628 -23.0771 -22.8671 -12.1909 -11.7516  -2.2108  -1.6488
    -1.0626  -0.3127   0.0282   0.7812   3.7467   6.9668   7.3625   7.6215
     7.7756   9.3425   9.6863  10.9394  11.5540  11.9899  12.4472  13.6219
    13.9537  14.1469

          k =-0.5000-0.2198 0.0000 (  6370 PWs)   bands (ev):

   -44.9188 -23.1549 -23.0772 -22.8756 -12.1908 -11.7519  -2.1529  -1.6236
    -1.0626  -0.3568   0.0287   0.6575   3.8267   7.0123   7.2928   7.5619
     7.7138   9.4066   9.8132  11.0833  11.6573  11.9907  12.4323  13.4183
    14.1532  14.2676

          k =-0.5000-0.1465 0.0000 (  6372 PWs)   bands (ev):

   -44.9188 -23.1334 -23.0772 -22.8983 -12.1905 -11.7524  -1.9941  -1.5537
    -1.0657  -0.4715   0.0235   0.3639   4.0253   6.8554   7.2072   7.5180
     7.7034   9.6003  10.0236  11.4485  11.8333  12.0075  12.4794  13.3359
    14.2607  14.5453

          k =-0.5000-0.0733 0.0000 (  6379 PWs)   bands (ev):

   -44.9188 -23.1067 -23.0772 -22.9262 -12.1901 -11.7530  -1.7928  -1.4636
    -1.0781  -0.5983  -0.0768   0.1417   4.2474   6.4930   7.1389   7.6448
     7.7401   9.8369  10.1600  11.6769  11.8268  12.2353  12.8422  13.4801
    14.2433  14.5017

          k =-0.5000 0.0000 0.0000 (  6383 PWs)   bands (ev):

   -44.9188 -23.0929 -23.0771 -22.9406 -12.1900 -11.7532  -1.6867  -1.4158
    -1.0907  -0.6546  -0.2022   0.1157   4.3536   6.3258   7.0974   7.7094
     7.7703   9.9568  10.1961  11.5875  11.8991  12.4888  13.1587  13.5137
    14.1359  14.2649

     highest occupied, lowest unoccupied level (ev):     4.7256    5.6883

!    total energy              =    -591.24382876 Ry
     total all-electron energy =    -13333.877105 Ry
     estimated scf accuracy    <          9.9E-11 Ry

     The total energy is the sum of the following terms:
     one-electron contribution =    -203.88490903 Ry
     hartree contribution      =     109.72327878 Ry
     xc contribution           =     -37.58660641 Ry
     ewald contribution        =     -28.38022164 Ry
     one-center paw contrib.   =    -431.11537047 Ry

     convergence has been achieved in   6 iterations

     negative rho (up, down):  3.179E-08 0.000E+00

     Forces acting on atoms (cartesian axes, Ry/au):

     atom    1 type  1   force =     0.00000000   -0.00030200    0.00003979
     atom    2 type  2   force =     0.00000000    0.00011595   -0.00124226
     atom    3 type  3   force =     0.00000000    0.00018604    0.00120247
     The non-local contrib.  to forces
     atom    1 type  1   force =     0.00000000   -0.00194745   -0.00071499
     atom    2 type  2   force =     0.00000000   -0.00142127   -0.21287353
     atom    3 type  3   force =     0.00000000   -0.00131904    0.20957438
     The ionic contribution  to forces
     atom    1 type  1   force =    -0.00000001   -0.10640707   -0.30746627
     atom    2 type  2   force =     0.00000000    0.06004943   20.86985423
     atom    3 type  3   force =     0.00000000    0.04635764  -20.56238796
     The local contribution  to forces
     atom    1 type  1   force =     0.00000000    0.10798453    0.30781668
     atom    2 type  2   force =     0.00000003   -0.05848577  -20.66619544
     atom    3 type  3   force =    -0.00000000   -0.04476941   20.35781279
     The core correction contribution to forces
     atom    1 type  1   force =    -0.00000000    0.00006931    0.00038593
     atom    2 type  2   force =    -0.00000000   -0.00002586    0.00797686
     atom    3 type  3   force =    -0.00000000   -0.00008348   -0.00377107
     The Hubbard contrib.    to forces
     atom    1 type  1   force =     0.00000000    0.00000000    0.00000000
     atom    2 type  2   force =     0.00000000    0.00000000    0.00000000
     atom    3 type  3   force =     0.00000000    0.00000000    0.00000000
     The SCF correction term to forces
     atom    1 type  1   force =     0.00000000   -0.00000263    0.00003302
     atom    2 type  2   force =    -0.00000000   -0.00000190    0.00001021
     atom    3 type  3   force =    -0.00000000   -0.00000098   -0.00001109

     Total force =     0.001769     Total SCF correction =     0.000036
     Energy error            =      1.9E-05 Ry
     Gradient error          =      1.2E-03 Ry/Bohr

     number of scf cycles    =   4
     number of bfgs steps    =   3

     energy             old  =    -591.2438097770 Ry
     energy             new  =    -591.2438287644 Ry

     CASE: energy            _new < energy            _old

     new trust radius        =       0.0070162330 bohr
     new conv_thr            =       0.0000000002 Ry


ATOMIC_POSITIONS (angstrom)
Zr            0.0000000000       -0.0048409078       10.2767305528
Cl           -0.0000000017        2.0166320424       11.9550713384
Br           -0.0000000017        2.0170657100        8.4313468832



     Writing config-only to output data dir ./tmp/ZrClBr.save/
     NEW-OLD atomic charge density approx. for the potential

     Check: negative core charge=   -0.000004

     negative rho (up, down):  3.287E-08 0.000E+00

     total cpu time spent up to now is       54.2 secs

     Self-consistent Calculation

     iteration #  1     ecut=    65.00 Ry     beta= 0.70
     Davidson diagonalization with overlap
     ethr =  1.00E-06,  avg # of iterations =  3.0

     Threshold (ethr) on eigenvalues was too large:
     Diagonalizing with lowered threshold

     Davidson diagonalization with overlap
     ethr =  2.88E-08,  avg # of iterations =  2.8

     negative rho (up, down):  3.361E-08 0.000E+00

     total cpu time spent up to now is       57.9 secs

     total energy              =    -591.24383344 Ry
     estimated scf accuracy    <       0.00000817 Ry

     iteration #  2     ecut=    65.00 Ry     beta= 0.70
     Davidson diagonalization with overlap
     ethr =  3.14E-08,  avg # of iterations =  2.0

     negative rho (up, down):  3.226E-08 0.000E+00

     total cpu time spent up to now is       59.5 secs

     total energy              =    -591.24383265 Ry
     estimated scf accuracy    <       0.00002882 Ry

     iteration #  3     ecut=    65.00 Ry     beta= 0.70
     Davidson diagonalization with overlap
     ethr =  3.14E-08,  avg # of iterations =  2.0

     negative rho (up, down):  3.217E-08 0.000E+00

     total cpu time spent up to now is       61.1 secs

     total energy              =    -591.24383781 Ry
     estimated scf accuracy    <       0.00000016 Ry

     iteration #  4     ecut=    65.00 Ry     beta= 0.70
     Davidson diagonalization with overlap
     ethr =  6.29E-10,  avg # of iterations =  2.0

     negative rho (up, down):  3.212E-08 0.000E+00

     total cpu time spent up to now is       62.7 secs

     total energy              =    -591.24383784 Ry
     estimated scf accuracy    <       0.00000009 Ry

     iteration #  5     ecut=    65.00 Ry     beta= 0.70
     Davidson diagonalization with overlap
     ethr =  3.31E-10,  avg # of iterations =  1.4

     negative rho (up, down):  3.209E-08 0.000E+00

     total cpu time spent up to now is       64.1 secs

     total energy              =    -591.24383786 Ry
     estimated scf accuracy    <          6.3E-09 Ry

     iteration #  6     ecut=    65.00 Ry     beta= 0.70
     Davidson diagonalization with overlap
     ethr =  2.41E-11,  avg # of iterations =  2.0

     negative rho (up, down):  3.211E-08 0.000E+00

     total cpu time spent up to now is       65.6 secs

     End of self-consistent calculation

          k = 0.0000 0.0000 0.0000 (  6443 PWs)   bands (ev):

   -44.9407 -23.1679 -22.7972 -22.7775 -12.7556 -12.1927  -2.1136  -0.0374
     0.1062   0.1768   1.2637   1.3543   4.2905   5.8613   6.0181   6.5730
     6.6215   6.7124   8.3226   9.3528  11.2994  13.4284  13.6316  13.8936
    14.5609  15.0900

          k = 0.0000 0.0733 0.0000 (  6449 PWs)   bands (ev):

   -44.9395 -23.1640 -22.8005 -22.7924 -12.7301 -12.1812  -2.0695  -0.1102
     0.0934   0.1299   1.1970   1.2275   4.2935   5.8961   5.9494   6.5804
     6.6337   6.8943   8.4524   9.5889  11.3647  13.1444  13.5558  14.2803
    14.5983  14.8538

          k = 0.0000 0.1465 0.0000 (  6425 PWs)   bands (ev):

   -44.9359 -23.1530 -22.8347 -22.8098 -12.6584 -12.1470  -1.9453  -0.3488
     0.0266   0.0522   0.8104   1.1329   4.2772   5.8294   6.0080   6.5348
     6.7954   7.3352   8.8134  10.1476  11.5604  12.5686  13.9189  14.0449
    14.4805  14.8606

          k = 0.0000 0.2198 0.0000 (  6389 PWs)   bands (ev):

   -44.9305 -23.1365 -22.8972 -22.8237 -12.5533 -12.0906  -1.7668  -0.7122
    -0.1684  -0.0206   0.4016   1.0120   4.1909   5.8202   6.2123   6.5686
     7.0093   7.8466   9.3225  10.7292  11.7971  12.1630  13.5327  14.2879
    14.4457  15.1390

          k = 0.0000 0.2930 0.0000 (  6385 PWs)   bands (ev):

   -44.9242 -23.1170 -22.9697 -22.8401 -12.4353 -12.0131  -1.5861  -1.1045
    -0.5541  -0.1205   0.1856   0.8940   4.0421   5.9990   6.5163   6.6795
     7.2227   8.3235   9.7673  11.1178  11.7371  12.0259  13.7034  14.0019
    14.9070  15.0069

          k = 0.0000 0.3663 0.0000 (  6391 PWs)   bands (ev):

   -44.9178 -23.0975 -23.0410 -22.8564 -12.3272 -11.9198  -1.6258  -1.2847
    -0.9851  -0.2309   0.1048   0.7951   3.9047   6.3235   6.8257   6.9033
     7.3989   8.7492   9.9121  11.2296  11.6293  11.9951  13.6980  14.2759
    14.6396  14.7355

          k = 0.0000 0.4395 0.0000 (  6376 PWs)   bands (ev):

   -44.9124 -23.1011 -23.0803 -22.8701 -12.2450 -11.8256  -1.9144  -1.3810
    -1.1489  -0.3292   0.0729   0.7213   3.8281   6.6862   6.9865   7.3172
     7.5251   9.1157   9.8251  11.0657  11.6785  11.9994  13.2306  14.1480
    14.2357  14.5977

          k = 0.0000 0.5128 0.0000 (  6396 PWs)   bands (ev):

   -44.9088 -23.1402 -23.0694 -22.8793 -12.1951 -11.7547  -2.1275  -1.5940
    -1.0881  -0.3962   0.0622   0.6756   3.8065   6.8931   7.2151   7.5730
     7.6843   9.3647   9.7117  10.9173  11.6817  12.0264  12.7034  13.6412
    14.0981  14.3497

          k = 0.0000-0.5860 0.0000 (  6374 PWs)   bands (ev):

   -44.9076 -23.1539 -23.0655 -22.8825 -12.1784 -11.7282  -2.2035  -1.6690
    -1.0656  -0.4199   0.0600   0.6601   3.8055   6.9384   7.3487   7.6027
     7.8159   9.4059   9.7183  10.8680  11.6148  12.0796  12.5106  13.4419
    14.0048  14.2080

          k = 0.0625 0.0366 0.0000 (  6429 PWs)   bands (ev):

   -44.9395 -23.1641 -22.8095 -22.7826 -12.7309 -12.1820  -2.0704  -0.1272
     0.0872   0.1561   1.1272   1.3051   4.2886   5.8228   6.0326   6.5490
     6.6721   6.8917   8.4447   9.5800  11.3629  13.0642  13.7042  14.2322
    14.5637  14.7261

          k = 0.0625 0.1099 0.0000 (  6435 PWs)   bands (ev):

   -44.9371 -23.1567 -22.8283 -22.7988 -12.6823 -12.1592  -1.9861  -0.2776
     0.0268   0.1096   0.9000   1.1959   4.2820   5.8049   6.0305   6.5284
     6.7621   7.2023   8.6906   9.9766  11.4957  12.7019  13.7970  14.2071
    14.5496  14.7136

          k = 0.0625 0.1831 0.0000 (  6415 PWs)   bands (ev):

   -44.9326 -23.1430 -22.8747 -22.8163 -12.5938 -12.1139  -1.8334  -0.5687
    -0.1042   0.0285   0.5262   1.0626   4.2350   5.7522   6.1803   6.5435
     6.9379   7.6733   9.1316  10.5395  11.7623  12.2697  13.6049  14.0544
    14.5759  15.0708

          k = 0.0625 0.2564 0.0000 (  6399 PWs)   bands (ev):

   -44.9268 -23.1250 -22.9391 -22.8345 -12.4823 -12.0467  -1.6468  -0.9403
    -0.3595  -0.1334   0.2646   0.9206   4.1248   5.8203   6.4572   6.6397
     7.1397   8.1612   9.6289  10.9994  11.8793  12.1054  13.3648  14.0088
    14.7760  15.0838

          k = 0.0625 0.3296 0.0000 (  6396 PWs)   bands (ev):

   -44.9205 -23.1055 -23.0087 -22.8532 -12.3698 -11.9603  -1.5236  -1.2638
    -0.7840  -0.2591   0.1594   0.7859   3.9943   6.0548   6.7535   6.8638
     7.3202   8.6160   9.9186  11.2556  11.7652  12.0323  13.7146  13.9515
    14.5697  14.8689

          k = 0.0625 0.4029 0.0000 (  6391 PWs)   bands (ev):

   -44.9146 -23.0877 -23.0718 -22.8701 -12.2760 -11.8644  -1.7510  -1.2711
    -1.1418  -0.3531   0.1037   0.6729   3.9056   6.4124   6.9177   7.2595
     7.4555   9.0353   9.9076  11.2410  11.7156  12.0296  13.4927  13.9774
    14.3897  14.6863

          k = 0.0625 0.4761 0.0000 (  6381 PWs)   bands (ev):

   -44.9101 -23.1205 -23.0731 -22.8829 -12.2115 -11.7795  -2.0065  -1.4981
    -1.1105  -0.4202   0.0726   0.5920   3.8756   6.7959   7.0656   7.5074
     7.6209   9.3964   9.7724  11.0953  11.7476  12.0200  12.9024  13.6072
    14.2918  14.5688

          k = 0.0625 0.5494 0.0000 (  6375 PWs)   bands (ev):

   -44.9077 -23.1463 -23.0656 -22.8898 -12.1789 -11.7295  -2.1487  -1.6457
    -1.0653  -0.4556   0.0591   0.5500   3.8769   6.9866   7.2711   7.5470
     7.7627   9.4744   9.8363  11.0089  11.7024  12.0687  12.4705  13.3444
    14.1817  14.2910

          k = 0.1250 0.0733 0.0000 (  6425 PWs)   bands (ev):

   -44.9362 -23.1536 -22.8485 -22.7930 -12.6612 -12.1503  -1.9487  -0.3803
     0.0085   0.1117   0.7600   1.2120   4.2577   5.7483   6.1227   6.5220
     6.8263   7.3289   8.7882  10.1255  11.5514  12.5287  13.9572  14.0480
    14.4607  14.7815

          k = 0.1250 0.1465 0.0000 (  6418 PWs)   bands (ev):

   -44.9329 -23.1434 -22.8811 -22.8076 -12.5958 -12.1164  -1.8358  -0.5869
    -0.1062   0.0525   0.5061   1.1080   4.2183   5.7359   6.2209   6.5345
     6.9566   7.6702   9.1159  10.5287  11.7529  12.2508  13.5712  14.0674
    14.6089  15.0280

          k = 0.1250 0.2198 0.0000 (  6400 PWs)   bands (ev):

   -44.9279 -23.1281 -22.9304 -22.8286 -12.5009 -12.0603  -1.6710  -0.8769
    -0.2882  -0.1483   0.2969   0.9476   4.1544   5.7269   6.4829   6.6255
     7.1188   8.1103   9.5638  10.9488  12.0054  12.1371  13.1303  13.9149
    14.7884  14.9810

          k = 0.1250 0.2930 0.0000 (  6406 PWs)   bands (ev):

   -44.9221 -23.1101 -22.9883 -22.8525 -12.3952 -11.9832  -1.4968  -1.1968
    -0.6207  -0.3494   0.1974   0.7595   4.0801   5.8277   6.7555   6.8894
     7.2761   8.5721   9.9272  11.2464  11.9537  12.3050  13.1348  13.7351
    14.4920  14.8683

          k = 0.1250 0.3663 0.0000 (  6386 PWs)   bands (ev):

   -44.9162 -23.0921 -23.0456 -22.8761 -12.2989 -11.8913  -1.5706  -1.2765
    -1.0175  -0.4549   0.1281   0.5707   4.0299   6.0748   6.9347   7.2823
     7.4249   9.0362  10.0111  11.4108  11.9732  12.1448  13.5084  13.6766
    13.9461  14.7057

          k = 0.1250 0.4395 0.0000 (  6376 PWs)   bands (ev):

   -44.9112 -23.0943 -23.0761 -22.8959 -12.2255 -11.8004  -1.8248  -1.3721
    -1.1370  -0.5165   0.0753   0.4081   4.0268   6.4421   7.0827   7.4467
     7.6729   9.5168   9.8876  11.4143  11.9002  12.0694  13.0118  13.5483
    14.3518  14.6215

          k = 0.1250 0.5128 0.0000 (  6364 PWs)   bands (ev):

   -44.9079 -23.1259 -23.0661 -22.9091 -12.1805 -11.7329  -1.9998  -1.5818
    -1.0678  -0.5470   0.0434   0.2968   4.0536   6.8484   7.1914   7.4840
     7.7706   9.6636  10.0439  11.3652  11.8273  12.0514  12.4884  13.3519
    14.3089  14.5405

          k = 0.1250 0.5860 0.0000 (  6374 PWs)   bands (ev):

   -44.9067 -23.1371 -23.0625 -22.9137 -12.1654 -11.7080  -2.0617  -1.6549
    -1.0446  -0.5557   0.0331   0.2568   4.0697   7.0542   7.2733   7.4813
     7.7132   9.5691  10.3127  11.3508  11.8144  12.0998  12.1427  13.2883
    14.2702  14.3896

          k = 0.1250 0.0000 0.0000 (  6413 PWs)   bands (ev):

   -44.9373 -23.1571 -22.8372 -22.7875 -12.6844 -12.1616  -1.9887  -0.2988
     0.0265   0.1386   0.8698   1.2445   4.2710   5.7381   6.1204   6.5354
     6.7713   7.1973   8.6705   9.9584  11.4919  12.6665  13.9295  14.1401
    14.4811  14.6822

          k = 0.1875 0.1099 0.0000 (  6419 PWs)   bands (ev):

   -44.9312 -23.1377 -22.9083 -22.8062 -12.5591 -12.0979  -1.7731  -0.7415
    -0.1907   0.0448   0.3742   1.0991   4.1535   5.7792   6.3081   6.5699
     7.0346   7.8405   9.2817  10.7063  11.7795  12.1317  13.4748  14.2460
    14.5632  15.0449

          k = 0.1875 0.1831 0.0000 (  6403 PWs)   bands (ev):

   -44.9274 -23.1260 -22.9470 -22.8210 -12.4873 -12.0534  -1.6517  -0.9642
    -0.3836  -0.0867   0.2593   0.9935   4.0891   5.8181   6.5038   6.6343
     7.1640   8.1584   9.6018  10.9855  11.8655  12.0736  13.3269  13.9686
    14.8219  15.0519

          k = 0.1875 0.2564 0.0000 (  6398 PWs)   bands (ev):

   -44.9224 -23.1107 -22.9921 -22.8454 -12.3981 -11.9874  -1.4992  -1.2091
    -0.6363  -0.3250   0.2020   0.7964   4.0597   5.8339   6.7577   6.9028
     7.2862   8.5722   9.9162  11.2381  11.9395  12.3184  13.1019  13.7022
    14.5138  14.8437

          k = 0.1875 0.3296 0.0000 (  6399 PWs)   bands (ev):

   -44.9170 -23.0942 -23.0363 -22.8758 -12.3093 -11.9039  -1.4771  -1.3102
    -0.9474  -0.5018   0.1220   0.5512   4.0807   5.9351   6.9504   7.2873
     7.4411   9.0427  10.0593  11.4477  12.1621  12.3877  13.1983  13.4911
    13.6685  14.7701

          k = 0.1875 0.4029 0.0000 (  6386 PWs)   bands (ev):

   -44.9120 -23.0797 -23.0732 -22.9064 -12.2351 -11.8144  -1.6712  -1.2638
    -1.1735  -0.5980   0.0146   0.3196   4.1507   6.1635   7.0891   7.4651
     7.7333   9.5720  10.0203  11.6003  12.1099  12.2686  13.0143  13.4310
    13.9773  14.5316

          k = 0.1875 0.4761 0.0000 (  6372 PWs)   bands (ev):

   -44.9082 -23.1016 -23.0667 -22.9313 -12.1831 -11.7379  -1.8161  -1.5009
    -1.0798  -0.6441  -0.0938   0.1513   4.2465   6.4994   7.1409   7.6004
     7.8239   9.8845  10.1879  11.6426  11.7662  12.2305  12.7897  13.5311
    14.2766  14.5087

          k = 0.1875 0.5494 0.0000 (  6373 PWs)   bands (ev):

   -44.9062 -23.1157 -23.0604 -22.9452 -12.1565 -11.6937  -1.8914  -1.6305
    -1.0321  -0.6609  -0.1627   0.0658   4.3181   6.8374   7.1570   7.6569
     7.7004   9.7576  10.7517  11.5318  11.7887  12.2328  12.3734  13.4557
    14.3370  14.4572

          k = 0.1875-0.0366 0.0000 (  6423 PWs)   bands (ev):

   -44.9332 -23.1440 -22.8847 -22.8007 -12.5990 -12.1202  -1.8395  -0.5912
    -0.1050   0.0666   0.5088   1.1225   4.2105   5.6994   6.2773   6.5736
     6.9372   7.6668   9.0897  10.5140  11.7528  12.2592  13.5553  14.1364
    14.5672  15.0041

          k = 0.2500 0.1465 0.0000 (  6405 PWs)   bands (ev):

   -44.9252 -23.1189 -22.9783 -22.8212 -12.4445 -12.0257  -1.5945  -1.1274
    -0.5774  -0.0461   0.1708   0.9898   3.9950   5.9836   6.5883   6.6918
     7.2457   8.3202   9.7258  11.0970  11.7248  11.9959  13.6486  13.9325
    14.8778  15.0308

          k = 0.2500 0.2198 0.0000 (  6381 PWs)   bands (ev):

   -44.9214 -23.1072 -23.0161 -22.8362 -12.3781 -11.9723  -1.5335  -1.2835
    -0.8061  -0.2023   0.1602   0.8770   3.9474   6.0595   6.7678   6.8980
     7.3433   8.6164   9.8893  11.2326  11.7636  12.0145  13.6408  13.8710
    14.5620  14.8707

          k = 0.2500 0.2930 0.0000 (  6398 PWs)   bands (ev):

   -44.9169 -23.0934 -23.0509 -22.8636 -12.3052 -11.9008  -1.5861  -1.2823
    -1.0311  -0.4169   0.1345   0.6326   3.9954   6.0815   6.9476   7.3014
     7.4376   9.0393   9.9896  11.3945  11.9929  12.1521  13.4461  13.7045
    13.8711  14.6467

          k = 0.2500 0.3663 0.0000 (  6381 PWs)   bands (ev):

   -44.9125 -23.0807 -23.0756 -22.8998 -12.2385 -11.8197  -1.6806  -1.2652
    -1.1766  -0.5800   0.0243   0.3413   4.1341   6.1639   7.1008   7.4678
     7.7429   9.5726  10.0077  11.5947  12.1166  12.3070  13.0698  13.3509
    13.9177  14.4864

          k = 0.2500 0.4395 0.0000 (  6367 PWs)   bands (ev):

   -44.9086 -23.0912 -23.0674 -22.9384 -12.1864 -11.7435  -1.7274  -1.4581
    -1.0921  -0.6776  -0.1976   0.1409   4.3290   6.3369   7.1081   7.6851
     7.8542   9.9749  10.2380  11.5843  11.8411  12.4708  13.0643  13.5386
    14.1548  14.2651

          k = 0.2500 0.5128 0.0000 (  6366 PWs)   bands (ev):

   -44.9061 -23.0945 -23.0596 -22.9701 -12.1536 -11.6890  -1.7353  -1.5841
    -1.0309  -0.7462  -0.4053   0.0378   4.5120   6.5754   7.0679   7.6878
     7.8763   9.9701  10.7940  11.3885  12.0040  12.5401  12.8951  13.6162
    14.1608  14.4143

          k = 0.2500 0.5860 0.0000 (  6382 PWs)   bands (ev):

   -44.9052 -23.0938 -23.0569 -22.9831 -12.1423 -11.6693  -1.7404  -1.6155
    -1.0091  -0.7842  -0.4762   0.0029   4.5895   6.7300   7.0478   7.5290
     7.9467   9.9569  10.8668  11.6923  12.1130  12.5423  12.5651  13.4725
    14.4294  14.4334

          k = 0.2500-0.0733 0.0000 (  6410 PWs)   bands (ev):

   -44.9278 -23.1268 -22.9468 -22.8173 -12.4910 -12.0581  -1.6556  -0.9551
    -0.3745  -0.0778   0.2616   0.9870   4.0919   5.7979   6.5280   6.6819
     7.1374   8.1561   9.5784  10.9803  11.8819  12.0895  13.3385  14.0030
    14.7961  15.0341

          k = 0.2500 0.0000 0.0000 (  6447 PWs)   bands (ev):

   -44.9287 -23.1295 -22.9338 -22.8179 -12.5076 -12.0689  -1.6784  -0.8749
    -0.2871  -0.1204   0.3036   0.9656   4.1435   5.7011   6.5348   6.6935
     7.0856   8.1057   9.5191  10.9345  12.0344  12.1444  13.1241  13.9479
    14.7634  14.9590

          k = 0.3125 0.1831 0.0000 (  6396 PWs)   bands (ev):

   -44.9193 -23.1001 -23.0472 -22.8360 -12.3396 -11.9381  -1.6401  -1.2964
    -0.9967  -0.1471   0.0872   0.8984   3.8545   6.3221   6.8462   6.9467
     7.4229   8.7505   9.8712  11.2135  11.6338  11.9709  13.5933  14.1947
    14.5247  14.8680

          k = 0.3125 0.2564 0.0000 (  6383 PWs)   bands (ev):

   -44.9160 -23.0902 -23.0778 -22.8507 -12.2877 -11.8821  -1.7704  -1.2763
    -1.1535  -0.2851   0.0982   0.7750   3.8538   6.4136   6.9388   7.2937
     7.4753   9.0412   9.8648  11.2410  11.7218  12.0113  13.3880  13.9972
    14.3531  14.6142

          k = 0.3125 0.3296 0.0000 (  6381 PWs)   bands (ev):

   -44.9124 -23.0994 -23.0783 -22.8797 -12.2354 -11.8155  -1.8435  -1.3731
    -1.1426  -0.4654   0.0752   0.4842   3.9853   6.4383   7.1126   7.4553
     7.6970   9.5250   9.8464  11.4297  11.9141  12.0711  13.0282  13.4914
    14.2860  14.5314

          k = 0.3125 0.4029 0.0000 (  6380 PWs)   bands (ev):

   -44.9091 -23.1055 -23.0682 -22.9197 -12.1901 -11.7487  -1.8293  -1.4968
    -1.0821  -0.6114  -0.0688   0.1700   4.2218   6.4877   7.1573   7.6167
     7.8402   9.8412  10.2040  11.6577  11.7962  12.2656  12.7793  13.4908
    14.2188  14.4507

          k = 0.3125 0.4761 0.0000 (  6370 PWs)   bands (ev):

   -44.9065 -23.0966 -23.0604 -22.9641 -12.1571 -11.6945  -1.7388  -1.5808
    -1.0321  -0.7314  -0.3857   0.0339   4.5044   6.5628   7.0713   7.6932
     7.8933   9.9415  10.8172  11.4022  12.0103  12.5646  12.8462  13.6608
    14.1403  14.4003

          k = 0.3125 0.5494 0.0000 (  6373 PWs)   bands (ev):

   -44.9051 -23.0790 -23.0561 -23.0010 -12.1398 -11.6642  -1.7042  -1.5204
    -1.0001  -0.9030  -0.5671  -0.0229   4.7193   6.6284   7.0035   7.4762
     8.0750  10.1047  10.6517  12.0011  12.2158  12.7369  12.8674  13.1970
    14.3209  14.5323

          k = 0.3125-0.1099 0.0000 (  6395 PWs)   bands (ev):

   -44.9218 -23.1079 -23.0139 -22.8347 -12.3818 -11.9773  -1.5316  -1.2739
    -0.7892  -0.1947   0.1531   0.8601   3.9594   6.0542   6.7970   6.8974
     7.3265   8.6132   9.8776  11.2405  11.7731  12.0241  13.6717  13.9163
    14.4903  14.8759

          k = 0.3125-0.0366 0.0000 (  6403 PWs)   bands (ev):

   -44.9232 -23.1122 -22.9903 -22.8395 -12.4054 -11.9972  -1.5052  -1.1892
    -0.6106  -0.3123   0.1996   0.7829   4.0696   5.8205   6.8248   6.9139
     7.2501   8.5660   9.8859  11.2404  11.9840  12.3335  13.1324  13.7493
    14.4010  14.8245

          k = 0.3750 0.2198 0.0000 (  6380 PWs)   bands (ev):

   -44.9143 -23.1053 -23.0836 -22.8484 -12.2604 -11.8491  -1.9296  -1.3764
    -1.1576  -0.2375   0.0491   0.8306   3.7758   6.6992   7.0111   7.3282
     7.5506   9.1218   9.7662  11.0949  11.6602  11.9726  13.1231  14.1300
    14.2992  14.5095

          k = 0.3750 0.2930 0.0000 (  6382 PWs)   bands (ev):

   -44.9118 -23.1250 -23.0763 -22.8619 -12.2262 -11.8023  -2.0249  -1.4919
    -1.1163  -0.3405   0.0563   0.6990   3.8222   6.7997   7.0876   7.5308
     7.6405   9.4071   9.7084  11.1452  11.7213  11.9819  12.8291  13.6932
    14.2238  14.4958

          k = 0.3750 0.3663 0.0000 (  6375 PWs)   bands (ev):

   -44.9094 -23.1300 -23.0688 -22.8908 -12.1935 -11.7529  -2.0161  -1.5715
    -1.0711  -0.4838   0.0319   0.3775   4.0118   6.8337   7.2205   7.5037
     7.7922   9.6170  10.0438  11.4327  11.8222  12.0187  12.4596  13.3650
    14.2440  14.5035

          k = 0.3750 0.4395 0.0000 (  6369 PWs)   bands (ev):

   -44.9073 -23.1189 -23.0625 -22.9311 -12.1666 -11.7094  -1.9006  -1.6164
    -1.0342  -0.6182  -0.1233   0.0654   4.2955   6.8118   7.1641   7.6804
     7.7284   9.7074  10.7679  11.5741  11.8555  12.2139  12.3090  13.4739
    14.2875  14.4593

          k = 0.3750 0.5128 0.0000 (  6380 PWs)   bands (ev):

   -44.9060 -23.0957 -23.0583 -22.9742 -12.1490 -11.6796  -1.7342  -1.6050
    -1.0115  -0.7633  -0.4498  -0.0113   4.5882   6.7089   7.0480   7.5142
     7.9864   9.9141  10.9198  11.6681  12.1434  12.5189  12.5592  13.5652
    14.4016  14.4403

          k = 0.3750 0.5860 0.0000 (  6374 PWs)   bands (ev):

   -44.9055 -23.0786 -23.0568 -22.9983 -12.1428 -11.6690  -1.6946  -1.5079
    -1.0037  -0.9008  -0.5610  -0.0315   4.7278   6.6223   7.0022   7.4498
     8.0969  10.0831  10.6808  11.9219  12.2480  12.7564  12.9261  13.2181
    14.2523  14.5736

          k = 0.3750-0.1465 0.0000 (  6397 PWs)   bands (ev):

   -44.9163 -23.0907 -23.0752 -22.8503 -12.2908 -11.8867  -1.7571  -1.2720
    -1.1430  -0.2770   0.0871   0.7563   3.8689   6.4267   6.9590   7.2526
     7.4738   9.0368   9.8617  11.2532  11.7224  12.0158  13.4070  13.9330
    14.3646  14.6904

          k = 0.3750-0.0733 0.0000 (  6390 PWs)   bands (ev):

   -44.9177 -23.0948 -23.0464 -22.8611 -12.3119 -11.9105  -1.5621  -1.2832
    -0.9989  -0.4086   0.1238   0.6038   4.0189   6.0810   6.9971   7.2658
     7.4182   9.0294   9.9809  11.4173  12.0079  12.1613  13.5000  13.6266
    13.9451  14.6535

          k = 0.3750 0.0000 0.0000 (  6409 PWs)   bands (ev):

   -44.9182 -23.0962 -23.0334 -22.8679 -12.3194 -11.9186  -1.4518  -1.3160
    -0.9116  -0.4830   0.1154   0.5388   4.0953   5.9309   7.0233   7.2542
     7.4198   9.0307  10.0405  11.4629  12.2005  12.4340  13.2107  13.4769
    13.6529  14.7288

          k = 0.4375 0.2564 0.0000 (  6377 PWs)   bands (ev):

   -44.9109 -23.1433 -23.0731 -22.8567 -12.2126 -11.7817  -2.1423  -1.5800
    -1.0930  -0.2992   0.0335   0.7889   3.7518   6.9270   7.2358   7.5983
     7.6670   9.3515   9.6535  10.9827  11.6396  11.9620  12.6273  13.8078
    14.0356  14.2768

          k = 0.4375 0.3296 0.0000 (  6366 PWs)   bands (ev):

   -44.9096 -23.1494 -23.0692 -22.8680 -12.1959 -11.7555  -2.1640  -1.6304
    -1.0687  -0.3674   0.0337   0.6564   3.8249   7.0213   7.2733   7.5732
     7.7583   9.4285   9.8136  11.0880  11.6511  11.9910  12.4347  13.4429
    14.1421  14.2530

          k = 0.4375 0.4029 0.0000 (  6371 PWs)   bands (ev):

   -44.9085 -23.1396 -23.0656 -22.8948 -12.1805 -11.7312  -2.0716  -1.6356
    -1.0474  -0.4855   0.0134   0.3324   4.0337   7.0607   7.2817   7.5215
     7.7009   9.5116  10.3092  11.4468  11.7917  12.0615  12.1148  13.3020
    14.2076  14.4131

          k = 0.4375 0.4761 0.0000 (  6378 PWs)   bands (ev):

   -44.9076 -23.1169 -23.0629 -22.9310 -12.1686 -11.7126  -1.8894  -1.6065
    -1.0351  -0.6157  -0.1263   0.0529   4.3064   6.8312   7.1606   7.6305
     7.7415   9.7085  10.7412  11.5648  11.8939  12.1926  12.3574  13.4569
    14.2939  14.4818

          k = 0.4375 0.5494 0.0000 (  6377 PWs)   bands (ev):

   -44.9071 -23.0930 -23.0614 -22.9625 -12.1622 -11.7025  -1.7155  -1.5574
    -1.0350  -0.7264  -0.3928   0.0170   4.5253   6.5685   7.0674   7.6174
     7.9317   9.9365  10.8032  11.3615  12.0753  12.5471  12.9540  13.6276
    14.1345  14.3936

          k = 0.4375-0.1831 0.0000 (  6386 PWs)   bands (ev):

   -44.9121 -23.1229 -23.0767 -22.8619 -12.2283 -11.8054  -2.0145  -1.4821
    -1.1169  -0.3338   0.0469   0.6851   3.8343   6.8222   7.1054   7.5232
     7.5926   9.3937   9.7117  11.1508  11.7308  11.9851  12.8392  13.6343
    14.2505  14.5540

          k = 0.4375-0.1099 0.0000 (  6391 PWs)   bands (ev):

   -44.9130 -23.0948 -23.0793 -22.8791 -12.2405 -11.8233  -1.8188  -1.3494
    -1.1431  -0.4578   0.0635   0.4544   4.0103   6.4565   7.1238   7.4724
     7.6211   9.5101   9.8447  11.4595  11.9179  12.0668  13.0269  13.4873
    14.3162  14.6072

          k = 0.4375-0.0366 0.0000 (  6394 PWs)   bands (ev):

   -44.9134 -23.0817 -23.0710 -22.8963 -12.2471 -11.8328  -1.6451  -1.2328
    -1.1758  -0.5681   0.0111   0.3117   4.1630   6.1652   7.1220   7.4876
     7.6712   9.5528  10.0040  11.6376  12.1146  12.3163  13.0637  13.4075
    13.9676  14.4895

          k =-0.5000-0.2930 0.0000 (  6372 PWs)   bands (ev):

   -44.9097 -23.1566 -23.0693 -22.8597 -12.1967 -11.7565  -2.2181  -1.6518
    -1.0690  -0.3211   0.0295   0.7747   3.7498   6.9782   7.3724   7.6346
     7.7788   9.3530   9.6912  10.9461  11.5576  11.9918  12.4526  13.6230
    13.9642  14.1411

          k =-0.5000-0.2198 0.0000 (  6370 PWs)   bands (ev):

   -44.9097 -23.1486 -23.0693 -22.8681 -12.1966 -11.7567  -2.1601  -1.6269
    -1.0691  -0.3649   0.0301   0.6513   3.8295   7.0235   7.3027   7.5745
     7.7185   9.4161   9.8187  11.0891  11.6610  11.9929  12.4378  13.4205
    14.1511  14.2733

          k =-0.5000-0.1465 0.0000 (  6372 PWs)   bands (ev):

   -44.9097 -23.1271 -23.0694 -22.8908 -12.1962 -11.7572  -2.0014  -1.5579
    -1.0723  -0.4786   0.0247   0.3588   4.0275   6.8649   7.2181   7.5319
     7.7085   9.6094  10.0293  11.4509  11.8407  12.0086  12.4832  13.3370
    14.2578  14.5522

          k =-0.5000-0.0733 0.0000 (  6379 PWs)   bands (ev):

   -44.9097 -23.1004 -23.0694 -22.9188 -12.1959 -11.7578  -1.8002  -1.4691
    -1.0849  -0.6040  -0.0795   0.1414   4.2488   6.5030   7.1505   7.6586
     7.7455   9.8454  10.1670  11.6820  11.8286  12.2341  12.8467  13.4802
    14.2433  14.5045

          k =-0.5000 0.0000 0.0000 (  6383 PWs)   bands (ev):

   -44.9097 -23.0866 -23.0693 -22.9332 -12.1958 -11.7580  -1.6942  -1.4220
    -1.0976  -0.6596  -0.2060   0.1169   4.3544   6.3364   7.1093   7.7191
     7.7798   9.9637  10.2052  11.5945  11.8977  12.4834  13.1661  13.5128
    14.1390  14.2666

     highest occupied, lowest unoccupied level (ev):     4.7278    5.6994

!    total energy              =    -591.24383786 Ry
     total all-electron energy =    -13333.877114 Ry
     estimated scf accuracy    <          1.7E-10 Ry

     The total energy is the sum of the following terms:
     one-electron contribution =    -204.44978741 Ry
     hartree contribution      =     110.00748279 Ry
     xc contribution           =     -37.59000289 Ry
     ewald contribution        =     -28.09597028 Ry
     one-center paw contrib.   =    -431.11556007 Ry

     convergence has been achieved in   6 iterations

     negative rho (up, down):  3.211E-08 0.000E+00

     Forces acting on atoms (cartesian axes, Ry/au):

     atom    1 type  1   force =     0.00000000    0.00041457    0.00004743
     atom    2 type  2   force =     0.00000000   -0.00022656   -0.00016127
     atom    3 type  3   force =     0.00000000   -0.00018801    0.00011384
     The non-local contrib.  to forces
     atom    1 type  1   force =     0.00000000   -0.00167240   -0.00070789
     atom    2 type  2   force =     0.00000000   -0.00155941   -0.21223107
     atom    3 type  3   force =     0.00000000   -0.00148387    0.20909704
     The ionic contribution  to forces
     atom    1 type  1   force =    -0.00000001   -0.09887331   -0.30369605
     atom    2 type  2   force =     0.00000000    0.05586458   20.89874947
     atom    3 type  3   force =     0.00000000    0.04300872  -20.59505342
     The local contribution  to forces
     atom    1 type  1   force =     0.00000000    0.10088634    0.30401956
     atom    2 type  2   force =     0.00000003   -0.05451608  -20.69455087
     atom    3 type  3   force =    -0.00000000   -0.04165547   20.38978237
     The core correction contribution to forces
     atom    1 type  1   force =    -0.00000000    0.00007416    0.00038475
     atom    2 type  2   force =    -0.00000000   -0.00001644    0.00785337
     atom    3 type  3   force =    -0.00000000   -0.00005910   -0.00370082
     The Hubbard contrib.    to forces
     atom    1 type  1   force =     0.00000000    0.00000000    0.00000000
     atom    2 type  2   force =     0.00000000    0.00000000    0.00000000
     atom    3 type  3   force =     0.00000000    0.00000000    0.00000000
     The SCF correction term to forces
     atom    1 type  1   force =     0.00000000   -0.00000310    0.00004333
     atom    2 type  2   force =    -0.00000000   -0.00000210    0.00001410
     atom    3 type  3   force =    -0.00000000   -0.00000118   -0.00001507

     Total force =     0.000548     Total SCF correction =     0.000048
     Energy error            =      9.1E-06 Ry
     Gradient error          =      4.1E-04 Ry/Bohr

     number of scf cycles    =   5
     number of bfgs steps    =   4

     energy             old  =    -591.2438287644 Ry
     energy             new  =    -591.2438378604 Ry

     CASE: energy            _new < energy            _old

     new trust radius        =       0.0003601518 bohr
     new conv_thr            =            1.0E-10 Ry


ATOMIC_POSITIONS (angstrom)
Zr            0.0000000000       -0.0046519173       10.2767551472
Cl           -0.0000000017        2.0165259360       11.9549250423
Br           -0.0000000017        2.0169828258        8.4314685849



     Writing config-only to output data dir ./tmp/ZrClBr.save/
     NEW-OLD atomic charge density approx. for the potential

     Check: negative core charge=   -0.000004

     negative rho (up, down):  3.222E-08 0.000E+00

     total cpu time spent up to now is       66.1 secs

     Self-consistent Calculation

     iteration #  1     ecut=    65.00 Ry     beta= 0.70
     Davidson diagonalization with overlap
     ethr =  1.00E-06,  avg # of iterations =  2.0

     Threshold (ethr) on eigenvalues was too large:
     Diagonalizing with lowered threshold

     Davidson diagonalization with overlap
     ethr =  9.68E-11,  avg # of iterations =  4.0

     negative rho (up, down):  3.223E-08 0.000E+00

     total cpu time spent up to now is       69.7 secs

     total energy              =    -591.24383811 Ry
     estimated scf accuracy    <       0.00000002 Ry

     iteration #  2     ecut=    65.00 Ry     beta= 0.70
     Davidson diagonalization with overlap
     ethr =  5.90E-11,  avg # of iterations =  2.0

     negative rho (up, down):  3.218E-08 0.000E+00

     total cpu time spent up to now is       71.3 secs

     total energy              =    -591.24383811 Ry
     estimated scf accuracy    <       0.00000004 Ry

     iteration #  3     ecut=    65.00 Ry     beta= 0.70
     Davidson diagonalization with overlap
     ethr =  5.90E-11,  avg # of iterations =  2.0

     negative rho (up, down):  3.218E-08 0.000E+00

     total cpu time spent up to now is       72.8 secs

     total energy              =    -591.24383812 Ry
     estimated scf accuracy    <          1.3E-09 Ry

     iteration #  4     ecut=    65.00 Ry     beta= 0.70
     Davidson diagonalization with overlap
     ethr =  4.89E-12,  avg # of iterations =  1.5

     negative rho (up, down):  3.218E-08 0.000E+00

     total cpu time spent up to now is       74.2 secs

     total energy              =    -591.24383812 Ry
     estimated scf accuracy    <          1.1E-10 Ry

     iteration #  5     ecut=    65.00 Ry     beta= 0.70
     Davidson diagonalization with overlap
     ethr =  4.32E-13,  avg # of iterations =  2.0

     negative rho (up, down):  3.217E-08 0.000E+00

     total cpu time spent up to now is       75.8 secs

     End of self-consistent calculation

          k = 0.0000 0.0000 0.0000 (  6443 PWs)   bands (ev):

   -44.9404 -23.1676 -22.7969 -22.7772 -12.7559 -12.1926  -2.1139  -0.0373
     0.1058   0.1760   1.2638   1.3538   4.2910   5.8620   6.0183   6.5725
     6.6222   6.7125   8.3225   9.3528  11.2992  13.4280  13.6319  13.8940
    14.5609  15.0909

          k = 0.0000 0.0733 0.0000 (  6449 PWs)   bands (ev):

   -44.9391 -23.1637 -22.8002 -22.7922 -12.7305 -12.1812  -2.0697  -0.1104
     0.0929   0.1295   1.1966   1.2276   4.2940   5.8967   5.9496   6.5811
     6.6333   6.8943   8.4523   9.5890  11.3645  13.1448  13.5554  14.2806
    14.5983  14.8533

          k = 0.0000 0.1465 0.0000 (  6425 PWs)   bands (ev):

   -44.9355 -23.1527 -22.8344 -22.8095 -12.6587 -12.1470  -1.9455  -0.3494
     0.0266   0.0519   0.8102   1.1330   4.2776   5.8296   6.0085   6.5353
     6.7951   7.3353   8.8133  10.1477  11.5603  12.5689  13.9185  14.0445
    14.4811  14.8602

          k = 0.0000 0.2198 0.0000 (  6389 PWs)   bands (ev):

   -44.9301 -23.1362 -22.8969 -22.8234 -12.5536 -12.0906  -1.7670  -0.7128
    -0.1685  -0.0209   0.4015   1.0120   4.1910   5.8206   6.2128   6.5691
     7.0091   7.8467   9.3227  10.7292  11.7973  12.1631  13.5321  14.2887
    14.4453  15.1386

          k = 0.0000 0.2930 0.0000 (  6385 PWs)   bands (ev):

   -44.9238 -23.1167 -22.9695 -22.8398 -12.4356 -12.0132  -1.5863  -1.1050
    -0.5543  -0.1208   0.1857   0.8940   4.0420   5.9995   6.5166   6.6801
     7.2227   8.3237   9.7676  11.1177  11.7375  12.0260  13.7029  14.0025
    14.9068  15.0066

          k = 0.0000 0.3663 0.0000 (  6391 PWs)   bands (ev):

   -44.9175 -23.0972 -23.0407 -22.8561 -12.3275 -11.9198  -1.6263  -1.2850
    -0.9852  -0.2311   0.1049   0.7950   3.9045   6.3240   6.8264   6.9035
     7.3991   8.7494   9.9125  11.2295  11.6298  11.9952  13.6981  14.2757
    14.6395  14.7355

          k = 0.0000 0.4395 0.0000 (  6376 PWs)   bands (ev):

   -44.9121 -23.1009 -23.0800 -22.8698 -12.2454 -11.8257  -1.9148  -1.3811
    -1.1490  -0.3294   0.0729   0.7213   3.8280   6.6868   6.9873   7.3174
     7.5254   9.1162   9.8253  11.0660  11.6787  11.9996  13.2305  14.1480
    14.2356  14.5978

          k = 0.0000 0.5128 0.0000 (  6396 PWs)   bands (ev):

   -44.9085 -23.1400 -23.0691 -22.8790 -12.1954 -11.7547  -2.1279  -1.5940
    -1.0882  -0.3964   0.0621   0.6756   3.8064   6.8939   7.2158   7.5733
     7.6844   9.3656   9.7116  10.9177  11.6819  12.0266  12.7034  13.6411
    14.0979  14.3496

          k = 0.0000-0.5860 0.0000 (  6374 PWs)   bands (ev):

   -44.9072 -23.1537 -23.0652 -22.8822 -12.1788 -11.7282  -2.2039  -1.6690
    -1.0657  -0.4201   0.0599   0.6601   3.8054   6.9392   7.3492   7.6031
     7.8160   9.4067   9.7182  10.8684  11.6149  12.0797  12.5108  13.4418
    14.0046  14.2078

          k = 0.0625 0.0366 0.0000 (  6429 PWs)   bands (ev):

   -44.9392 -23.1639 -22.8091 -22.7824 -12.7312 -12.1820  -2.0707  -0.1273
     0.0869   0.1555   1.1273   1.3047   4.2891   5.8235   6.0328   6.5488
     6.6726   6.8917   8.4446   9.5800  11.3627  13.0641  13.7043  14.2324
    14.5638  14.7267

          k = 0.0625 0.1099 0.0000 (  6435 PWs)   bands (ev):

   -44.9368 -23.1565 -22.8280 -22.7985 -12.6826 -12.1592  -1.9863  -0.2780
     0.0265   0.1093   0.8998   1.1958   4.2824   5.8053   6.0309   6.5287
     6.7620   7.2024   8.6905   9.9767  11.4955  12.7022  13.7967  14.2071
    14.5502  14.7132

          k = 0.0625 0.1831 0.0000 (  6415 PWs)   bands (ev):

   -44.9323 -23.1427 -22.8744 -22.8160 -12.5941 -12.1139  -1.8337  -0.5692
    -0.1043   0.0282   0.5261   1.0626   4.2352   5.7527   6.1807   6.5440
     6.9378   7.6734   9.1317  10.5395  11.7624  12.2699  13.6045  14.0542
    14.5765  15.0704

          k = 0.0625 0.2564 0.0000 (  6399 PWs)   bands (ev):

   -44.9264 -23.1247 -22.9389 -22.8342 -12.4826 -12.0468  -1.6471  -0.9409
    -0.3597  -0.1337   0.2647   0.9206   4.1248   5.8208   6.4575   6.6402
     7.1397   8.1614   9.6292  10.9993  11.8795  12.1057  13.3642  14.0092
    14.7759  15.0838

          k = 0.0625 0.3296 0.0000 (  6396 PWs)   bands (ev):

   -44.9201 -23.1052 -23.0084 -22.8529 -12.3701 -11.9604  -1.5239  -1.2642
    -0.7841  -0.2593   0.1594   0.7859   3.9942   6.0553   6.7539   6.8642
     7.3204   8.6163   9.9191  11.2555  11.7656  12.0323  13.7146  13.9514
    14.5697  14.8687

          k = 0.0625 0.4029 0.0000 (  6391 PWs)   bands (ev):

   -44.9142 -23.0874 -23.0715 -22.8698 -12.2763 -11.8645  -1.7514  -1.2713
    -1.1419  -0.3534   0.1036   0.6729   3.9054   6.4129   6.9184   7.2596
     7.4558   9.0356   9.9079  11.2410  11.7159  12.0298  13.4927  13.9773
    14.3897  14.6863

          k = 0.0625 0.4761 0.0000 (  6381 PWs)   bands (ev):

   -44.9097 -23.1203 -23.0728 -22.8826 -12.2118 -11.7796  -2.0069  -1.4982
    -1.1106  -0.4204   0.0725   0.5920   3.8754   6.7964   7.0664   7.5078
     7.6211   9.3970   9.7724  11.0956  11.7478  12.0203  12.9023  13.6072
    14.2917  14.5688

          k = 0.0625 0.5494 0.0000 (  6375 PWs)   bands (ev):

   -44.9073 -23.1461 -23.0653 -22.8895 -12.1793 -11.7295  -2.1491  -1.6458
    -1.0655  -0.4558   0.0590   0.5500   3.8768   6.9874   7.2717   7.5473
     7.7629   9.4751   9.8362  11.0093  11.7025  12.0688  12.4706  13.3444
    14.1815  14.2908

          k = 0.1250 0.0733 0.0000 (  6425 PWs)   bands (ev):

   -44.9358 -23.1533 -22.8482 -22.7927 -12.6615 -12.1503  -1.9490  -0.3806
     0.0084   0.1110   0.7600   1.2118   4.2581   5.7488   6.1230   6.5219
     6.8267   7.3290   8.7882  10.1254  11.5512  12.5287  13.9577  14.0481
    14.4609  14.7815

          k = 0.1250 0.1465 0.0000 (  6418 PWs)   bands (ev):

   -44.9325 -23.1431 -22.8808 -22.8073 -12.5961 -12.1164  -1.8360  -0.5874
    -0.1063   0.0521   0.5060   1.1078   4.2186   5.7363   6.2212   6.5347
     6.9568   7.6703   9.1160  10.5286  11.7529  12.2510  13.5713  14.0671
    14.6096  15.0276

          k = 0.1250 0.2198 0.0000 (  6400 PWs)   bands (ev):

   -44.9276 -23.1279 -22.9301 -22.8283 -12.5012 -12.0603  -1.6713  -0.8774
    -0.2883  -0.1486   0.2969   0.9475   4.1545   5.7274   6.4832   6.6258
     7.1190   8.1104   9.5640  10.9487  12.0055  12.1374  13.1302  13.9148
    14.7887  14.9810

          k = 0.1250 0.2930 0.0000 (  6406 PWs)   bands (ev):

   -44.9217 -23.1098 -22.9881 -22.8522 -12.3955 -11.9832  -1.4971  -1.1972
    -0.6209  -0.3496   0.1974   0.7594   4.0800   5.8283   6.7559   6.8897
     7.2764   8.5723   9.9277  11.2462  11.9538  12.3054  13.1346  13.7352
    14.4919  14.8682

          k = 0.1250 0.3663 0.0000 (  6386 PWs)   bands (ev):

   -44.9158 -23.0918 -23.0454 -22.8758 -12.2992 -11.8914  -1.5710  -1.2767
    -1.0176  -0.4551   0.1281   0.5707   4.0298   6.0754   6.9353   7.2825
     7.4254   9.0364  10.0116  11.4107  11.9735  12.1450  13.5084  13.6766
    13.9461  14.7056

          k = 0.1250 0.4395 0.0000 (  6376 PWs)   bands (ev):

   -44.9109 -23.0941 -23.0758 -22.8956 -12.2259 -11.8005  -1.8252  -1.3722
    -1.1372  -0.5167   0.0753   0.4081   4.0266   6.4426   7.0834   7.4472
     7.6731   9.5171   9.8879  11.4143  11.9005  12.0696  13.0118  13.5482
    14.3517  14.6215

          k = 0.1250 0.5128 0.0000 (  6364 PWs)   bands (ev):

   -44.9075 -23.1257 -23.0658 -22.9088 -12.1809 -11.7329  -2.0002  -1.5819
    -1.0680  -0.5471   0.0433   0.2968   4.0535   6.8489   7.1922   7.4844
     7.7708   9.6641  10.0440  11.3653  11.8276  12.0515  12.4884  13.3520
    14.3087  14.5404

          k = 0.1250 0.5860 0.0000 (  6374 PWs)   bands (ev):

   -44.9064 -23.1368 -23.0621 -22.9134 -12.1658 -11.7080  -2.0621  -1.6550
    -1.0448  -0.5558   0.0331   0.2568   4.0696   7.0548   7.2740   7.4817
     7.7134   9.5696  10.3129  11.3510  11.8145  12.0999  12.1427  13.2885
    14.2700  14.3895

          k = 0.1250 0.0000 0.0000 (  6413 PWs)   bands (ev):

   -44.9370 -23.1569 -22.8369 -22.7872 -12.6847 -12.1616  -1.9889  -0.2990
     0.0264   0.1378   0.8699   1.2442   4.2715   5.7386   6.1205   6.5349
     6.7721   7.1974   8.6704   9.9582  11.4917  12.6664  13.9299  14.1409
    14.4814  14.6820

          k = 0.1875 0.1099 0.0000 (  6419 PWs)   bands (ev):

   -44.9308 -23.1374 -22.9080 -22.8059 -12.5594 -12.0979  -1.7734  -0.7419
    -0.1907   0.0442   0.3743   1.0989   4.1539   5.7796   6.3083   6.5700
     7.0350   7.8405   9.2818  10.7060  11.7795  12.1317  13.4753  14.2460
    14.5634  15.0448

          k = 0.1875 0.1831 0.0000 (  6403 PWs)   bands (ev):

   -44.9270 -23.1257 -22.9467 -22.8207 -12.4876 -12.0534  -1.6520  -0.9646
    -0.3836  -0.0873   0.2593   0.9934   4.0893   5.8185   6.5040   6.6345
     7.1644   8.1585   9.6021  10.9852  11.8656  12.0738  13.3272  13.9683
    14.8225  15.0517

          k = 0.1875 0.2564 0.0000 (  6398 PWs)   bands (ev):

   -44.9221 -23.1104 -22.9918 -22.8451 -12.3984 -11.9874  -1.4995  -1.2095
    -0.6363  -0.3255   0.2020   0.7963   4.0599   5.8344   6.7578   6.9030
     7.2867   8.5723   9.9167  11.2379  11.9397  12.3184  13.1022  13.7021
    14.5138  14.8437

          k = 0.1875 0.3296 0.0000 (  6399 PWs)   bands (ev):

   -44.9167 -23.0939 -23.0361 -22.8755 -12.3096 -11.9039  -1.4775  -1.3104
    -0.9475  -0.5022   0.1220   0.5512   4.0807   5.9356   6.9506   7.2875
     7.4416   9.0428  10.0599  11.4475  12.1623  12.3875  13.1985  13.4911
    13.6685  14.7700

          k = 0.1875 0.4029 0.0000 (  6386 PWs)   bands (ev):

   -44.9117 -23.0795 -23.0729 -22.9061 -12.2354 -11.8144  -1.6716  -1.2640
    -1.1737  -0.5983   0.0145   0.3197   4.1506   6.1640   7.0895   7.4658
     7.7335   9.5721  10.0209  11.6002  12.1102  12.2686  13.0143  13.4310
    13.9774  14.5315

          k = 0.1875 0.4761 0.0000 (  6372 PWs)   bands (ev):

   -44.9079 -23.1014 -23.0664 -22.9310 -12.1834 -11.7379  -1.8166  -1.5010
    -1.0800  -0.6443  -0.0938   0.1513   4.2464   6.4998   7.1415   7.6011
     7.8241   9.8850  10.1881  11.6427  11.7663  12.2305  12.7899  13.5310
    14.2765  14.5088

          k = 0.1875 0.5494 0.0000 (  6373 PWs)   bands (ev):

   -44.9058 -23.1155 -23.0601 -22.9449 -12.1568 -11.6938  -1.8918  -1.6307
    -1.0323  -0.6611  -0.1626   0.0658   4.3180   6.8377   7.1576   7.6574
     7.7008   9.7580  10.7520  11.5319  11.7887  12.2328  12.3735  13.4559
    14.3368  14.4572

          k = 0.1875-0.0366 0.0000 (  6423 PWs)   bands (ev):

   -44.9329 -23.1438 -22.8844 -22.8004 -12.5993 -12.1202  -1.8398  -0.5915
    -0.1049   0.0659   0.5088   1.1222   4.2110   5.6999   6.2776   6.5734
     6.9380   7.6668   9.0898  10.5136  11.7528  12.2591  13.5560  14.1369
    14.5669  15.0042

          k = 0.2500 0.1465 0.0000 (  6405 PWs)   bands (ev):

   -44.9249 -23.1186 -22.9780 -22.8209 -12.4448 -12.0257  -1.5949  -1.1278
    -0.5773  -0.0468   0.1709   0.9896   3.9954   5.9840   6.5885   6.6919
     7.2462   8.3203   9.7261  11.0967  11.7249  11.9959  13.6488  13.9324
    14.8781  15.0308

          k = 0.2500 0.2198 0.0000 (  6381 PWs)   bands (ev):

   -44.9211 -23.1069 -23.0158 -22.8359 -12.3784 -11.9723  -1.5339  -1.2838
    -0.8061  -0.2029   0.1603   0.8769   3.9477   6.0599   6.7679   6.8982
     7.3439   8.6165   9.8899  11.2324  11.7636  12.0146  13.6408  13.8710
    14.5622  14.8708

          k = 0.2500 0.2930 0.0000 (  6398 PWs)   bands (ev):

   -44.9166 -23.0931 -23.0507 -22.8633 -12.3056 -11.9008  -1.5865  -1.2826
    -1.0311  -0.4174   0.1346   0.6326   3.9955   6.0819   6.9476   7.3016
     7.4383   9.0394   9.9902  11.3944  11.9929  12.1521  13.4460  13.7047
    13.8713  14.6468

          k = 0.2500 0.3663 0.0000 (  6381 PWs)   bands (ev):

   -44.9121 -23.0805 -23.0753 -22.8995 -12.2388 -11.8197  -1.6809  -1.2653
    -1.1769  -0.5804   0.0243   0.3413   4.1341   6.1644   7.1008   7.4687
     7.7430   9.5727  10.0083  11.5946  12.1170  12.3068  13.0699  13.3508
    13.9179  14.4865

          k = 0.2500 0.4395 0.0000 (  6367 PWs)   bands (ev):

   -44.9083 -23.0909 -23.0671 -22.9381 -12.1868 -11.7435  -1.7278  -1.4582
    -1.0924  -0.6779  -0.1976   0.1410   4.3290   6.3373   7.1085   7.6859
     7.8543   9.9750  10.2384  11.5846  11.8411  12.4705  13.0647  13.5384
    14.1549  14.2651

          k = 0.2500 0.5128 0.0000 (  6366 PWs)   bands (ev):

   -44.9057 -23.0942 -23.0593 -22.9698 -12.1539 -11.6890  -1.7357  -1.5842
    -1.0312  -0.7463  -0.4052   0.0379   4.5120   6.5756   7.0685   7.6881
     7.8769   9.9704  10.7944  11.3886  12.0039  12.5400  12.8953  13.6163
    14.1607  14.4144

          k = 0.2500 0.5860 0.0000 (  6382 PWs)   bands (ev):

   -44.9048 -23.0936 -23.0566 -22.9828 -12.1427 -11.6693  -1.7408  -1.6157
    -1.0094  -0.7843  -0.4761   0.0029   4.5895   6.7301   7.0485   7.5295
     7.9474   9.9573  10.8671  11.6923  12.1130  12.5422  12.5654  13.4727
    14.4296  14.4332

          k = 0.2500-0.0733 0.0000 (  6410 PWs)   bands (ev):

   -44.9274 -23.1265 -22.9465 -22.8170 -12.4913 -12.0581  -1.6560  -0.9555
    -0.3744  -0.0784   0.2616   0.9867   4.0923   5.7983   6.5283   6.6818
     7.1380   8.1561   9.5787  10.9799  11.8818  12.0896  13.3390  14.0034
    14.7957  15.0343

          k = 0.2500 0.0000 0.0000 (  6447 PWs)   bands (ev):

   -44.9283 -23.1292 -22.9335 -22.8176 -12.5079 -12.0688  -1.6787  -0.8753
    -0.2869  -0.1212   0.3036   0.9653   4.1440   5.7015   6.5351   6.6933
     7.0864   8.1058   9.5193  10.9340  12.0341  12.1443  13.1248  13.9485
    14.7631  14.9592

          k = 0.3125 0.1831 0.0000 (  6396 PWs)   bands (ev):

   -44.9189 -23.0998 -23.0470 -22.8357 -12.3400 -11.9381  -1.6405  -1.2967
    -0.9967  -0.1477   0.0874   0.8982   3.8548   6.3224   6.8463   6.9469
     7.4235   8.7506   9.8717  11.2134  11.6338  11.9709  13.5933  14.1947
    14.5251  14.8681

          k = 0.3125 0.2564 0.0000 (  6383 PWs)   bands (ev):

   -44.9156 -23.0899 -23.0776 -22.8504 -12.2881 -11.8821  -1.7707  -1.2766
    -1.1537  -0.2857   0.0984   0.7749   3.8541   6.4139   6.9388   7.2937
     7.4761   9.0415   9.8652  11.2410  11.7218  12.0114  13.3880  13.9974
    14.3532  14.6144

          k = 0.3125 0.3296 0.0000 (  6381 PWs)   bands (ev):

   -44.9120 -23.0991 -23.0781 -22.8794 -12.2357 -11.8155  -1.8438  -1.3732
    -1.1430  -0.4660   0.0754   0.4842   3.9855   6.4387   7.1124   7.4563
     7.6971   9.5254   9.8467  11.4296  11.9143  12.0712  13.0283  13.4913
    14.2859  14.5317

          k = 0.3125 0.4029 0.0000 (  6380 PWs)   bands (ev):

   -44.9087 -23.1052 -23.0679 -22.9194 -12.1904 -11.7487  -1.8296  -1.4969
    -1.0825  -0.6118  -0.0688   0.1702   4.2219   6.4880   7.1575   7.6175
     7.8403   9.8413  10.2044  11.6579  11.7965  12.2654  12.7795  13.4907
    14.2188  14.4509

          k = 0.3125 0.4761 0.0000 (  6370 PWs)   bands (ev):

   -44.9061 -23.0963 -23.0601 -22.9638 -12.1575 -11.6945  -1.7392  -1.5810
    -1.0324  -0.7316  -0.3858   0.0340   4.5045   6.5630   7.0718   7.6935
     7.8938   9.9416  10.8177  11.4023  12.0103  12.5644  12.8463  13.6610
    14.1402  14.4004

          k = 0.3125 0.5494 0.0000 (  6373 PWs)   bands (ev):

   -44.9048 -23.0788 -23.0558 -23.0007 -12.1401 -11.6642  -1.7046  -1.5206
    -1.0004  -0.9031  -0.5671  -0.0228   4.7194   6.6284   7.0041   7.4767
     8.0756  10.1050  10.6519  12.0011  12.2157  12.7369  12.8675  13.1972
    14.3210  14.5325

          k = 0.3125-0.1099 0.0000 (  6395 PWs)   bands (ev):

   -44.9215 -23.1077 -23.0136 -22.8344 -12.3821 -11.9773  -1.5320  -1.2743
    -0.7892  -0.1951   0.1531   0.8599   3.9598   6.0545   6.7972   6.8976
     7.3269   8.6133   9.8781  11.2402  11.7731  12.0240  13.6719  13.9164
    14.4907  14.8759

          k = 0.3125-0.0366 0.0000 (  6403 PWs)   bands (ev):

   -44.9229 -23.1119 -22.9900 -22.8393 -12.4057 -11.9972  -1.5056  -1.1895
    -0.6107  -0.3126   0.1995   0.7827   4.0701   5.8209   6.8248   6.9142
     7.2506   8.5660   9.8864  11.2400  11.9836  12.3336  13.1330  13.7499
    14.4013  14.8245

          k = 0.3750 0.2198 0.0000 (  6380 PWs)   bands (ev):

   -44.9139 -23.1051 -23.0834 -22.8482 -12.2608 -11.8491  -1.9299  -1.3766
    -1.1579  -0.2381   0.0493   0.8305   3.7762   6.6993   7.0113   7.3284
     7.5512   9.1222   9.7664  11.0951  11.6603  11.9726  13.1232  14.1303
    14.2993  14.5098

          k = 0.3750 0.2930 0.0000 (  6382 PWs)   bands (ev):

   -44.9115 -23.1247 -23.0760 -22.8616 -12.2266 -11.8023  -2.0251  -1.4920
    -1.1167  -0.3411   0.0566   0.6989   3.8225   6.7999   7.0877   7.5315
     7.6406   9.4077   9.7084  11.1452  11.7215  11.9820  12.8294  13.6932
    14.2238  14.4964

          k = 0.3750 0.3663 0.0000 (  6375 PWs)   bands (ev):

   -44.9090 -23.1297 -23.0685 -22.8905 -12.1938 -11.7529  -2.0164  -1.5716
    -1.0715  -0.4844   0.0321   0.3775   4.0121   6.8339   7.2205   7.5046
     7.7924   9.6171  10.0442  11.4327  11.8225  12.0187  12.4600  13.3649
    14.2439  14.5041

          k = 0.3750 0.4395 0.0000 (  6369 PWs)   bands (ev):

   -44.9070 -23.1187 -23.0622 -22.9308 -12.1669 -11.7094  -1.9009  -1.6166
    -1.0346  -0.6186  -0.1234   0.0656   4.2957   6.8120   7.1646   7.6807
     7.7288   9.7075  10.7685  11.5742  11.8555  12.2139  12.3091  13.4740
    14.2875  14.4596

          k = 0.3750 0.5128 0.0000 (  6380 PWs)   bands (ev):

   -44.9056 -23.0954 -23.0580 -22.9739 -12.1493 -11.6796  -1.7346  -1.6052
    -1.0119  -0.7636  -0.4498  -0.0111   4.5883   6.7090   7.0486   7.5147
     7.9867   9.9144  10.9201  11.6682  12.1432  12.5190  12.5592  13.5654
    14.4016  14.4407

          k = 0.3750 0.5860 0.0000 (  6374 PWs)   bands (ev):

   -44.9051 -23.0783 -23.0565 -22.9980 -12.1432 -11.6690  -1.6950  -1.5081
    -1.0039  -0.9011  -0.5611  -0.0313   4.7279   6.6223   7.0028   7.4505
     8.0972  10.0836  10.6807  11.9220  12.2477  12.7565  12.9262  13.2182
    14.2529  14.5734

          k = 0.3750-0.1465 0.0000 (  6397 PWs)   bands (ev):

   -44.9160 -23.0905 -23.0749 -22.8500 -12.2911 -11.8866  -1.7574  -1.2723
    -1.1432  -0.2774   0.0872   0.7561   3.8693   6.4270   6.9594   7.2530
     7.4741   9.0369   9.8621  11.2533  11.7223  12.0157  13.4072  13.9334
    14.3645  14.6906

          k = 0.3750-0.0733 0.0000 (  6390 PWs)   bands (ev):

   -44.9173 -23.0945 -23.0461 -22.8608 -12.3122 -11.9105  -1.5625  -1.2835
    -0.9991  -0.4088   0.1237   0.6036   4.0193   6.0814   6.9975   7.2662
     7.4183   9.0294   9.9814  11.4170  12.0078  12.1611  13.5003  13.6269
    13.9453  14.6537

          k = 0.3750 0.0000 0.0000 (  6409 PWs)   bands (ev):

   -44.9178 -23.0960 -23.0331 -22.8677 -12.3198 -11.9186  -1.4522  -1.3163
    -0.9118  -0.4832   0.1153   0.5386   4.0957   5.9313   7.0237   7.2545
     7.4199   9.0307  10.0411  11.4625  12.1998  12.4341  13.2113  13.4773
    13.6535  14.7289

          k = 0.4375 0.2564 0.0000 (  6377 PWs)   bands (ev):

   -44.9105 -23.1430 -23.0728 -22.8565 -12.2130 -11.7817  -2.1425  -1.5801
    -1.0933  -0.2999   0.0337   0.7887   3.7522   6.9271   7.2361   7.5988
     7.6673   9.3520   9.6535  10.9828  11.6398  11.9620  12.6275  13.8080
    14.0359  14.2769

          k = 0.4375 0.3296 0.0000 (  6366 PWs)   bands (ev):

   -44.9093 -23.1491 -23.0689 -22.8678 -12.1962 -11.7556  -2.1642  -1.6305
    -1.0691  -0.3681   0.0340   0.6563   3.8252   7.0214   7.2736   7.5738
     7.7585   9.4286   9.8140  11.0880  11.6512  11.9911  12.4351  13.4430
    14.1422  14.2534

          k = 0.4375 0.4029 0.0000 (  6371 PWs)   bands (ev):

   -44.9081 -23.1393 -23.0653 -22.8945 -12.1808 -11.7313  -2.0718  -1.6358
    -1.0478  -0.4860   0.0136   0.3324   4.0340   7.0609   7.2821   7.5217
     7.7014   9.5116  10.3096  11.4469  11.7918  12.0615  12.1151  13.3022
    14.2074  14.4137

          k = 0.4375 0.4761 0.0000 (  6378 PWs)   bands (ev):

   -44.9072 -23.1167 -23.0626 -22.9307 -12.1690 -11.7126  -1.8896  -1.6068
    -1.0355  -0.6161  -0.1263   0.0530   4.3067   6.8314   7.1613   7.6310
     7.7416   9.7087  10.7414  11.5651  11.8939  12.1926  12.3575  13.4572
    14.2939  14.4822

          k = 0.4375 0.5494 0.0000 (  6377 PWs)   bands (ev):

   -44.9067 -23.0927 -23.0611 -22.9622 -12.1626 -11.7026  -1.7158  -1.5577
    -1.0353  -0.7266  -0.3929   0.0171   4.5255   6.5688   7.0681   7.6179
     7.9317   9.9369  10.8031  11.3617  12.0749  12.5474  12.9541  13.6276
    14.1350  14.3941

          k = 0.4375-0.1831 0.0000 (  6386 PWs)   bands (ev):

   -44.9117 -23.1226 -23.0764 -22.8616 -12.2286 -11.8054  -2.0147  -1.4823
    -1.1173  -0.3343   0.0470   0.6849   3.8346   6.8224   7.1057   7.5235
     7.5929   9.3941   9.7117  11.1511  11.7308  11.9851  12.8393  13.6349
    14.2504  14.5543

          k = 0.4375-0.1099 0.0000 (  6391 PWs)   bands (ev):

   -44.9126 -23.0945 -23.0790 -22.8788 -12.2408 -11.8233  -1.8190  -1.3497
    -1.1434  -0.4581   0.0635   0.4543   4.0107   6.4568   7.1246   7.4723
     7.6214   9.5102   9.8451  11.4596  11.9179  12.0667  13.0273  13.4875
    14.3161  14.6074

          k = 0.4375-0.0366 0.0000 (  6394 PWs)   bands (ev):

   -44.9131 -23.0814 -23.0707 -22.8961 -12.2475 -11.8328  -1.6454  -1.2331
    -1.1762  -0.5683   0.0110   0.3116   4.1632   6.1656   7.1228   7.4874
     7.6715   9.5528  10.0046  11.6373  12.1143  12.3165  13.0638  13.4079
    13.9681  14.4898

          k =-0.5000-0.2930 0.0000 (  6372 PWs)   bands (ev):

   -44.9093 -23.1563 -23.0690 -22.8594 -12.1971 -11.7565  -2.2183  -1.6519
    -1.0693  -0.3217   0.0298   0.7746   3.7501   6.9783   7.3728   7.6352
     7.7790   9.3531   9.6916  10.9463  11.5577  11.9919  12.4528  13.6232
    13.9650  14.1409

          k =-0.5000-0.2198 0.0000 (  6370 PWs)   bands (ev):

   -44.9093 -23.1484 -23.0691 -22.8678 -12.1969 -11.7567  -2.1603  -1.6270
    -1.0695  -0.3654   0.0303   0.6512   3.8298   7.0237   7.3029   7.5749
     7.7189   9.4162   9.8190  11.0893  11.6612  11.9929  12.4379  13.4210
    14.1510  14.2737

          k =-0.5000-0.1465 0.0000 (  6372 PWs)   bands (ev):

   -44.9094 -23.1268 -23.0691 -22.8906 -12.1966 -11.7572  -2.0016  -1.5582
    -1.0726  -0.4790   0.0248   0.3587   4.0278   6.8651   7.2188   7.5318
     7.7090   9.6096  10.0294  11.4511  11.8409  12.0086  12.4832  13.3375
    14.2576  14.5526

          k =-0.5000-0.0733 0.0000 (  6379 PWs)   bands (ev):

   -44.9094 -23.1001 -23.0691 -22.9185 -12.1962 -11.7578  -1.8004  -1.4695
    -1.0853  -0.6043  -0.0795   0.1414   4.2490   6.5033   7.1513   7.6584
     7.7459   9.8457  10.1671  11.6819  11.8285  12.2343  12.8467  13.4804
    14.2436  14.5047

          k =-0.5000 0.0000 0.0000 (  6383 PWs)   bands (ev):

   -44.9094 -23.0863 -23.0690 -22.9329 -12.1961 -11.7580  -1.6944  -1.4224
    -1.0979  -0.6598  -0.2061   0.1170   4.3546   6.3367   7.1101   7.7193
     7.7799   9.9641  10.2053  11.5944  11.8974  12.4838  13.1659  13.5131
    14.1395  14.2671

     highest occupied, lowest unoccupied level (ev):     4.7279    5.6999

!    total energy              =    -591.24383812 Ry
     total all-electron energy =    -13333.877114 Ry
     estimated scf accuracy    <          5.5E-11 Ry

     The total energy is the sum of the following terms:
     one-electron contribution =    -204.47077678 Ry
     hartree contribution      =     110.01801978 Ry
     xc contribution           =     -37.59012821 Ry
     ewald contribution        =     -28.08538817 Ry
     one-center paw contrib.   =    -431.11556473 Ry

     convergence has been achieved in   5 iterations

     negative rho (up, down):  3.217E-08 0.000E+00

     Forces acting on atoms (cartesian axes, Ry/au):

     atom    1 type  1   force =     0.00000000    0.00031515    0.00003359
     atom    2 type  2   force =     0.00000000   -0.00017489   -0.00010816
     atom    3 type  3   force =     0.00000000   -0.00014026    0.00007457
     The non-local contrib.  to forces
     atom    1 type  1   force =     0.00000000   -0.00171414   -0.00069309
     atom    2 type  2   force =     0.00000000   -0.00153837   -0.21219823
     atom    3 type  3   force =     0.00000000   -0.00146258    0.20908281
     The ionic contribution  to forces
     atom    1 type  1   force =    -0.00000001   -0.09994280   -0.30368694
     atom    2 type  2   force =     0.00000000    0.05650054   20.89988700
     atom    3 type  3   force =     0.00000000    0.04344226  -20.59620006
     The local contribution  to forces
     atom    1 type  1   force =     0.00000000    0.10189309    0.30406633
     atom    2 type  2   force =     0.00000003   -0.05512687  -20.69563619
     atom    3 type  3   force =    -0.00000000   -0.04206404   20.39089598
     The core correction contribution to forces
     atom    1 type  1   force =    -0.00000000    0.00007354    0.00038463
     atom    2 type  2   force =    -0.00000000   -0.00001818    0.00784813
     atom    3 type  3   force =    -0.00000000   -0.00006239   -0.00369924
     The Hubbard contrib.    to forces
     atom    1 type  1   force =     0.00000000    0.00000000    0.00000000
     atom    2 type  2   force =     0.00000000    0.00000000    0.00000000
     atom    3 type  3   force =     0.00000000    0.00000000    0.00000000
     The SCF correction term to forces
     atom    1 type  1   force =     0.00000000   -0.00000018   -0.00003468
     atom    2 type  2   force =    -0.00000000    0.00000235   -0.00000623
     atom    3 type  3   force =     0.00000000    0.00000085   -0.00000227

     Total force =     0.000410     Total SCF correction =     0.000035
     Energy error            =      2.6E-07 Ry
     Gradient error          =      3.2E-04 Ry/Bohr

     number of scf cycles    =   6
     number of bfgs steps    =   5

     energy             old  =    -591.2438378604 Ry
     energy             new  =    -591.2438381161 Ry

     CASE: energy            _new < energy            _old

     new trust radius        =       0.0003961669 bohr
     new conv_thr            =            1.0E-10 Ry


ATOMIC_POSITIONS (angstrom)
Zr            0.0000000000       -0.0044435227       10.2767779881
Cl           -0.0000000017        2.0164090891       11.9548266559
Br           -0.0000000017        2.0168912783        8.4315441304



     Writing config-only to output data dir ./tmp/ZrClBr.save/
     NEW-OLD atomic charge density approx. for the potential

     Check: negative core charge=   -0.000004

     negative rho (up, down):  3.226E-08 0.000E+00

     total cpu time spent up to now is       76.3 secs

     Self-consistent Calculation

     iteration #  1     ecut=    65.00 Ry     beta= 0.70
     Davidson diagonalization with overlap
     ethr =  1.00E-06,  avg # of iterations =  2.0

     Threshold (ethr) on eigenvalues was too large:
     Diagonalizing with lowered threshold

     Davidson diagonalization with overlap
     ethr =  7.67E-11,  avg # of iterations =  4.0

     negative rho (up, down):  3.227E-08 0.000E+00

     total cpu time spent up to now is       79.8 secs

     total energy              =    -591.24383829 Ry
     estimated scf accuracy    <       0.00000001 Ry

     iteration #  2     ecut=    65.00 Ry     beta= 0.70
     Davidson diagonalization with overlap
     ethr =  4.39E-11,  avg # of iterations =  2.0

     negative rho (up, down):  3.223E-08 0.000E+00

     total cpu time spent up to now is       81.4 secs

     total energy              =    -591.24383829 Ry
     estimated scf accuracy    <       0.00000002 Ry

     iteration #  3     ecut=    65.00 Ry     beta= 0.70
     Davidson diagonalization with overlap
     ethr =  4.39E-11,  avg # of iterations =  2.0

     negative rho (up, down):  3.224E-08 0.000E+00

     total cpu time spent up to now is       83.0 secs

     total energy              =    -591.24383830 Ry
     estimated scf accuracy    <          1.5E-09 Ry

     iteration #  4     ecut=    65.00 Ry     beta= 0.70
     Davidson diagonalization with overlap
     ethr =  5.80E-12,  avg # of iterations =  1.2

     negative rho (up, down):  3.223E-08 0.000E+00

     total cpu time spent up to now is       84.4 secs

     total energy              =    -591.24383830 Ry
     estimated scf accuracy    <          2.9E-10 Ry

     iteration #  5     ecut=    65.00 Ry     beta= 0.70
     Davidson diagonalization with overlap
     ethr =  1.10E-12,  avg # of iterations =  1.6

     negative rho (up, down):  3.223E-08 0.000E+00

     total cpu time spent up to now is       85.8 secs

     End of self-consistent calculation

          k = 0.0000 0.0000 0.0000 (  6443 PWs)   bands (ev):

   -44.9401 -23.1674 -22.7967 -22.7770 -12.7561 -12.1927  -2.1141  -0.0372
     0.1055   0.1755   1.2640   1.3534   4.2914   5.8626   6.0182   6.5719
     6.6230   6.7125   8.3224   9.3528  11.2990  13.4275  13.6323  13.8942
    14.5609  15.0919

          k = 0.0000 0.0733 0.0000 (  6449 PWs)   bands (ev):

   -44.9389 -23.1636 -22.8000 -22.7920 -12.7307 -12.1812  -2.0699  -0.1106
     0.0927   0.1292   1.1962   1.2277   4.2943   5.8973   5.9496   6.5817
     6.6327   6.8944   8.4522   9.5891  11.3644  13.1451  13.5549  14.2808
    14.5983  14.8528

          k = 0.0000 0.1465 0.0000 (  6425 PWs)   bands (ev):

   -44.9353 -23.1526 -22.8343 -22.8093 -12.6589 -12.1470  -1.9457  -0.3499
     0.0265   0.0517   0.8099   1.1331   4.2777   5.8297   6.0090   6.5358
     6.7946   7.3354   8.8133  10.1479  11.5603  12.5691  13.9181  14.0439
    14.4818  14.8598

          k = 0.0000 0.2198 0.0000 (  6389 PWs)   bands (ev):

   -44.9299 -23.1361 -22.8968 -22.8232 -12.5538 -12.0907  -1.7671  -0.7133
    -0.1687  -0.0210   0.4015   1.0121   4.1910   5.8208   6.2131   6.5696
     7.0088   7.8468   9.3228  10.7294  11.7976  12.1632  13.5313  14.2894
    14.4450  15.1381

          k = 0.0000 0.2930 0.0000 (  6385 PWs)   bands (ev):

   -44.9236 -23.1165 -22.9693 -22.8396 -12.4358 -12.0132  -1.5864  -1.1054
    -0.5545  -0.1208   0.1858   0.8940   4.0418   5.9998   6.5169   6.6806
     7.2226   8.3238   9.7678  11.1177  11.7379  12.0260  13.7023  14.0030
    14.9066  15.0063

          k = 0.0000 0.3663 0.0000 (  6391 PWs)   bands (ev):

   -44.9173 -23.0970 -23.0406 -22.8559 -12.3277 -11.9199  -1.6265  -1.2851
    -0.9853  -0.2312   0.1049   0.7951   3.9042   6.3244   6.8270   6.9037
     7.3991   8.7497   9.9127  11.2294  11.6302  11.9952  13.6982  14.2756
    14.6394  14.7354

          k = 0.0000 0.4395 0.0000 (  6376 PWs)   bands (ev):

   -44.9119 -23.1007 -23.0798 -22.8696 -12.2456 -11.8257  -1.9151  -1.3812
    -1.1491  -0.3295   0.0728   0.7213   3.8277   6.6872   6.9880   7.3174
     7.5255   9.1165   9.8254  11.0661  11.6790  11.9999  13.2304  14.1478
    14.2354  14.5978

          k = 0.0000 0.5128 0.0000 (  6396 PWs)   bands (ev):

   -44.9083 -23.1398 -23.0689 -22.8788 -12.1957 -11.7547  -2.1282  -1.5940
    -1.0882  -0.3965   0.0619   0.6756   3.8061   6.8946   7.2163   7.5735
     7.6845   9.3662   9.7114  10.9181  11.6821  12.0267  12.7034  13.6409
    14.0976  14.3495

          k = 0.0000-0.5860 0.0000 (  6374 PWs)   bands (ev):

   -44.9070 -23.1535 -23.0650 -22.8820 -12.1790 -11.7283  -2.2042  -1.6690
    -1.0657  -0.4201   0.0598   0.6601   3.8051   6.9400   7.3497   7.6033
     7.8159   9.4075   9.7180  10.8688  11.6150  12.0797  12.5109  13.4417
    14.0042  14.2077

          k = 0.0625 0.0366 0.0000 (  6429 PWs)   bands (ev):

   -44.9390 -23.1637 -22.8089 -22.7822 -12.7314 -12.1820  -2.0709  -0.1274
     0.0867   0.1549   1.1274   1.3044   4.2895   5.8240   6.0328   6.5484
     6.6731   6.8918   8.4445   9.5799  11.3625  13.0640  13.7045  14.2325
    14.5639  14.7273

          k = 0.0625 0.1099 0.0000 (  6435 PWs)   bands (ev):

   -44.9365 -23.1563 -22.8278 -22.7983 -12.6828 -12.1592  -1.9865  -0.2783
     0.0264   0.1091   0.8997   1.1958   4.2827   5.8056   6.0311   6.5289
     6.7619   7.2025   8.6905   9.9767  11.4954  12.7024  13.7964  14.2070
    14.5506  14.7129

          k = 0.0625 0.1831 0.0000 (  6415 PWs)   bands (ev):

   -44.9321 -23.1425 -22.8743 -22.8158 -12.5943 -12.1140  -1.8338  -0.5697
    -0.1045   0.0281   0.5259   1.0626   4.2353   5.7529   6.1810   6.5444
     6.9375   7.6735   9.1317  10.5396  11.7625  12.2701  13.6041  14.0540
    14.5771  15.0699

          k = 0.0625 0.2564 0.0000 (  6399 PWs)   bands (ev):

   -44.9262 -23.1245 -22.9387 -22.8340 -12.4828 -12.0468  -1.6472  -0.9413
    -0.3599  -0.1337   0.2647   0.9206   4.1247   5.8211   6.4578   6.6407
     7.1396   8.1615   9.6293  10.9993  11.8798  12.1059  13.3636  14.0096
    14.7759  15.0837

          k = 0.0625 0.3296 0.0000 (  6396 PWs)   bands (ev):

   -44.9199 -23.1050 -23.0083 -22.8527 -12.3703 -11.9604  -1.5241  -1.2644
    -0.7843  -0.2594   0.1594   0.7860   3.9940   6.0557   6.7544   6.8645
     7.3204   8.6164   9.9193  11.2554  11.7660  12.0324  13.7146  13.9514
    14.5695  14.8685

          k = 0.0625 0.4029 0.0000 (  6391 PWs)   bands (ev):

   -44.9140 -23.0873 -23.0714 -22.8696 -12.2766 -11.8645  -1.7517  -1.2714
    -1.1419  -0.3534   0.1036   0.6729   3.9051   6.4133   6.9191   7.2598
     7.4560   9.0358   9.9081  11.2410  11.7163  12.0300  13.4926  13.9771
    14.3896  14.6862

          k = 0.0625 0.4761 0.0000 (  6381 PWs)   bands (ev):

   -44.9095 -23.1202 -23.0726 -22.8824 -12.2120 -11.7796  -2.0072  -1.4982
    -1.1106  -0.4204   0.0724   0.5920   3.8751   6.7968   7.0670   7.5079
     7.6212   9.3975   9.7724  11.0958  11.7480  12.0205  12.9022  13.6070
    14.2916  14.5687

          k = 0.0625 0.5494 0.0000 (  6375 PWs)   bands (ev):

   -44.9071 -23.1460 -23.0651 -22.8893 -12.1795 -11.7295  -2.1494  -1.6457
    -1.0655  -0.4558   0.0589   0.5500   3.8765   6.9881   7.2721   7.5476
     7.7629   9.4757   9.8361  11.0096  11.7026  12.0689  12.4706  13.3443
    14.1812  14.2906

          k = 0.1250 0.0733 0.0000 (  6425 PWs)   bands (ev):

   -44.9356 -23.1531 -22.8480 -22.7925 -12.6617 -12.1503  -1.9492  -0.3808
     0.0084   0.1105   0.7601   1.2115   4.2585   5.7492   6.1230   6.5217
     6.8271   7.3291   8.7881  10.1252  11.5511  12.5287  13.9582  14.0482
    14.4610  14.7815

          k = 0.1250 0.1465 0.0000 (  6418 PWs)   bands (ev):

   -44.9323 -23.1430 -22.8806 -22.8072 -12.5963 -12.1165  -1.8362  -0.5877
    -0.1065   0.0519   0.5060   1.1077   4.2188   5.7366   6.2214   6.5349
     6.9568   7.6704   9.1160  10.5285  11.7529  12.2512  13.5714  14.0667
    14.6102  15.0272

          k = 0.1250 0.2198 0.0000 (  6400 PWs)   bands (ev):

   -44.9273 -23.1277 -22.9299 -22.8281 -12.5014 -12.0603  -1.6715  -0.8778
    -0.2885  -0.1488   0.2968   0.9475   4.1545   5.7277   6.4834   6.6261
     7.1190   8.1105   9.5642  10.9487  12.0057  12.1376  13.1300  13.9146
    14.7891  14.9810

          k = 0.1250 0.2930 0.0000 (  6406 PWs)   bands (ev):

   -44.9215 -23.1096 -22.9879 -22.8521 -12.3957 -11.9833  -1.4973  -1.1975
    -0.6210  -0.3498   0.1974   0.7595   4.0799   5.8286   6.7562   6.8898
     7.2766   8.5724   9.9280  11.2462  11.9539  12.3058  13.1342  13.7353
    14.4918  14.8682

          k = 0.1250 0.3663 0.0000 (  6386 PWs)   bands (ev):

   -44.9156 -23.0916 -23.0452 -22.8756 -12.2994 -11.8914  -1.5714  -1.2768
    -1.0177  -0.4552   0.1281   0.5707   4.0296   6.0757   6.9357   7.2825
     7.4256   9.0366  10.0119  11.4106  11.9738  12.1451  13.5084  13.6765
    13.9460  14.7054

          k = 0.1250 0.4395 0.0000 (  6376 PWs)   bands (ev):

   -44.9106 -23.0940 -23.0756 -22.8954 -12.2261 -11.8005  -1.8255  -1.3723
    -1.1372  -0.5168   0.0752   0.4081   4.0264   6.4429   7.0840   7.4474
     7.6732   9.5174   9.8881  11.4143  11.9007  12.0699  13.0117  13.5481
    14.3517  14.6214

          k = 0.1250 0.5128 0.0000 (  6364 PWs)   bands (ev):

   -44.9073 -23.1256 -23.0656 -22.9086 -12.1811 -11.7330  -2.0005  -1.5819
    -1.0680  -0.5472   0.0432   0.2968   4.0532   6.8492   7.1929   7.4847
     7.7709   9.6646  10.0439  11.3655  11.8278  12.0515  12.4883  13.3520
    14.3086  14.5403

          k = 0.1250 0.5860 0.0000 (  6374 PWs)   bands (ev):

   -44.9061 -23.1367 -23.0619 -22.9132 -12.1660 -11.7081  -2.0624  -1.6550
    -1.0448  -0.5559   0.0329   0.2569   4.0694   7.0553   7.2746   7.4820
     7.7136   9.5700  10.3130  11.3512  11.8147  12.0999  12.1427  13.2886
    14.2698  14.3892

          k = 0.1250 0.0000 0.0000 (  6413 PWs)   bands (ev):

   -44.9368 -23.1567 -22.8367 -22.7871 -12.6849 -12.1616  -1.9891  -0.2991
     0.0263   0.1372   0.8700   1.2438   4.2719   5.7391   6.1205   6.5344
     6.7728   7.1974   8.6703   9.9581  11.4916  12.6662  13.9303  14.1416
    14.4815  14.6819

          k = 0.1875 0.1099 0.0000 (  6419 PWs)   bands (ev):

   -44.9306 -23.1373 -22.9078 -22.8057 -12.5596 -12.0979  -1.7737  -0.7422
    -0.1906   0.0437   0.3743   1.0987   4.1542   5.7799   6.3084   6.5699
     7.0354   7.8406   9.2819  10.7058  11.7794  12.1318  13.4757  14.2458
    14.5636  15.0449

          k = 0.1875 0.1831 0.0000 (  6403 PWs)   bands (ev):

   -44.9268 -23.1256 -22.9465 -22.8205 -12.4878 -12.0534  -1.6522  -0.9649
    -0.3836  -0.0877   0.2593   0.9933   4.0895   5.8188   6.5040   6.6347
     7.1646   8.1586   9.6023  10.9851  11.8656  12.0739  13.3274  13.9679
    14.8230  15.0514

          k = 0.1875 0.2564 0.0000 (  6398 PWs)   bands (ev):

   -44.9218 -23.1103 -22.9916 -22.8449 -12.3987 -11.9874  -1.4997  -1.2098
    -0.6363  -0.3259   0.2020   0.7963   4.0599   5.8347   6.7579   6.9031
     7.2871   8.5724   9.9170  11.2379  11.9398  12.3184  13.1023  13.7019
    14.5138  14.8438

          k = 0.1875 0.3296 0.0000 (  6399 PWs)   bands (ev):

   -44.9165 -23.0937 -23.0359 -22.8753 -12.3098 -11.9039  -1.4778  -1.3105
    -0.9475  -0.5024   0.1220   0.5512   4.0807   5.9360   6.9507   7.2876
     7.4420   9.0429  10.0603  11.4475  12.1625  12.3874  13.1985  13.4911
    13.6685  14.7700

          k = 0.1875 0.4029 0.0000 (  6386 PWs)   bands (ev):

   -44.9115 -23.0793 -23.0728 -22.9059 -12.2356 -11.8145  -1.6720  -1.2640
    -1.1739  -0.5984   0.0145   0.3198   4.1504   6.1643   7.0897   7.4662
     7.7336   9.5722  10.0213  11.6002  12.1105  12.2686  13.0143  13.4309
    13.9774  14.5313

          k = 0.1875 0.4761 0.0000 (  6372 PWs)   bands (ev):

   -44.9077 -23.1013 -23.0662 -22.9308 -12.1837 -11.7380  -1.8169  -1.5010
    -1.0801  -0.6444  -0.0938   0.1513   4.2462   6.5001   7.1419   7.6017
     7.8241   9.8853  10.1882  11.6427  11.7665  12.2305  12.7900  13.5310
    14.2763  14.5088

          k = 0.1875 0.5494 0.0000 (  6373 PWs)   bands (ev):

   -44.9056 -23.1154 -23.0599 -22.9447 -12.1571 -11.6938  -1.8922  -1.6307
    -1.0324  -0.6611  -0.1626   0.0657   4.3178   6.8379   7.1581   7.6578
     7.7012   9.7583  10.7521  11.5320  11.7888  12.2328  12.3737  13.4560
    14.3366  14.4571

          k = 0.1875-0.0366 0.0000 (  6423 PWs)   bands (ev):

   -44.9326 -23.1436 -22.8842 -22.8002 -12.5995 -12.1202  -1.8400  -0.5917
    -0.1049   0.0652   0.5090   1.1220   4.2114   5.7002   6.2777   6.5730
     6.9387   7.6669   9.0898  10.5133  11.7527  12.2589  13.5567  14.1374
    14.5664  15.0043

          k = 0.2500 0.1465 0.0000 (  6405 PWs)   bands (ev):

   -44.9247 -23.1185 -22.9778 -22.8207 -12.4451 -12.0257  -1.5951  -1.1280
    -0.5773  -0.0473   0.1710   0.9894   3.9956   5.9842   6.5887   6.6919
     7.2466   8.3203   9.7264  11.0964  11.7248  11.9960  13.6491  13.9322
    14.8785  15.0307

          k = 0.2500 0.2198 0.0000 (  6381 PWs)   bands (ev):

   -44.9209 -23.1067 -23.0156 -22.8358 -12.3787 -11.9723  -1.5341  -1.2841
    -0.8061  -0.2033   0.1604   0.8768   3.9479   6.0601   6.7678   6.8983
     7.3444   8.6166   9.8902  11.2323  11.7636  12.0146  13.6407  13.8711
    14.5623  14.8710

          k = 0.2500 0.2930 0.0000 (  6398 PWs)   bands (ev):

   -44.9164 -23.0930 -23.0505 -22.8631 -12.3058 -11.9009  -1.5867  -1.2828
    -1.0311  -0.4178   0.1346   0.6326   3.9956   6.0821   6.9474   7.3017
     7.4389   9.0396   9.9906  11.3943  11.9929  12.1522  13.4459  13.7048
    13.8714  14.6468

          k = 0.2500 0.3663 0.0000 (  6381 PWs)   bands (ev):

   -44.9119 -23.0803 -23.0752 -22.8993 -12.2391 -11.8197  -1.6812  -1.2653
    -1.1771  -0.5807   0.0243   0.3414   4.1342   6.1646   7.1007   7.4694
     7.7431   9.5729  10.0086  11.5946  12.1175  12.3065  13.0700  13.3506
    13.9181  14.4864

          k = 0.2500 0.4395 0.0000 (  6367 PWs)   bands (ev):

   -44.9081 -23.0908 -23.0669 -22.9379 -12.1870 -11.7435  -1.7280  -1.4583
    -1.0926  -0.6781  -0.1976   0.1410   4.3290   6.3375   7.1087   7.6865
     7.8544   9.9751  10.2387  11.5849  11.8411  12.4702  13.0650  13.5383
    14.1550  14.2651

          k = 0.2500 0.5128 0.0000 (  6366 PWs)   bands (ev):

   -44.9055 -23.0941 -23.0591 -22.9696 -12.1542 -11.6891  -1.7360  -1.5843
    -1.0313  -0.7464  -0.4052   0.0379   4.5119   6.5758   7.0688   7.6883
     7.8775   9.9706  10.7946  11.3887  12.0039  12.5398  12.8955  13.6164
    14.1605  14.4144

          k = 0.2500 0.5860 0.0000 (  6382 PWs)   bands (ev):

   -44.9046 -23.0934 -23.0564 -22.9826 -12.1429 -11.6693  -1.7411  -1.6158
    -1.0095  -0.7844  -0.4760   0.0028   4.5894   6.7301   7.0489   7.5298
     7.9479   9.9575  10.8672  11.6922  12.1130  12.5421  12.5656  13.4729
    14.4296  14.4331

          k = 0.2500-0.0733 0.0000 (  6410 PWs)   bands (ev):

   -44.9272 -23.1263 -22.9463 -22.8169 -12.4915 -12.0580  -1.6562  -0.9557
    -0.3743  -0.0789   0.2616   0.9865   4.0927   5.7985   6.5284   6.6817
     7.1385   8.1562   9.5788  10.9795  11.8817  12.0895  13.3394  14.0037
    14.7954  15.0346

          k = 0.2500 0.0000 0.0000 (  6447 PWs)   bands (ev):

   -44.9281 -23.1291 -22.9333 -22.8175 -12.5082 -12.0688  -1.6789  -0.8755
    -0.2867  -0.1218   0.3036   0.9651   4.1444   5.7017   6.5352   6.6929
     7.0870   8.1058   9.5194  10.9336  12.0339  12.1442  13.1255  13.9491
    14.7626  14.9593

          k = 0.3125 0.1831 0.0000 (  6396 PWs)   bands (ev):

   -44.9187 -23.0997 -23.0468 -22.8355 -12.3402 -11.9381  -1.6407  -1.2970
    -0.9967  -0.1483   0.0875   0.8981   3.8551   6.3226   6.8464   6.9470
     7.4239   8.7507   9.8720  11.2134  11.6337  11.9708  13.5932  14.1948
    14.5254  14.8682

          k = 0.3125 0.2564 0.0000 (  6383 PWs)   bands (ev):

   -44.9154 -23.0898 -23.0774 -22.8502 -12.2883 -11.8822  -1.7709  -1.2767
    -1.1538  -0.2862   0.0986   0.7748   3.8543   6.4141   6.9387   7.2937
     7.4767   9.0416   9.8655  11.2409  11.7218  12.0115  13.3880  13.9976
    14.3532  14.6147

          k = 0.3125 0.3296 0.0000 (  6381 PWs)   bands (ev):

   -44.9118 -23.0989 -23.0779 -22.8792 -12.2359 -11.8155  -1.8439  -1.3732
    -1.1432  -0.4664   0.0755   0.4842   3.9857   6.4389   7.1120   7.4572
     7.6971   9.5257   9.8468  11.4295  11.9145  12.0712  13.0285  13.4912
    14.2859  14.5319

          k = 0.3125 0.4029 0.0000 (  6380 PWs)   bands (ev):

   -44.9085 -23.1050 -23.0677 -22.9192 -12.1907 -11.7488  -1.8298  -1.4970
    -1.0827  -0.6122  -0.0688   0.1703   4.2220   6.4882   7.1575   7.6181
     7.8404   9.8413  10.2048  11.6581  11.7967  12.2652  12.7796  13.4906
    14.2188  14.4510

          k = 0.3125 0.4761 0.0000 (  6370 PWs)   bands (ev):

   -44.9059 -23.0962 -23.0599 -22.9636 -12.1577 -11.6946  -1.7394  -1.5811
    -1.0327  -0.7318  -0.3858   0.0341   4.5046   6.5632   7.0721   7.6937
     7.8943   9.9417  10.8182  11.4024  12.0102  12.5643  12.8464  13.6612
    14.1401  14.4004

          k = 0.3125 0.5494 0.0000 (  6373 PWs)   bands (ev):

   -44.9046 -23.0787 -23.0557 -23.0005 -12.1404 -11.6642  -1.7048  -1.5208
    -1.0007  -0.9031  -0.5671  -0.0228   4.7194   6.6284   7.0045   7.4771
     8.0760  10.1052  10.6521  12.0011  12.2156  12.7368  12.8675  13.1973
    14.3211  14.5326

          k = 0.3125-0.1099 0.0000 (  6395 PWs)   bands (ev):

   -44.9213 -23.1075 -23.0134 -22.8342 -12.3823 -11.9773  -1.5322  -1.2745
    -0.7893  -0.1954   0.1531   0.8597   3.9601   6.0547   6.7973   6.8978
     7.3272   8.6133   9.8784  11.2400  11.7730  12.0239  13.6720  13.9165
    14.4912  14.8759

          k = 0.3125-0.0366 0.0000 (  6403 PWs)   bands (ev):

   -44.9226 -23.1117 -22.9898 -22.8391 -12.4060 -11.9972  -1.5059  -1.1898
    -0.6107  -0.3129   0.1994   0.7825   4.0704   5.8211   6.8248   6.9144
     7.2509   8.5660   9.8866  11.2396  11.9832  12.3336  13.1335  13.7503
    14.4016  14.8245

          k = 0.3750 0.2198 0.0000 (  6380 PWs)   bands (ev):

   -44.9137 -23.1049 -23.0832 -22.8480 -12.2610 -11.8492  -1.9300  -1.3767
    -1.1581  -0.2386   0.0495   0.8303   3.7765   6.6994   7.0114   7.3285
     7.5516   9.1224   9.7666  11.0951  11.6602  11.9725  13.1233  14.1305
    14.2993  14.5100

          k = 0.3750 0.2930 0.0000 (  6382 PWs)   bands (ev):

   -44.9113 -23.1246 -23.0758 -22.8614 -12.2268 -11.8023  -2.0253  -1.4921
    -1.1169  -0.3417   0.0568   0.6988   3.8227   6.7999   7.0877   7.5321
     7.6407   9.4081   9.7084  11.1452  11.7216  11.9820  12.8296  13.6930
    14.2238  14.4969

          k = 0.3750 0.3663 0.0000 (  6375 PWs)   bands (ev):

   -44.9088 -23.1295 -23.0683 -22.8903 -12.1940 -11.7529  -2.0165  -1.5717
    -1.0718  -0.4848   0.0323   0.3774   4.0123   6.8341   7.2203   7.5053
     7.7924   9.6171  10.0446  11.4326  11.8226  12.0188  12.4603  13.3647
    14.2439  14.5045

          k = 0.3750 0.4395 0.0000 (  6369 PWs)   bands (ev):

   -44.9068 -23.1185 -23.0620 -22.9306 -12.1672 -11.7094  -1.9010  -1.6168
    -1.0349  -0.6189  -0.1235   0.0657   4.2959   6.8121   7.1648   7.6808
     7.7292   9.7075  10.7689  11.5742  11.8555  12.2140  12.3092  13.4741
    14.2874  14.4599

          k = 0.3750 0.5128 0.0000 (  6380 PWs)   bands (ev):

   -44.9054 -23.0952 -23.0578 -22.9737 -12.1496 -11.6796  -1.7348  -1.6053
    -1.0121  -0.7638  -0.4499  -0.0110   4.5884   6.7091   7.0490   7.5151
     7.9869   9.9145  10.9203  11.6683  12.1431  12.5191  12.5592  13.5655
    14.4017  14.4409

          k = 0.3750 0.5860 0.0000 (  6374 PWs)   bands (ev):

   -44.9049 -23.0781 -23.0563 -22.9979 -12.1434 -11.6690  -1.6953  -1.5082
    -1.0040  -0.9013  -0.5611  -0.0312   4.7280   6.6224   7.0032   7.4509
     8.0974  10.0839  10.6806  11.9221  12.2475  12.7566  12.9263  13.2182
    14.2534  14.5731

          k = 0.3750-0.1465 0.0000 (  6397 PWs)   bands (ev):

   -44.9158 -23.0903 -23.0748 -22.8498 -12.2914 -11.8867  -1.7576  -1.2725
    -1.1433  -0.2777   0.0872   0.7560   3.8696   6.4271   6.9596   7.2533
     7.4742   9.0370   9.8624  11.2534  11.7221  12.0155  13.4073  13.9338
    14.3645  14.6907

          k = 0.3750-0.0733 0.0000 (  6390 PWs)   bands (ev):

   -44.9171 -23.0943 -23.0459 -22.8607 -12.3124 -11.9105  -1.5627  -1.2838
    -0.9993  -0.4090   0.1237   0.6034   4.0196   6.0815   6.9978   7.2664
     7.4183   9.0294   9.9818  11.4168  12.0077  12.1608  13.5007  13.6272
    13.9455  14.6538

          k = 0.3750 0.0000 0.0000 (  6409 PWs)   bands (ev):

   -44.9176 -23.0958 -23.0329 -22.8675 -12.3200 -11.9186  -1.4524  -1.3165
    -0.9121  -0.4832   0.1152   0.5384   4.0960   5.9315   7.0241   7.2547
     7.4199   9.0307  10.0414  11.4621  12.1991  12.4343  13.2118  13.4775
    13.6541  14.7290

          k = 0.4375 0.2564 0.0000 (  6377 PWs)   bands (ev):

   -44.9103 -23.1428 -23.0726 -22.8563 -12.2132 -11.7817  -2.1427  -1.5803
    -1.0936  -0.3004   0.0339   0.7886   3.7525   6.9270   7.2363   7.5990
     7.6676   9.3523   9.6536  10.9828  11.6398  11.9620  12.6276  13.8082
    14.0362  14.2770

          k = 0.4375 0.3296 0.0000 (  6366 PWs)   bands (ev):

   -44.9090 -23.1490 -23.0687 -22.8676 -12.1964 -11.7556  -2.1643  -1.6306
    -1.0694  -0.3686   0.0342   0.6562   3.8255   7.0212   7.2739   7.5743
     7.7586   9.4286   9.8144  11.0880  11.6512  11.9911  12.4354  13.4429
    14.1423  14.2539

          k = 0.4375 0.4029 0.0000 (  6371 PWs)   bands (ev):

   -44.9079 -23.1392 -23.0652 -22.8944 -12.1810 -11.7313  -2.0719  -1.6359
    -1.0480  -0.4864   0.0138   0.3323   4.0343   7.0610   7.2823   7.5219
     7.7017   9.5116  10.3100  11.4470  11.7919  12.0615  12.1153  13.3023
    14.2073  14.4142

          k = 0.4375 0.4761 0.0000 (  6378 PWs)   bands (ev):

   -44.9070 -23.1165 -23.0624 -22.9306 -12.1692 -11.7127  -1.8898  -1.6070
    -1.0357  -0.6163  -0.1264   0.0531   4.3069   6.8315   7.1617   7.6314
     7.7415   9.7088  10.7415  11.5652  11.8939  12.1927  12.3574  13.4573
    14.2939  14.4825

          k = 0.4375 0.5494 0.0000 (  6377 PWs)   bands (ev):

   -44.9065 -23.0925 -23.0610 -22.9621 -12.1628 -11.7026  -1.7160  -1.5579
    -1.0355  -0.7268  -0.3930   0.0172   4.5256   6.5689   7.0686   7.6183
     7.9316   9.9372  10.8030  11.3618  12.0745  12.5478  12.9541  13.6276
    14.1354  14.3945

          k = 0.4375-0.1831 0.0000 (  6386 PWs)   bands (ev):

   -44.9115 -23.1224 -23.0762 -22.8615 -12.2289 -11.8054  -2.0148  -1.4824
    -1.1175  -0.3347   0.0471   0.6847   3.8349   6.8225   7.1059   7.5237
     7.5932   9.3942   9.7118  11.1512  11.7308  11.9849  12.8393  13.6355
    14.2502  14.5545

          k = 0.4375-0.1099 0.0000 (  6391 PWs)   bands (ev):

   -44.9124 -23.0943 -23.0788 -22.8787 -12.2410 -11.8233  -1.8192  -1.3499
    -1.1437  -0.4582   0.0635   0.4541   4.0109   6.4569   7.1252   7.4720
     7.6217   9.5102   9.8454  11.4597  11.9177  12.0665  13.0276  13.4877
    14.3161  14.6075

          k = 0.4375-0.0366 0.0000 (  6394 PWs)   bands (ev):

   -44.9129 -23.0812 -23.0705 -22.8959 -12.2477 -11.8328  -1.6456  -1.2334
    -1.1765  -0.5683   0.0109   0.3115   4.1635   6.1658   7.1236   7.4870
     7.6717   9.5527  10.0049  11.6370  12.1138  12.3168  13.0639  13.4082
    13.9685  14.4900

          k =-0.5000-0.2930 0.0000 (  6372 PWs)   bands (ev):

   -44.9091 -23.1561 -23.0689 -22.8592 -12.1973 -11.7565  -2.2184  -1.6520
    -1.0696  -0.3222   0.0300   0.7745   3.7504   6.9782   7.3730   7.6356
     7.7791   9.3530   9.6920  10.9463  11.5578  11.9920  12.4530  13.6233
    13.9656  14.1407

          k =-0.5000-0.2198 0.0000 (  6370 PWs)   bands (ev):

   -44.9091 -23.1482 -23.0689 -22.8676 -12.1972 -11.7567  -2.1605  -1.6272
    -1.0697  -0.3659   0.0305   0.6511   3.8301   7.0237   7.3030   7.5751
     7.7192   9.4162   9.8192  11.0894  11.6614  11.9929  12.4378  13.4214
    14.1509  14.2740

          k =-0.5000-0.1465 0.0000 (  6372 PWs)   bands (ev):

   -44.9091 -23.1267 -23.0689 -22.8904 -12.1968 -11.7573  -2.0017  -1.5584
    -1.0729  -0.4793   0.0249   0.3586   4.0281   6.8652   7.2193   7.5315
     7.7094   9.6097  10.0295  11.4513  11.8410  12.0085  12.4831  13.3379
    14.2576  14.5528

          k =-0.5000-0.0733 0.0000 (  6379 PWs)   bands (ev):

   -44.9091 -23.1000 -23.0689 -22.9184 -12.1965 -11.7578  -1.8006  -1.4697
    -1.0855  -0.6044  -0.0796   0.1414   4.2492   6.5035   7.1520   7.6581
     7.7462   9.8459  10.1671  11.6818  11.8284  12.2346  12.8468  13.4806
    14.2439  14.5048

          k =-0.5000 0.0000 0.0000 (  6383 PWs)   bands (ev):

   -44.9091 -23.0861 -23.0689 -22.9328 -12.1963 -11.7580  -1.6946  -1.4227
    -1.0981  -0.6599  -0.2062   0.1170   4.3547   6.3370   7.1107   7.7193
     7.7798   9.9644  10.2052  11.5942  11.8970  12.4844  13.1656  13.5135
    14.1398  14.2676

     highest occupied, lowest unoccupied level (ev):     4.7280    5.7002

!    total energy              =    -591.24383830 Ry
     total all-electron energy =    -13333.877114 Ry
     estimated scf accuracy    <          4.1E-11 Ry

     The total energy is the sum of the following terms:
     one-electron contribution =    -204.48450803 Ry
     hartree contribution      =     110.02494110 Ry
     xc contribution           =     -37.59021296 Ry
     ewald contribution        =     -28.07848914 Ry
     one-center paw contrib.   =    -431.11556926 Ry

     convergence has been achieved in   5 iterations

     negative rho (up, down):  3.223E-08 0.000E+00

     Forces acting on atoms (cartesian axes, Ry/au):

     atom    1 type  1   force =     0.00000000    0.00020860    0.00001334
     atom    2 type  2   force =     0.00000000   -0.00011908   -0.00007166
     atom    3 type  3   force =     0.00000000   -0.00008952    0.00005831
     The non-local contrib.  to forces
     atom    1 type  1   force =     0.00000000   -0.00175620   -0.00068579
     atom    2 type  2   force =     0.00000000   -0.00151575   -0.21217774
     atom    3 type  3   force =     0.00000000   -0.00143974    0.20907398
     The ionic contribution  to forces
     atom    1 type  1   force =    -0.00000001   -0.10111412   -0.30372095
     atom    2 type  2   force =     0.00000000    0.05719675   20.90064925
     atom    3 type  3   force =     0.00000000    0.04391737  -20.59692829
     The local contribution  to forces
     atom    1 type  1   force =     0.00000000    0.10300108    0.30406450
     atom    2 type  2   force =     0.00000003   -0.05578870  -20.69638690
     atom    3 type  3   force =    -0.00000000   -0.04250790   20.39161893
     The core correction contribution to forces
     atom    1 type  1   force =    -0.00000000    0.00007289    0.00038377
     atom    2 type  2   force =    -0.00000000   -0.00001983    0.00784427
     atom    3 type  3   force =    -0.00000000   -0.00006584   -0.00369792
     The Hubbard contrib.    to forces
     atom    1 type  1   force =     0.00000000    0.00000000    0.00000000
     atom    2 type  2   force =     0.00000000    0.00000000    0.00000000
     atom    3 type  3   force =     0.00000000    0.00000000    0.00000000
     The SCF correction term to forces
     atom    1 type  1   force =    -0.00000000   -0.00000048   -0.00002682
     atom    2 type  2   force =    -0.00000000    0.00000303    0.00000083
     atom    3 type  3   force =     0.00000000    0.00000116   -0.00000702

     Total force =     0.000273     Total SCF correction =     0.000028
     SCF correction compared to forces is large: reduce conv_thr to get better values
     Energy error            =      1.8E-07 Ry
     Gradient error          =      2.1E-04 Ry/Bohr

     number of scf cycles    =   7
     number of bfgs steps    =   6

     energy             old  =    -591.2438381161 Ry
     energy             new  =    -591.2438382989 Ry

     CASE: energy            _new < energy            _old

     new trust radius        =       0.0005942504 bohr
     new conv_thr            =            1.0E-10 Ry


ATOMIC_POSITIONS (angstrom)
Zr            0.0000000000       -0.0041300378       10.2768027802
Cl           -0.0000000017        2.0162280625       11.9546503063
Br           -0.0000000017        2.0167588198        8.4316956880



     Writing config-only to output data dir ./tmp/ZrClBr.save/
     NEW-OLD atomic charge density approx. for the potential

     Check: negative core charge=   -0.000004

     negative rho (up, down):  3.233E-08 0.000E+00

     total cpu time spent up to now is       86.3 secs

     Self-consistent Calculation

     iteration #  1     ecut=    65.00 Ry     beta= 0.70
     Davidson diagonalization with overlap
     ethr =  1.00E-06,  avg # of iterations =  2.0

     Threshold (ethr) on eigenvalues was too large:
     Diagonalizing with lowered threshold

     Davidson diagonalization with overlap
     ethr =  1.53E-10,  avg # of iterations =  4.0

     negative rho (up, down):  3.234E-08 0.000E+00

     total cpu time spent up to now is       89.9 secs

     total energy              =    -591.24383843 Ry
     estimated scf accuracy    <       0.00000003 Ry

     iteration #  2     ecut=    65.00 Ry     beta= 0.70
     Davidson diagonalization with overlap
     ethr =  1.11E-10,  avg # of iterations =  2.0

     negative rho (up, down):  3.227E-08 0.000E+00

     total cpu time spent up to now is       91.5 secs

     total energy              =    -591.24383843 Ry
     estimated scf accuracy    <       0.00000006 Ry

     iteration #  3     ecut=    65.00 Ry     beta= 0.70
     Davidson diagonalization with overlap
     ethr =  1.11E-10,  avg # of iterations =  2.0

     negative rho (up, down):  3.227E-08 0.000E+00

     total cpu time spent up to now is       93.1 secs

     total energy              =    -591.24383844 Ry
     estimated scf accuracy    <          3.5E-09 Ry

     iteration #  4     ecut=    65.00 Ry     beta= 0.70
     Davidson diagonalization with overlap
     ethr =  1.34E-11,  avg # of iterations =  1.1

     negative rho (up, down):  3.227E-08 0.000E+00

     total cpu time spent up to now is       94.4 secs

     total energy              =    -591.24383844 Ry
     estimated scf accuracy    <          5.3E-10 Ry

     iteration #  5     ecut=    65.00 Ry     beta= 0.70
     Davidson diagonalization with overlap
     ethr =  2.04E-12,  avg # of iterations =  2.0

     negative rho (up, down):  3.226E-08 0.000E+00

     total cpu time spent up to now is       95.9 secs

     total energy              =    -591.24383844 Ry
     estimated scf accuracy    <          1.0E-10 Ry

     iteration #  6     ecut=    65.00 Ry     beta= 0.70
     Davidson diagonalization with overlap
     ethr =  3.98E-13,  avg # of iterations =  1.3

     negative rho (up, down):  3.227E-08 0.000E+00

     total cpu time spent up to now is       97.3 secs

     End of self-consistent calculation

          k = 0.0000 0.0000 0.0000 (  6443 PWs)   bands (ev):

   -44.9397 -23.1671 -22.7963 -22.7767 -12.7564 -12.1927  -2.1144  -0.0371
     0.1052   0.1746   1.2641   1.3527   4.2920   5.8635   6.0183   6.5710
     6.6241   6.7126   8.3222   9.3529  11.2987  13.4268  13.6329  13.8947
    14.5609  15.0934

          k = 0.0000 0.0733 0.0000 (  6449 PWs)   bands (ev):

   -44.9385 -23.1632 -22.7996 -22.7916 -12.7310 -12.1813  -2.0702  -0.1109
     0.0924   0.1287   1.1955   1.2278   4.2948   5.8982   5.9497   6.5827
     6.6319   6.8944   8.4521   9.5892  11.3641  13.1457  13.5543  14.2812
    14.5982  14.8520

          k = 0.0000 0.1465 0.0000 (  6425 PWs)   bands (ev):

   -44.9349 -23.1522 -22.8339 -22.8089 -12.6592 -12.1471  -1.9459  -0.3506
     0.0265   0.0514   0.8094   1.1331   4.2781   5.8300   6.0098   6.5367
     6.7940   7.3355   8.8133  10.1481  11.5603  12.5695  13.9175  14.0430
    14.4828  14.8591

          k = 0.0000 0.2198 0.0000 (  6389 PWs)   bands (ev):

   -44.9295 -23.1357 -22.8964 -22.8228 -12.5541 -12.0908  -1.7674  -0.7140
    -0.1689  -0.0212   0.4014   1.0120   4.1910   5.8213   6.2137   6.5704
     7.0084   7.8470   9.3229  10.7295  11.7980  12.1634  13.5301  14.2905
    14.4445  15.1374

          k = 0.0000 0.2930 0.0000 (  6385 PWs)   bands (ev):

   -44.9232 -23.1162 -22.9690 -22.8392 -12.4361 -12.0134  -1.5867  -1.1059
    -0.5550  -0.1210   0.1859   0.8939   4.0416   6.0005   6.5173   6.6815
     7.2224   8.3241   9.7682  11.1177  11.7385  12.0261  13.7014  14.0038
    14.9062  15.0059

          k = 0.0000 0.3663 0.0000 (  6391 PWs)   bands (ev):

   -44.9168 -23.0966 -23.0403 -22.8555 -12.3280 -11.9201  -1.6270  -1.2854
    -0.9856  -0.2313   0.1049   0.7950   3.9039   6.3251   6.8280   6.9040
     7.3992   8.7500   9.9132  11.2293  11.6310  11.9954  13.6983  14.2753
    14.6392  14.7352

          k = 0.0000 0.4395 0.0000 (  6376 PWs)   bands (ev):

   -44.9114 -23.1005 -23.0794 -22.8693 -12.2459 -11.8259  -1.9156  -1.3813
    -1.1491  -0.3296   0.0726   0.7212   3.8273   6.6880   6.9891   7.3175
     7.5258   9.1171   9.8256  11.0664  11.6794  12.0003  13.2302  14.1477
    14.2351  14.5977

          k = 0.0000 0.5128 0.0000 (  6396 PWs)   bands (ev):

   -44.9078 -23.1396 -23.0685 -22.8784 -12.1960 -11.7549  -2.1288  -1.5940
    -1.0883  -0.3966   0.0617   0.6756   3.8057   6.8957   7.2171   7.5738
     7.6846   9.3672   9.7112  10.9187  11.6823  12.0270  12.7034  13.6407
    14.0972  14.3493

          k = 0.0000-0.5860 0.0000 (  6374 PWs)   bands (ev):

   -44.9066 -23.1533 -23.0646 -22.8816 -12.1794 -11.7285  -2.2047  -1.6690
    -1.0658  -0.4202   0.0595   0.6601   3.8047   6.9412   7.3504   7.6037
     7.8160   9.4087   9.7177  10.8694  11.6151  12.0799  12.5112  13.4415
    14.0037  14.2075

          k = 0.0625 0.0366 0.0000 (  6429 PWs)   bands (ev):

   -44.9385 -23.1634 -22.8086 -22.7818 -12.7318 -12.1821  -2.0712  -0.1274
     0.0865   0.1541   1.1274   1.3038   4.2901   5.8248   6.0329   6.5479
     6.6739   6.8919   8.4444   9.5799  11.3622  13.0639  13.7047  14.2328
    14.5640  14.7281

          k = 0.0625 0.1099 0.0000 (  6435 PWs)   bands (ev):

   -44.9361 -23.1560 -22.8274 -22.7979 -12.6831 -12.1593  -1.9868  -0.2788
     0.0261   0.1088   0.8994   1.1956   4.2832   5.8061   6.0316   6.5294
     6.7617   7.2026   8.6904   9.9768  11.4953  12.7027  13.7959  14.2070
    14.5514  14.7124

          k = 0.0625 0.1831 0.0000 (  6415 PWs)   bands (ev):

   -44.9316 -23.1422 -22.8739 -22.8155 -12.5946 -12.1141  -1.8341  -0.5703
    -0.1047   0.0279   0.5257   1.0626   4.2355   5.7534   6.1815   6.5451
     6.9372   7.6736   9.1318  10.5397  11.7627  12.2704  13.6034  14.0537
    14.5780  15.0693

          k = 0.0625 0.2564 0.0000 (  6399 PWs)   bands (ev):

   -44.9258 -23.1242 -22.9384 -22.8336 -12.4831 -12.0470  -1.6474  -0.9419
    -0.3603  -0.1339   0.2647   0.9205   4.1246   5.8217   6.4582   6.6414
     7.1395   8.1617   9.6297  10.9993  11.8801  12.1063  13.3626  14.0101
    14.7758  15.0837

          k = 0.0625 0.3296 0.0000 (  6396 PWs)   bands (ev):

   -44.9194 -23.1046 -23.0080 -22.8523 -12.3706 -11.9606  -1.5244  -1.2649
    -0.7846  -0.2595   0.1594   0.7859   3.9937   6.0564   6.7551   6.8650
     7.3205   8.6167   9.9199  11.2552  11.7666  12.0326  13.7146  13.9513
    14.5693  14.8683

          k = 0.0625 0.4029 0.0000 (  6391 PWs)   bands (ev):

   -44.9136 -23.0869 -23.0711 -22.8692 -12.2769 -11.8647  -1.7522  -1.2716
    -1.1421  -0.3535   0.1035   0.6728   3.9047   6.4140   6.9201   7.2600
     7.4563   9.0362   9.9085  11.2410  11.7169  12.0303  13.4926  13.9769
    14.3896  14.6861

          k = 0.0625 0.4761 0.0000 (  6381 PWs)   bands (ev):

   -44.9091 -23.1200 -23.0722 -22.8820 -12.2124 -11.7798  -2.0077  -1.4983
    -1.1107  -0.4205   0.0722   0.5919   3.8747   6.7976   7.0681   7.5083
     7.6214   9.3982   9.7725  11.0962  11.7484  12.0209  12.9021  13.6069
    14.2914  14.5685

          k = 0.0625 0.5494 0.0000 (  6375 PWs)   bands (ev):

   -44.9066 -23.1457 -23.0647 -22.8889 -12.1799 -11.7297  -2.1499  -1.6457
    -1.0656  -0.4559   0.0586   0.5500   3.8761   6.9893   7.2728   7.5480
     7.7630   9.4767   9.8360  11.0101  11.7028  12.0690  12.4707  13.3443
    14.1808  14.2903

          k = 0.1250 0.0733 0.0000 (  6425 PWs)   bands (ev):

   -44.9352 -23.1528 -22.8476 -22.7921 -12.6620 -12.1504  -1.9495  -0.3811
     0.0083   0.1097   0.7600   1.2110   4.2591   5.7499   6.1232   6.5215
     6.8278   7.3292   8.7881  10.1251  11.5509  12.5287  13.9590  14.0484
    14.4611  14.7814

          k = 0.1250 0.1465 0.0000 (  6418 PWs)   bands (ev):

   -44.9319 -23.1426 -22.8803 -22.8068 -12.5967 -12.1165  -1.8365  -0.5882
    -0.1067   0.0515   0.5058   1.1075   4.2192   5.7372   6.2217   6.5352
     6.9570   7.6705   9.1161  10.5285  11.7529  12.2515  13.5716  14.0661
    14.6113  15.0267

          k = 0.1250 0.2198 0.0000 (  6400 PWs)   bands (ev):

   -44.9269 -23.1273 -22.9296 -22.8277 -12.5017 -12.0605  -1.6718  -0.8783
    -0.2887  -0.1491   0.2968   0.9474   4.1546   5.7283   6.4837   6.6266
     7.1191   8.1107   9.5645  10.9486  12.0060  12.1379  13.1297  13.9144
    14.7896  14.9810

          k = 0.1250 0.2930 0.0000 (  6406 PWs)   bands (ev):

   -44.9211 -23.1093 -22.9876 -22.8517 -12.3960 -11.9834  -1.4976  -1.1980
    -0.6214  -0.3500   0.1974   0.7594   4.0797   5.8293   6.7567   6.8901
     7.2769   8.5726   9.9285  11.2461  11.9540  12.3063  13.1337  13.7355
    14.4917  14.8682

          k = 0.1250 0.3663 0.0000 (  6386 PWs)   bands (ev):

   -44.9152 -23.0912 -23.0450 -22.8753 -12.2998 -11.8916  -1.5719  -1.2770
    -1.0179  -0.4554   0.1280   0.5707   4.0293   6.0764   6.9365   7.2826
     7.4262   9.0369  10.0126  11.4104  11.9743  12.1453  13.5084  13.6763
    13.9459  14.7052

          k = 0.1250 0.4395 0.0000 (  6376 PWs)   bands (ev):

   -44.9102 -23.0937 -23.0752 -22.8951 -12.2264 -11.8007  -1.8260  -1.3724
    -1.1373  -0.5170   0.0751   0.4080   4.0260   6.4436   7.0850   7.4479
     7.6734   9.5178   9.8886  11.4143  11.9011  12.0703  13.0116  13.5480
    14.3516  14.6214

          k = 0.1250 0.5128 0.0000 (  6364 PWs)   bands (ev):

   -44.9069 -23.1253 -23.0652 -22.9082 -12.1815 -11.7332  -2.0011  -1.5820
    -1.0682  -0.5473   0.0430   0.2967   4.0529   6.8498   7.1940   7.4853
     7.7711   9.6654  10.0440  11.3657  11.8283  12.0516  12.4883  13.3520
    14.3083  14.5401

          k = 0.1250 0.5860 0.0000 (  6374 PWs)   bands (ev):

   -44.9057 -23.1365 -23.0616 -22.9128 -12.1664 -11.7082  -2.0629  -1.6550
    -1.0449  -0.5559   0.0327   0.2568   4.0691   7.0560   7.2756   7.4825
     7.7139   9.5706  10.3131  11.3515  11.8149  12.0999  12.1428  13.2888
    14.2695  14.3888

          k = 0.1250 0.0000 0.0000 (  6413 PWs)   bands (ev):

   -44.9363 -23.1564 -22.8363 -22.7867 -12.6853 -12.1617  -1.9895  -0.2993
     0.0262   0.1362   0.8702   1.2432   4.2726   5.7398   6.1206   6.5336
     6.7741   7.1975   8.6702   9.9578  11.4914  12.6660  13.9310  14.1427
    14.4817  14.6816

          k = 0.1875 0.1099 0.0000 (  6419 PWs)   bands (ev):

   -44.9302 -23.1369 -22.9075 -22.8054 -12.5600 -12.0980  -1.7740  -0.7425
    -0.1906   0.0429   0.3743   1.0983   4.1548   5.7805   6.3086   6.5698
     7.0360   7.8407   9.2820  10.7054  11.7793  12.1319  13.4764  14.2456
    14.5640  15.0449

          k = 0.1875 0.1831 0.0000 (  6403 PWs)   bands (ev):

   -44.9264 -23.1252 -22.9462 -22.8202 -12.4882 -12.0535  -1.6525  -0.9653
    -0.3837  -0.0883   0.2593   0.9930   4.0898   5.8194   6.5042   6.6349
     7.1651   8.1587   9.6027  10.9849  11.8657  12.0741  13.3278  13.9674
    14.8239  15.0512

          k = 0.1875 0.2564 0.0000 (  6398 PWs)   bands (ev):

   -44.9214 -23.1099 -22.9913 -22.8446 -12.3990 -11.9875  -1.5000  -1.2102
    -0.6364  -0.3264   0.2020   0.7961   4.0600   5.8353   6.7581   6.9033
     7.2877   8.5725   9.9177  11.2377  11.9400  12.3183  13.1026  13.7015
    14.5138  14.8439

          k = 0.1875 0.3296 0.0000 (  6399 PWs)   bands (ev):

   -44.9160 -23.0933 -23.0356 -22.8749 -12.3102 -11.9041  -1.4783  -1.3108
    -0.9477  -0.5029   0.1220   0.5512   4.0806   5.9366   6.9510   7.2879
     7.4427   9.0431  10.0611  11.4474  12.1629  12.3873  13.1987  13.4910
    13.6685  14.7699

          k = 0.1875 0.4029 0.0000 (  6386 PWs)   bands (ev):

   -44.9110 -23.0789 -23.0725 -22.9055 -12.2360 -11.8146  -1.6724  -1.2642
    -1.1741  -0.5987   0.0145   0.3198   4.1503   6.1649   7.0902   7.4671
     7.7338   9.5724  10.0220  11.6001  12.1111  12.2686  13.0143  13.4308
    13.9774  14.5312

          k = 0.1875 0.4761 0.0000 (  6372 PWs)   bands (ev):

   -44.9072 -23.1010 -23.0658 -22.9304 -12.1840 -11.7381  -1.8174  -1.5012
    -1.0803  -0.6446  -0.0938   0.1512   4.2460   6.5006   7.1427   7.6026
     7.8243   9.8859  10.1884  11.6428  11.7667  12.2305  12.7903  13.5309
    14.2761  14.5088

          k = 0.1875 0.5494 0.0000 (  6373 PWs)   bands (ev):

   -44.9052 -23.1151 -23.0595 -22.9443 -12.1575 -11.6940  -1.8927  -1.6308
    -1.0326  -0.6612  -0.1626   0.0655   4.3176   6.8382   7.1590   7.6585
     7.7018   9.7588  10.7523  11.5321  11.7888  12.2329  12.3739  13.4562
    14.3363  14.4570

          k = 0.1875-0.0366 0.0000 (  6423 PWs)   bands (ev):

   -44.9322 -23.1432 -22.8838 -22.7999 -12.5999 -12.1202  -1.8404  -0.5920
    -0.1048   0.0642   0.5090   1.1214   4.2121   5.7007   6.2779   6.5724
     6.9398   7.6670   9.0898  10.5129  11.7525  12.2587  13.5578  14.1382
    14.5659  15.0045

          k = 0.2500 0.1465 0.0000 (  6405 PWs)   bands (ev):

   -44.9242 -23.1181 -22.9775 -22.8204 -12.4454 -12.0258  -1.5956  -1.1284
    -0.5773  -0.0481   0.1711   0.9890   3.9961   5.9847   6.5889   6.6919
     7.2472   8.3204   9.7268  11.0960  11.7248  11.9961  13.6495  13.9320
    14.8790  15.0307

          k = 0.2500 0.2198 0.0000 (  6381 PWs)   bands (ev):

   -44.9204 -23.1064 -23.0153 -22.8354 -12.3790 -11.9724  -1.5345  -1.2844
    -0.8061  -0.2041   0.1605   0.8765   3.9482   6.0607   6.7678   6.8984
     7.3453   8.6167   9.8908  11.2321  11.7635  12.0148  13.6407  13.8711
    14.5626  14.8713

          k = 0.2500 0.2930 0.0000 (  6398 PWs)   bands (ev):

   -44.9159 -23.0926 -23.0502 -22.8628 -12.3061 -11.9010  -1.5871  -1.2832
    -1.0311  -0.4185   0.1347   0.6324   3.9958   6.0827   6.9473   7.3020
     7.4399   9.0398   9.9913  11.3942  11.9929  12.1523  13.4457  13.7050
    13.8715  14.6469

          k = 0.2500 0.3663 0.0000 (  6381 PWs)   bands (ev):

   -44.9114 -23.0800 -23.0749 -22.8990 -12.2394 -11.8199  -1.6816  -1.2654
    -1.1775  -0.5812   0.0243   0.3415   4.1342   6.1651   7.1006   7.4707
     7.7432   9.5731  10.0093  11.5946  12.1182  12.3061  13.0701  13.3504
    13.9183  14.4864

          k = 0.2500 0.4395 0.0000 (  6367 PWs)   bands (ev):

   -44.9076 -23.0905 -23.0666 -22.9375 -12.1874 -11.7437  -1.7285  -1.4585
    -1.0929  -0.6784  -0.1977   0.1411   4.3289   6.3380   7.1092   7.6875
     7.8545   9.9753  10.2393  11.5854  11.8412  12.4698  13.0654  13.5380
    14.1551  14.2651

          k = 0.2500 0.5128 0.0000 (  6366 PWs)   bands (ev):

   -44.9051 -23.0938 -23.0587 -22.9692 -12.1545 -11.6892  -1.7365  -1.5845
    -1.0316  -0.7466  -0.4052   0.0379   4.5119   6.5761   7.0696   7.6887
     7.8785   9.9710  10.7950  11.3888  12.0038  12.5396  12.8958  13.6167
    14.1602  14.4144

          k = 0.2500 0.5860 0.0000 (  6382 PWs)   bands (ev):

   -44.9042 -23.0932 -23.0560 -22.9822 -12.1433 -11.6695  -1.7416  -1.6161
    -1.0098  -0.7845  -0.4759   0.0027   4.5893   6.7303   7.0497   7.5304
     7.9489   9.9580  10.8676  11.6922  12.1129  12.5419  12.5659  13.4731
    14.4297  14.4329

          k = 0.2500-0.0733 0.0000 (  6410 PWs)   bands (ev):

   -44.9268 -23.1260 -22.9459 -22.8165 -12.4919 -12.0581  -1.6566  -0.9561
    -0.3743  -0.0797   0.2616   0.9860   4.0933   5.7989   6.5287   6.6814
     7.1394   8.1562   9.5791  10.9789  11.8815  12.0895  13.3402  14.0042
    14.7948  15.0350

          k = 0.2500 0.0000 0.0000 (  6447 PWs)   bands (ev):

   -44.9277 -23.1287 -22.9329 -22.8171 -12.5086 -12.0689  -1.6794  -0.8759
    -0.2865  -0.1228   0.3036   0.9646   4.1451   5.7021   6.5356   6.6925
     7.0881   8.1058   9.5197  10.9329  12.0334  12.1440  13.1266  13.9500
    14.7620  14.9595

          k = 0.3125 0.1831 0.0000 (  6396 PWs)   bands (ev):

   -44.9183 -23.0993 -23.0464 -22.8352 -12.3406 -11.9382  -1.6411  -1.2973
    -0.9969  -0.1490   0.0877   0.8977   3.8556   6.3230   6.8465   6.9472
     7.4246   8.7508   9.8727  11.2133  11.6335  11.9708  13.5932  14.1949
    14.5259  14.8684

          k = 0.3125 0.2564 0.0000 (  6383 PWs)   bands (ev):

   -44.9150 -23.0894 -23.0771 -22.8498 -12.2887 -11.8823  -1.7712  -1.2770
    -1.1540  -0.2871   0.0988   0.7746   3.8547   6.4145   6.9385   7.2937
     7.4779   9.0420   9.8660  11.2408  11.7217  12.0116  13.3879  13.9979
    14.3532  14.6151

          k = 0.3125 0.3296 0.0000 (  6381 PWs)   bands (ev):

   -44.9114 -23.0986 -23.0775 -22.8789 -12.2363 -11.8157  -1.8443  -1.3733
    -1.1437  -0.4672   0.0757   0.4840   3.9859   6.4393   7.1115   7.4587
     7.6972   9.5262   9.8471  11.4294  11.9148  12.0714  13.0287  13.4910
    14.2859  14.5323

          k = 0.3125 0.4029 0.0000 (  6380 PWs)   bands (ev):

   -44.9080 -23.1047 -23.0674 -22.9189 -12.1910 -11.7489  -1.8301  -1.4972
    -1.0832  -0.6127  -0.0689   0.1705   4.2222   6.4886   7.1576   7.6193
     7.8405   9.8414  10.2054  11.6584  11.7970  12.2649  12.7798  13.4905
    14.2189  14.4513

          k = 0.3125 0.4761 0.0000 (  6370 PWs)   bands (ev):

   -44.9055 -23.0959 -23.0595 -22.9633 -12.1581 -11.6947  -1.7398  -1.5814
    -1.0331  -0.7321  -0.3860   0.0343   4.5047   6.5634   7.0727   7.6940
     7.8951   9.9418  10.8189  11.4026  12.0102  12.5640  12.8465  13.6615
    14.1400  14.4004

          k = 0.3125 0.5494 0.0000 (  6373 PWs)   bands (ev):

   -44.9041 -23.0784 -23.0553 -23.0001 -12.1407 -11.6644  -1.7053  -1.5211
    -1.0011  -0.9032  -0.5672  -0.0227   4.7195   6.6284   7.0052   7.4778
     8.0767  10.1055  10.6524  12.0012  12.2155  12.7367  12.8675  13.1976
    14.3213  14.5329

          k = 0.3125-0.1099 0.0000 (  6395 PWs)   bands (ev):

   -44.9208 -23.1071 -23.0130 -22.8339 -12.3827 -11.9774  -1.5327  -1.2748
    -0.7894  -0.1959   0.1530   0.8593   3.9607   6.0550   6.7975   6.8982
     7.3277   8.6133   9.8790  11.2395  11.7730  12.0237  13.6723  13.9166
    14.4919  14.8758

          k = 0.3125-0.0366 0.0000 (  6403 PWs)   bands (ev):

   -44.9222 -23.1114 -22.9894 -22.8388 -12.4063 -11.9972  -1.5063  -1.1901
    -0.6109  -0.3133   0.1993   0.7821   4.0711   5.8215   6.8249   6.9148
     7.2515   8.5660   9.8872  11.2389  11.9826  12.3335  13.1344  13.7511
    14.4020  14.8245

          k = 0.3750 0.2198 0.0000 (  6380 PWs)   bands (ev):

   -44.9133 -23.1046 -23.0828 -22.8476 -12.2614 -11.8493  -1.9303  -1.3769
    -1.1585  -0.2394   0.0498   0.8300   3.7769   6.6996   7.0117   7.3286
     7.5523   9.1228   9.7669  11.0953  11.6602  11.9725  13.1235  14.1309
    14.2995  14.5104

          k = 0.3750 0.2930 0.0000 (  6382 PWs)   bands (ev):

   -44.9108 -23.1242 -23.0755 -22.8611 -12.2271 -11.8024  -2.0256  -1.4923
    -1.1174  -0.3425   0.0572   0.6986   3.8231   6.8001   7.0877   7.5330
     7.6408   9.4088   9.7084  11.1451  11.7218  11.9821  12.8300  13.6929
    14.2239  14.4977

          k = 0.3750 0.3663 0.0000 (  6375 PWs)   bands (ev):

   -44.9084 -23.1292 -23.0680 -22.8900 -12.1944 -11.7531  -2.0167  -1.5719
    -1.0722  -0.4855   0.0325   0.3773   4.0126   6.8344   7.2200   7.5066
     7.7925   9.6172  10.0453  11.4325  11.8229  12.0189  12.4608  13.3644
    14.2438  14.5053

          k = 0.3750 0.4395 0.0000 (  6369 PWs)   bands (ev):

   -44.9063 -23.1182 -23.0616 -22.9303 -12.1675 -11.7096  -1.9013  -1.6171
    -1.0353  -0.6194  -0.1237   0.0660   4.2962   6.8123   7.1653   7.6811
     7.7298   9.7075  10.7697  11.5744  11.8554  12.2140  12.3094  13.4742
    14.2873  14.4604

          k = 0.3750 0.5128 0.0000 (  6380 PWs)   bands (ev):

   -44.9050 -23.0949 -23.0574 -22.9734 -12.1499 -11.6798  -1.7352  -1.6056
    -1.0125  -0.7641  -0.4501  -0.0108   4.5886   6.7092   7.0497   7.5158
     7.9872   9.9147  10.9206  11.6685  12.1428  12.5192  12.5593  13.5656
    14.4018  14.4414

          k = 0.3750 0.5860 0.0000 (  6374 PWs)   bands (ev):

   -44.9045 -23.0778 -23.0559 -22.9975 -12.1438 -11.6692  -1.6958  -1.5084
    -1.0042  -0.9018  -0.5612  -0.0311   4.7281   6.6224   7.0040   7.4517
     8.0977  10.0844  10.6805  11.9223  12.2471  12.7568  12.9265  13.2182
    14.2544  14.5729

          k = 0.3750-0.1465 0.0000 (  6397 PWs)   bands (ev):

   -44.9153 -23.0899 -23.0744 -22.8495 -12.2917 -11.8868  -1.7579  -1.2729
    -1.1436  -0.2782   0.0872   0.7556   3.8701   6.4273   6.9600   7.2538
     7.4745   9.0371   9.8629  11.2535  11.7219  12.0152  13.4075  13.9343
    14.3643  14.6909

          k = 0.3750-0.0733 0.0000 (  6390 PWs)   bands (ev):

   -44.9167 -23.0940 -23.0456 -22.8604 -12.3128 -11.9106  -1.5631  -1.2842
    -0.9996  -0.4092   0.1236   0.6030   4.0201   6.0819   6.9984   7.2669
     7.4183   9.0294   9.9825  11.4164  12.0075  12.1605  13.5013  13.6276
    13.9459  14.6540

          k = 0.3750 0.0000 0.0000 (  6409 PWs)   bands (ev):

   -44.9172 -23.0954 -23.0325 -22.8672 -12.3204 -11.9187  -1.4529  -1.3169
    -0.9126  -0.4833   0.1151   0.5381   4.0965   5.9320   7.0247   7.2551
     7.4200   9.0306  10.0421  11.4615  12.1981  12.4345  13.2126  13.4780
    13.6549  14.7292

          k = 0.4375 0.2564 0.0000 (  6377 PWs)   bands (ev):

   -44.9099 -23.1425 -23.0723 -22.8559 -12.2135 -11.7818  -2.1429  -1.5805
    -1.0941  -0.3012   0.0343   0.7883   3.7530   6.9271   7.2367   7.5996
     7.6679   9.3529   9.6536  10.9830  11.6400  11.9621  12.6278  13.8086
    14.0367  14.2772

          k = 0.4375 0.3296 0.0000 (  6366 PWs)   bands (ev):

   -44.9086 -23.1486 -23.0684 -22.8672 -12.1968 -11.7557  -2.1645  -1.6308
    -1.0699  -0.3694   0.0346   0.6559   3.8260   7.0211   7.2744   7.5750
     7.7587   9.4286   9.8150  11.0881  11.6513  11.9913  12.4359  13.4429
    14.1424  14.2546

          k = 0.4375 0.4029 0.0000 (  6371 PWs)   bands (ev):

   -44.9074 -23.1388 -23.0648 -22.8940 -12.1814 -11.7314  -2.0721  -1.6362
    -1.0485  -0.4871   0.0141   0.3321   4.0347   7.0612   7.2827   7.5222
     7.7022   9.5115  10.3105  11.4472  11.7920  12.0615  12.1157  13.3026
    14.2071  14.4150

          k = 0.4375 0.4761 0.0000 (  6378 PWs)   bands (ev):

   -44.9066 -23.1161 -23.0621 -22.9303 -12.1695 -11.7128  -1.8900  -1.6074
    -1.0362  -0.6167  -0.1266   0.0533   4.3072   6.8318   7.1625   7.6320
     7.7414   9.7089  10.7417  11.5655  11.8939  12.1928  12.3574  13.4576
    14.2940  14.4831

          k = 0.4375 0.5494 0.0000 (  6377 PWs)   bands (ev):

   -44.9061 -23.0922 -23.0606 -22.9617 -12.1631 -11.7027  -1.7163  -1.5583
    -1.0358  -0.7271  -0.3932   0.0174   4.5259   6.5693   7.0695   7.6190
     7.9314   9.9376  10.8028  11.3621  12.0740  12.5484  12.9542  13.6275
    14.1362  14.3951

          k = 0.4375-0.1831 0.0000 (  6386 PWs)   bands (ev):

   -44.9111 -23.1221 -23.0759 -22.8611 -12.2292 -11.8056  -2.0151  -1.4827
    -1.1180  -0.3352   0.0473   0.6844   3.8354   6.8227   7.1063   7.5241
     7.5936   9.3947   9.7119  11.1516  11.7308  11.9848  12.8394  13.6364
    14.2500  14.5548

          k = 0.4375-0.1099 0.0000 (  6391 PWs)   bands (ev):

   -44.9120 -23.0940 -23.0785 -22.8783 -12.2414 -11.8234  -1.8195  -1.3503
    -1.1441  -0.4585   0.0635   0.4538   4.0114   6.4573   7.1262   7.4717
     7.6222   9.5102   9.8458  11.4598  11.9175  12.0663  13.0281  13.4881
    14.3161  14.6077

          k = 0.4375-0.0366 0.0000 (  6394 PWs)   bands (ev):

   -44.9124 -23.0809 -23.0701 -22.8956 -12.2480 -11.8329  -1.6459  -1.2339
    -1.1769  -0.5684   0.0108   0.3113   4.1639   6.1663   7.1248   7.4865
     7.6721   9.5526  10.0056  11.6364  12.1132  12.3173  13.0640  13.4088
    13.9691  14.4905

          k =-0.5000-0.2930 0.0000 (  6372 PWs)   bands (ev):

   -44.9087 -23.1558 -23.0685 -22.8588 -12.1976 -11.7566  -2.2186  -1.6523
    -1.0701  -0.3230   0.0303   0.7742   3.7509   6.9782   7.3734   7.6363
     7.7793   9.3530   9.6925  10.9464  11.5579  11.9921  12.4532  13.6236
    13.9667  14.1404

          k =-0.5000-0.2198 0.0000 (  6370 PWs)   bands (ev):

   -44.9087 -23.1478 -23.0685 -22.8673 -12.1975 -11.7569  -2.1607  -1.6275
    -1.0702  -0.3666   0.0308   0.6508   3.8306   7.0239   7.3032   7.5756
     7.7198   9.4163   9.8195  11.0896  11.6616  11.9929  12.4379  13.4222
    14.1507  14.2745

          k =-0.5000-0.1465 0.0000 (  6372 PWs)   bands (ev):

   -44.9087 -23.1263 -23.0686 -22.8901 -12.1971 -11.7574  -2.0020  -1.5587
    -1.0734  -0.4797   0.0251   0.3583   4.0285   6.8654   7.2202   7.5312
     7.7101   9.6100  10.0296  11.4517  11.8413  12.0083  12.4830  13.3387
    14.2574  14.5533

          k =-0.5000-0.0733 0.0000 (  6379 PWs)   bands (ev):

   -44.9087 -23.0996 -23.0686 -22.9181 -12.1968 -11.7579  -1.8009  -1.4702
    -1.0859  -0.6046  -0.0797   0.1413   4.2495   6.5039   7.1531   7.6576
     7.7467   9.8463  10.1672  11.6816  11.8283  12.2350  12.8468  13.4809
    14.2443  14.5049

          k =-0.5000 0.0000 0.0000 (  6383 PWs)   bands (ev):

   -44.9087 -23.0858 -23.0685 -22.9325 -12.1966 -11.7582  -1.6949  -1.4232
    -1.0985  -0.6600  -0.2065   0.1170   4.3550   6.3375   7.1118   7.7195
     7.7798   9.9650  10.2052  11.5940  11.8964  12.4852  13.1652  13.5140
    14.1404  14.2683

     highest occupied, lowest unoccupied level (ev):     4.7281    5.7007

!    total energy              =    -591.24383844 Ry
     total all-electron energy =    -13333.877115 Ry
     estimated scf accuracy    <          9.1E-13 Ry

     The total energy is the sum of the following terms:
     one-electron contribution =    -204.51024946 Ry
     hartree contribution      =     110.03787970 Ry
     xc contribution           =     -37.59037130 Ry
     ewald contribution        =     -28.06551903 Ry
     one-center paw contrib.   =    -431.11557836 Ry

     convergence has been achieved in   6 iterations

     negative rho (up, down):  3.227E-08 0.000E+00

     Forces acting on atoms (cartesian axes, Ry/au):

     atom    1 type  1   force =     0.00000000    0.00004852   -0.00000905
     atom    2 type  2   force =     0.00000000   -0.00003483   -0.00000849
     atom    3 type  3   force =     0.00000000   -0.00001369    0.00001754
     The non-local contrib.  to forces
     atom    1 type  1   force =     0.00000000   -0.00181819   -0.00067984
     atom    2 type  2   force =     0.00000000   -0.00148154   -0.21214173
     atom    3 type  3   force =     0.00000000   -0.00140536    0.20905268
     The ionic contribution  to forces
     atom    1 type  1   force =    -0.00000001   -0.10288590   -0.30368498
     atom    2 type  2   force =     0.00000000    0.05825745   20.90204301
     atom    3 type  3   force =     0.00000000    0.04462845  -20.59835804
     The local contribution  to forces
     atom    1 type  1   force =     0.00000000    0.10467527    0.30396860
     atom    2 type  2   force =     0.00000003   -0.05679418  -20.69774879
     atom    3 type  3   force =    -0.00000000   -0.04317095   20.39301696
     The core correction contribution to forces
     atom    1 type  1   force =    -0.00000000    0.00007182    0.00038270
     atom    2 type  2   force =    -0.00000000   -0.00002226    0.00783771
     atom    3 type  3   force =    -0.00000000   -0.00007094   -0.00369507
     The Hubbard contrib.    to forces
     atom    1 type  1   force =     0.00000000    0.00000000    0.00000000
     atom    2 type  2   force =     0.00000000    0.00000000    0.00000000
     atom    3 type  3   force =     0.00000000    0.00000000    0.00000000
     The SCF correction term to forces
     atom    1 type  1   force =    -0.00000000    0.00000057    0.00000310
     atom    2 type  2   force =    -0.00000000    0.00000075   -0.00000006
     atom    3 type  3   force =    -0.00000000    0.00000017   -0.00000037

     Total force =     0.000065     Total SCF correction =     0.000003
     Energy error            =      1.4E-07 Ry
     Gradient error          =      4.9E-05 Ry/Bohr

     bfgs converged in   8 scf cycles and   7 bfgs steps
     (criteria: energy <  1.0E-05 Ry, force <  1.0E-04 Ry/Bohr)

     End of BFGS Geometry Optimization

     Final energy             =    -591.2438384393 Ry

     File ./tmp/ZrClBr.bfgs deleted, as requested
Begin final coordinates

ATOMIC_POSITIONS (angstrom)
Zr            0.0000000000       -0.0041300378       10.2768027802
Cl           -0.0000000017        2.0162280625       11.9546503063
Br           -0.0000000017        2.0167588198        8.4316956880
End final coordinates



     Writing all to output data dir ./tmp/ZrClBr.save/

     init_run     :      0.67s CPU      0.70s WALL (       1 calls)
     electrons    :     90.89s CPU     92.80s WALL (       8 calls)
     update_pot   :      0.86s CPU      0.93s WALL (       7 calls)
     forces       :      1.97s CPU      1.98s WALL (       8 calls)

     Called by init_run:
     wfcinit      :      0.49s CPU      0.51s WALL (       1 calls)
     potinit      :      0.07s CPU      0.08s WALL (       1 calls)
     hinit0       :      0.07s CPU      0.08s WALL (       1 calls)

     Called by electrons:
     c_bands      :     76.94s CPU     78.15s WALL (      56 calls)
     sum_band     :     11.33s CPU     11.54s WALL (      56 calls)
     v_of_rho     :      0.19s CPU      0.19s WALL (      56 calls)
     newd         :      0.53s CPU      0.58s WALL (      56 calls)
     PAW_pot      :      2.57s CPU      3.12s WALL (      63 calls)
     mix_rho      :      0.01s CPU      0.02s WALL (      56 calls)

     Called by c_bands:
     init_us_2    :      0.62s CPU      0.63s WALL (    9344 calls)
     init_us_2:cp :      0.61s CPU      0.62s WALL (    9344 calls)
     cegterg      :     75.36s CPU     76.54s WALL (    4088 calls)

     Called by *egterg:
     cdiaghg      :     10.53s CPU     10.62s WALL (   12841 calls)
     h_psi        :     45.31s CPU     46.30s WALL (   14009 calls)
     s_psi        :      2.88s CPU      2.91s WALL (   14009 calls)
     g_psi        :      0.11s CPU      0.11s WALL (    9848 calls)

     Called by h_psi:
     h_psi:calbec :      4.83s CPU      4.93s WALL (   14009 calls)
     vloc_psi     :     37.51s CPU     38.36s WALL (   14009 calls)
     add_vuspsi   :      2.87s CPU      2.91s WALL (   14009 calls)

     General routines
     calbec       :      8.39s CPU      8.53s WALL (   20944 calls)
     fft          :      0.09s CPU      0.10s WALL (     719 calls)
     ffts         :      0.01s CPU      0.01s WALL (      56 calls)
     fftw         :     42.92s CPU     43.85s WALL (  598754 calls)

     Parallel routines

     PWSCF        :   1m35.77s CPU   1m38.10s WALL


   This run was terminated on:   8:33:57  18Sep2026            

=------------------------------------------------------------------------------=
   JOB DONE.
=------------------------------------------------------------------------------=
Note: The following floating-point exceptions are signalling: IEEE_INVALID_FLAG
