
     Program PWSCF v.7.2 starts on  7Aug2026 at 16:48: 9 

     This program is part of the open-source Quantum ESPRESSO suite
     for quantum simulation of materials; please cite
         "P. Giannozzi et al., J. Phys.:Condens. Matter 21 395502 (2009);
         "P. Giannozzi et al., J. Phys.:Condens. Matter 29 465901 (2017);
         "P. Giannozzi et al., J. Chem. Phys. 152 154105 (2020);
          URL http://www.quantum-espresso.org", 
     in publications or presentations arising from this work. More details at
     http://www.quantum-espresso.org/quote

     Parallel version (MPI), running on    32 processors

     MPI processes distributed on     1 nodes
     223874 MiB available memory on the printing compute node when the environment starts

     Waiting for input...
     Reading input from standard input

     Current dimensions of program PWSCF are:
     Max number of different atomic species (ntypx) = 10
     Max number of k-points (npk) =  40000
     Max angular momentum in pseudopotentials (lmaxx) =  4
     file Zr.pbe-spn-kjpaw_psl.1.0.0.UPF: wavefunction(s)  4S 4P renormalized
     file F.pbe-n-kjpaw_psl.1.0.0.UPF: wavefunction(s)  2S 2P renormalized
     file Cl.pbe-n-kjpaw_psl.1.0.0.UPF: wavefunction(s)  3S 3P renormalized
     Message from routine setup:
     using ibrav=0 with symmetry is DISCOURAGED, use correct ibrav instead

     R & G space division:  proc/nbgrp/npool/nimage =      32
     Subspace diagonalization in iterative solution of the eigenvalue problem:
     a serial algorithm will be used


     Parallelization info
     --------------------
     sticks:   dense  smooth     PW     G-vecs:    dense   smooth      PW
     Min          19      19      5                 2293     2293     353
     Max          21      21      6                 2305     2305     382
     Sum         637     637    187                73555    73555   11801

     Using Slab Decomposition



     bravais-lattice index     =            0
     lattice parameter (alat)  =       6.1584  a.u.
     unit-cell volume          =    1170.4279 (a.u.)^3
     number of atoms/cell      =            3
     number of atomic types    =            3
     number of electrons       =        26.00
     number of Kohn-Sham states=           26
     kinetic-energy cutoff     =      60.0000  Ry
     charge density cutoff     =     240.0000  Ry
     scf convergence threshold =      1.0E-06
     mixing beta               =       0.7000
     number of iterations used =            8  plain     mixing
     Exchange-correlation= SLA  PW   PBX  PBC
                           (   1   4   3   4   0   0   0)

     celldm(1)=   6.158375  celldm(2)=   0.000000  celldm(3)=   0.000000
     celldm(4)=   0.000000  celldm(5)=   0.000000  celldm(6)=   0.000000

     crystal axes: (cart. coord. in units of alat)
               a(1) = (   1.000000  -0.000000   0.000000 )  
               a(2) = (  -0.500000   0.866025  -0.000000 )  
               a(3) = (  -0.000000  -0.000000   5.786497 )  

     reciprocal axes: (cart. coord. in units 2 pi/alat)
               b(1) = (  1.000000  0.577350  0.000000 )  
               b(2) = (  0.000000  1.154701  0.000000 )  
               b(3) = (  0.000000  0.000000  0.172816 )  


     PseudoPot. # 1 for Zr read from file:
     /mgpfs/home/rabdillah/repo/qe/pseudo/Zr.pbe-spn-kjpaw_psl.1.0.0.UPF
     MD5 check sum: 02112c41713a0468aff2bb39ef194e36
     Pseudo is Projector augmented-wave + core cor, Zval = 12.0
     Generated using &quot;atomic&quot; code by A. Dal Corso  v.6.2.2
     Shape of augmentation charge: PSQ
     Using radial grid of 1225 points,  6 beta functions with: 
                l(1) =   0
                l(2) =   0
                l(3) =   1
                l(4) =   1
                l(5) =   2
                l(6) =   2
     Q(r) pseudized with 0 coefficients 


     PseudoPot. # 2 for F  read from file:
     /mgpfs/home/rabdillah/repo/qe/pseudo/F.pbe-n-kjpaw_psl.1.0.0.UPF
     MD5 check sum: 66d718ea72839a4268ab2a9540e8cdd4
     Pseudo is Projector augmented-wave + core cor, Zval =  7.0
     Generated using &quot;atomic&quot; code by A. Dal Corso  v.6.3
     Shape of augmentation charge: PSQ
     Using radial grid of 1105 points,  4 beta functions with: 
                l(1) =   0
                l(2) =   0
                l(3) =   1
                l(4) =   1
     Q(r) pseudized with 0 coefficients 


     PseudoPot. # 3 for Cl read from file:
     /mgpfs/home/rabdillah/repo/qe/pseudo/Cl.pbe-n-kjpaw_psl.1.0.0.UPF
     MD5 check sum: 530da96d25dcb7781b0586ca00827062
     Pseudo is Projector augmented-wave + core cor, Zval =  7.0
     Generated using &quot;atomic&quot; code by A. Dal Corso  v.6.3
     Shape of augmentation charge: PSQ
     Using radial grid of 1157 points,  6 beta functions with: 
                l(1) =   0
                l(2) =   0
                l(3) =   1
                l(4) =   1
                l(5) =   2
                l(6) =   2
     Q(r) pseudized with 0 coefficients 


     atomic species   valence    mass     pseudopotential
        Zr            12.00    91.22400     Zr( 1.00)
        F              7.00    18.99800     F ( 1.00)
        Cl             7.00    35.45300     Cl( 1.00)

      6 Sym. Ops. (no inversion) found



   Cartesian axes

     site n.     atom                  positions (alat units)
         1           Zr  tau(   1) = (   0.0000000   0.0000000   2.9367110  )
         2           F   tau(   2) = (  -0.0000000   0.5773503   3.3457383  )
         3           Cl  tau(   3) = (  -0.0000000   0.5773503   2.3972960  )

     number of k points=   102

     Number of k-points >= 100: set verbosity='high' to print them.

     Dense  grid:    73555 G-vectors     FFT dimensions: (  32,  32, 180)

     Estimated max dynamical RAM per process >      23.72 MB

     Estimated total dynamical RAM >     758.96 MB

     Check: negative core charge=   -0.000003

     Initial potential from superposition of free atoms

     starting charge      25.9978, renormalised to      26.0000

     negative rho (up, down):  1.319E-03 0.000E+00
     Starting wfcs are   21 randomized atomic wfcs +    5 random wfcs
     Checking if some PAW data can be deallocated... 

     total cpu time spent up to now is        1.4 secs

     Self-consistent Calculation

     iteration #  1     ecut=    60.00 Ry     beta= 0.70
     Davidson diagonalization with overlap
     ethr =  1.00E-02,  avg # of iterations =  8.0

     Threshold (ethr) on eigenvalues was too large:
     Diagonalizing with lowered threshold

     Davidson diagonalization with overlap
     ethr =  8.18E-04,  avg # of iterations =  1.1

     negative rho (up, down):  1.518E-03 0.000E+00

     total cpu time spent up to now is        8.6 secs

     total energy              =    -446.15054564 Ry
     estimated scf accuracy    <       0.21462961 Ry

     iteration #  2     ecut=    60.00 Ry     beta= 0.70
     Davidson diagonalization with overlap
     ethr =  8.25E-04,  avg # of iterations =  4.8

     negative rho (up, down):  1.395E-03 0.000E+00

     total cpu time spent up to now is       12.2 secs

     total energy              =    -446.12915725 Ry
     estimated scf accuracy    <       0.49046237 Ry

     iteration #  3     ecut=    60.00 Ry     beta= 0.70
     Davidson diagonalization with overlap
     ethr =  8.25E-04,  avg # of iterations =  4.0

     negative rho (up, down):  1.417E-03 0.000E+00

     total cpu time spent up to now is       15.6 secs

     total energy              =    -446.23438611 Ry
     estimated scf accuracy    <       0.04927803 Ry

     iteration #  4     ecut=    60.00 Ry     beta= 0.70
     Davidson diagonalization with overlap
     ethr =  1.90E-04,  avg # of iterations =  3.0

     negative rho (up, down):  1.461E-03 0.000E+00

     total cpu time spent up to now is       18.3 secs

     total energy              =    -446.24270231 Ry
     estimated scf accuracy    <       0.00513644 Ry

     iteration #  5     ecut=    60.00 Ry     beta= 0.70
     Davidson diagonalization with overlap
     ethr =  1.98E-05,  avg # of iterations =  4.9

     negative rho (up, down):  1.502E-03 0.000E+00

     total cpu time spent up to now is       21.8 secs

     total energy              =    -446.24388116 Ry
     estimated scf accuracy    <       0.00115500 Ry

     iteration #  6     ecut=    60.00 Ry     beta= 0.70
     Davidson diagonalization with overlap
     ethr =  4.44E-06,  avg # of iterations =  4.8

     negative rho (up, down):  1.514E-03 0.000E+00

     total cpu time spent up to now is       24.7 secs

     total energy              =    -446.24408918 Ry
     estimated scf accuracy    <       0.00001192 Ry

     iteration #  7     ecut=    60.00 Ry     beta= 0.70
     Davidson diagonalization with overlap
     ethr =  4.58E-08,  avg # of iterations =  3.0

     negative rho (up, down):  1.515E-03 0.000E+00

     total cpu time spent up to now is       27.5 secs

     End of self-consistent calculation

     Number of k-points >= 100: set verbosity='high' to print the bands.

     highest occupied, lowest unoccupied level (ev):     0.2035    1.4942

!    total energy              =    -446.24409294 Ry
     total all-electron energy =     -8320.714373 Ry
     estimated scf accuracy    <       0.00000072 Ry

     The total energy is the sum of the following terms:
     one-electron contribution =    -958.56920220 Ry
     hartree contribution      =     483.79906139 Ry
     xc contribution           =     -38.51441791 Ry
     ewald contribution        =     333.66597840 Ry
     one-center paw contrib.   =    -266.62551262 Ry

     convergence has been achieved in   7 iterations

     Writing all to output data dir ./out/ZrFCl.save/

     init_run     :      1.02s CPU      1.06s WALL (       1 calls)
     electrons    :     25.74s CPU     26.15s WALL (       1 calls)

     Called by init_run:
     wfcinit      :      0.80s CPU      0.82s WALL (       1 calls)
     potinit      :      0.09s CPU      0.10s WALL (       1 calls)
     hinit0       :      0.09s CPU      0.10s WALL (       1 calls)

     Called by electrons:
     c_bands      :     22.69s CPU     23.02s WALL (       8 calls)
     sum_band     :      2.62s CPU      2.67s WALL (       8 calls)
     v_of_rho     :      0.03s CPU      0.03s WALL (       8 calls)
     newd         :      0.11s CPU      0.12s WALL (       8 calls)
     PAW_pot      :      0.34s CPU      0.37s WALL (       8 calls)
     mix_rho      :      0.00s CPU      0.00s WALL (       8 calls)

     Called by c_bands:
     init_us_2    :      0.17s CPU      0.17s WALL (    1734 calls)
     init_us_2:cp :      0.17s CPU      0.17s WALL (    1734 calls)
     cegterg      :     22.21s CPU     22.53s WALL (     816 calls)

     Called by *egterg:
     cdiaghg      :      3.57s CPU      3.59s WALL (    4135 calls)
     h_psi        :     12.54s CPU     12.81s WALL (    4339 calls)
     s_psi        :      0.95s CPU      0.96s WALL (    4339 calls)
     g_psi        :      0.04s CPU      0.04s WALL (    3421 calls)

     Called by h_psi:
     h_psi:calbec :      1.69s CPU      1.72s WALL (    4339 calls)
     vloc_psi     :      9.86s CPU     10.09s WALL (    4339 calls)
     add_vuspsi   :      0.95s CPU      0.96s WALL (    4339 calls)

     General routines
     calbec       :      2.28s CPU      2.32s WALL (    5155 calls)
     fft          :      0.02s CPU      0.02s WALL (      89 calls)
     ffts         :      0.00s CPU      0.00s WALL (       8 calls)
     fftw         :     10.86s CPU     11.12s WALL (  137556 calls)

     Parallel routines

     PWSCF        :     27.53s CPU     28.31s WALL


   This run was terminated on:  16:48:37   7Aug2026            

=------------------------------------------------------------------------------=
   JOB DONE.
=------------------------------------------------------------------------------=
