
     Program PWSCF v.7.2 starts on  7Aug2026 at 16:48:39 

     This program is part of the open-source Quantum ESPRESSO suite
     for quantum simulation of materials; please cite
         "P. Giannozzi et al., J. Phys.:Condens. Matter 21 395502 (2009);
         "P. Giannozzi et al., J. Phys.:Condens. Matter 29 465901 (2017);
         "P. Giannozzi et al., J. Chem. Phys. 152 154105 (2020);
          URL http://www.quantum-espresso.org", 
     in publications or presentations arising from this work. More details at
     http://www.quantum-espresso.org/quote

     Parallel version (MPI), running on    32 processors

     MPI processes distributed on     1 nodes
     227768 MiB available memory on the printing compute node when the environment starts

     Waiting for input...
     Reading input from standard input

     Current dimensions of program PWSCF are:
     Max number of different atomic species (ntypx) = 10
     Max number of k-points (npk) =  40000
     Max angular momentum in pseudopotentials (lmaxx) =  4

     Atomic positions and unit cell read from directory:
     ./out/ZrFCl.save/
     Atomic positions from file used, from input discarded

     file Zr.pbe-spn-kjpaw_psl.1.0.0.UPF: wavefunction(s)  4S 4P renormalized
     file F.pbe-n-kjpaw_psl.1.0.0.UPF: wavefunction(s)  2S 2P renormalized
     file Cl.pbe-n-kjpaw_psl.1.0.0.UPF: wavefunction(s)  3S 3P renormalized
     Message from routine setup:
     using ibrav=0 with symmetry is DISCOURAGED, use correct ibrav instead

     R & G space division:  proc/nbgrp/npool/nimage =      32
     Subspace diagonalization in iterative solution of the eigenvalue problem:
     a serial algorithm will be used


     Parallelization info
     --------------------
     sticks:   dense  smooth     PW     G-vecs:    dense   smooth      PW
     Min          19      19      5                 2293     2293     353
     Max          21      21      6                 2305     2305     386
     Sum         637     637    187                73555    73555   11837

     Using Slab Decomposition



     bravais-lattice index     =            0
     lattice parameter (alat)  =       6.1584  a.u.
     unit-cell volume          =    1170.4279 (a.u.)^3
     number of atoms/cell      =            3
     number of atomic types    =            3
     number of electrons       =        26.00
     number of Kohn-Sham states=           26
     kinetic-energy cutoff     =      60.0000  Ry
     charge density cutoff     =     240.0000  Ry
     Exchange-correlation= SLA  PW   PBX  PBC
                           (   1   4   3   4   0   0   0)

     celldm(1)=   6.158375  celldm(2)=   0.000000  celldm(3)=   0.000000
     celldm(4)=   0.000000  celldm(5)=   0.000000  celldm(6)=   0.000000

     crystal axes: (cart. coord. in units of alat)
               a(1) = (   1.000000  -0.000000   0.000000 )  
               a(2) = (  -0.500000   0.866025  -0.000000 )  
               a(3) = (  -0.000000  -0.000000   5.786497 )  

     reciprocal axes: (cart. coord. in units 2 pi/alat)
               b(1) = (  1.000000  0.577350  0.000000 )  
               b(2) = (  0.000000  1.154701  0.000000 )  
               b(3) = (  0.000000  0.000000  0.172816 )  


     PseudoPot. # 1 for Zr read from file:
     /mgpfs/home/rabdillah/repo/qe/pseudo/Zr.pbe-spn-kjpaw_psl.1.0.0.UPF
     MD5 check sum: 02112c41713a0468aff2bb39ef194e36
     Pseudo is Projector augmented-wave + core cor, Zval = 12.0
     Generated using &quot;atomic&quot; code by A. Dal Corso  v.6.2.2
     Shape of augmentation charge: PSQ
     Using radial grid of 1225 points,  6 beta functions with: 
                l(1) =   0
                l(2) =   0
                l(3) =   1
                l(4) =   1
                l(5) =   2
                l(6) =   2
     Q(r) pseudized with 0 coefficients 


     PseudoPot. # 2 for F  read from file:
     /mgpfs/home/rabdillah/repo/qe/pseudo/F.pbe-n-kjpaw_psl.1.0.0.UPF
     MD5 check sum: 66d718ea72839a4268ab2a9540e8cdd4
     Pseudo is Projector augmented-wave + core cor, Zval =  7.0
     Generated using &quot;atomic&quot; code by A. Dal Corso  v.6.3
     Shape of augmentation charge: PSQ
     Using radial grid of 1105 points,  4 beta functions with: 
                l(1) =   0
                l(2) =   0
                l(3) =   1
                l(4) =   1
     Q(r) pseudized with 0 coefficients 


     PseudoPot. # 3 for Cl read from file:
     /mgpfs/home/rabdillah/repo/qe/pseudo/Cl.pbe-n-kjpaw_psl.1.0.0.UPF
     MD5 check sum: 530da96d25dcb7781b0586ca00827062
     Pseudo is Projector augmented-wave + core cor, Zval =  7.0
     Generated using &quot;atomic&quot; code by A. Dal Corso  v.6.3
     Shape of augmentation charge: PSQ
     Using radial grid of 1157 points,  6 beta functions with: 
                l(1) =   0
                l(2) =   0
                l(3) =   1
                l(4) =   1
                l(5) =   2
                l(6) =   2
     Q(r) pseudized with 0 coefficients 


     atomic species   valence    mass     pseudopotential
        Zr            12.00    91.22400     Zr( 1.00)
        F              7.00    18.99800     F ( 1.00)
        Cl             7.00    35.45300     Cl( 1.00)

      6 Sym. Ops. (no inversion) found



   Cartesian axes

     site n.     atom                  positions (alat units)
         1           Zr  tau(   1) = (   0.0000000   0.0000000   2.9367110  )
         2           F   tau(   2) = (  -0.0000000   0.5773503   3.3457383  )
         3           Cl  tau(   3) = (  -0.0000000   0.5773503   2.3972960  )

     number of k points=    91
                       cart. coord. in units 2pi/alat
        k(    1) = (   0.0000000   0.0000000   0.0000000), wk =   0.0219780
        k(    2) = (   0.0166667   0.0096225   0.0000000), wk =   0.0219780
        k(    3) = (   0.0333333   0.0192450   0.0000000), wk =   0.0219780
        k(    4) = (   0.0500000   0.0288675   0.0000000), wk =   0.0219780
        k(    5) = (   0.0666667   0.0384900   0.0000000), wk =   0.0219780
        k(    6) = (   0.0833333   0.0481125   0.0000000), wk =   0.0219780
        k(    7) = (   0.1000000   0.0577350   0.0000000), wk =   0.0219780
        k(    8) = (   0.1166667   0.0673575   0.0000000), wk =   0.0219780
        k(    9) = (   0.1333333   0.0769800   0.0000000), wk =   0.0219780
        k(   10) = (   0.1500000   0.0866025   0.0000000), wk =   0.0219780
        k(   11) = (   0.1666667   0.0962250   0.0000000), wk =   0.0219780
        k(   12) = (   0.1833333   0.1058475   0.0000000), wk =   0.0219780
        k(   13) = (   0.2000000   0.1154701   0.0000000), wk =   0.0219780
        k(   14) = (   0.2166667   0.1250926   0.0000000), wk =   0.0219780
        k(   15) = (   0.2333333   0.1347151   0.0000000), wk =   0.0219780
        k(   16) = (   0.2500000   0.1443376   0.0000000), wk =   0.0219780
        k(   17) = (   0.2666667   0.1539601   0.0000000), wk =   0.0219780
        k(   18) = (   0.2833333   0.1635826   0.0000000), wk =   0.0219780
        k(   19) = (   0.3000000   0.1732051   0.0000000), wk =   0.0219780
        k(   20) = (   0.3166667   0.1828276   0.0000000), wk =   0.0219780
        k(   21) = (   0.3333333   0.1924501   0.0000000), wk =   0.0219780
        k(   22) = (   0.3500000   0.2020726   0.0000000), wk =   0.0219780
        k(   23) = (   0.3666667   0.2116951   0.0000000), wk =   0.0219780
        k(   24) = (   0.3833333   0.2213176   0.0000000), wk =   0.0219780
        k(   25) = (   0.4000000   0.2309401   0.0000000), wk =   0.0219780
        k(   26) = (   0.4166667   0.2405626   0.0000000), wk =   0.0219780
        k(   27) = (   0.4333333   0.2501851   0.0000000), wk =   0.0219780
        k(   28) = (   0.4500000   0.2598076   0.0000000), wk =   0.0219780
        k(   29) = (   0.4666667   0.2694301   0.0000000), wk =   0.0219780
        k(   30) = (   0.4833333   0.2790526   0.0000000), wk =   0.0219780
        k(   31) = (   0.5000000   0.2886751   0.0000000), wk =   0.0219780
        k(   32) = (   0.4944444   0.2982976   0.0000000), wk =   0.0219780
        k(   33) = (   0.4888889   0.3079201   0.0000000), wk =   0.0219780
        k(   34) = (   0.4833333   0.3175426   0.0000000), wk =   0.0219780
        k(   35) = (   0.4777778   0.3271652   0.0000000), wk =   0.0219780
        k(   36) = (   0.4722222   0.3367877   0.0000000), wk =   0.0219780
        k(   37) = (   0.4666667   0.3464102   0.0000000), wk =   0.0219780
        k(   38) = (   0.4611111   0.3560327   0.0000000), wk =   0.0219780
        k(   39) = (   0.4555556   0.3656552   0.0000000), wk =   0.0219780
        k(   40) = (   0.4500000   0.3752777   0.0000000), wk =   0.0219780
        k(   41) = (   0.4444444   0.3849002   0.0000000), wk =   0.0219780
        k(   42) = (   0.4388889   0.3945227   0.0000000), wk =   0.0219780
        k(   43) = (   0.4333333   0.4041452   0.0000000), wk =   0.0219780
        k(   44) = (   0.4277778   0.4137677   0.0000000), wk =   0.0219780
        k(   45) = (   0.4222222   0.4233902   0.0000000), wk =   0.0219780
        k(   46) = (   0.4166667   0.4330127   0.0000000), wk =   0.0219780
        k(   47) = (   0.4111111   0.4426352   0.0000000), wk =   0.0219780
        k(   48) = (   0.4055556   0.4522577   0.0000000), wk =   0.0219780
        k(   49) = (   0.4000000   0.4618802   0.0000000), wk =   0.0219780
        k(   50) = (   0.3944444   0.4715027   0.0000000), wk =   0.0219780
        k(   51) = (   0.3888889   0.4811252   0.0000000), wk =   0.0219780
        k(   52) = (   0.3833333   0.4907477   0.0000000), wk =   0.0219780
        k(   53) = (   0.3777778   0.5003702   0.0000000), wk =   0.0219780
        k(   54) = (   0.3722222   0.5099927   0.0000000), wk =   0.0219780
        k(   55) = (   0.3666667   0.5196152   0.0000000), wk =   0.0219780
        k(   56) = (   0.3611111   0.5292377   0.0000000), wk =   0.0219780
        k(   57) = (   0.3555556   0.5388603   0.0000000), wk =   0.0219780
        k(   58) = (   0.3500000   0.5484828   0.0000000), wk =   0.0219780
        k(   59) = (   0.3444444   0.5581053   0.0000000), wk =   0.0219780
        k(   60) = (   0.3388889   0.5677278   0.0000000), wk =   0.0219780
        k(   61) = (   0.3333333   0.5773503   0.0000000), wk =   0.0219780
        k(   62) = (   0.3222222   0.5581053   0.0000000), wk =   0.0219780
        k(   63) = (   0.3111111   0.5388603   0.0000000), wk =   0.0219780
        k(   64) = (   0.3000000   0.5196152   0.0000000), wk =   0.0219780
        k(   65) = (   0.2888889   0.5003702   0.0000000), wk =   0.0219780
        k(   66) = (   0.2777778   0.4811252   0.0000000), wk =   0.0219780
        k(   67) = (   0.2666667   0.4618802   0.0000000), wk =   0.0219780
        k(   68) = (   0.2555556   0.4426352   0.0000000), wk =   0.0219780
        k(   69) = (   0.2444444   0.4233902   0.0000000), wk =   0.0219780
        k(   70) = (   0.2333333   0.4041452   0.0000000), wk =   0.0219780
        k(   71) = (   0.2222222   0.3849002   0.0000000), wk =   0.0219780
        k(   72) = (   0.2111111   0.3656552   0.0000000), wk =   0.0219780
        k(   73) = (   0.2000000   0.3464102   0.0000000), wk =   0.0219780
        k(   74) = (   0.1888889   0.3271652   0.0000000), wk =   0.0219780
        k(   75) = (   0.1777778   0.3079201   0.0000000), wk =   0.0219780
        k(   76) = (   0.1666667   0.2886751   0.0000000), wk =   0.0219780
        k(   77) = (   0.1555556   0.2694301   0.0000000), wk =   0.0219780
        k(   78) = (   0.1444444   0.2501851   0.0000000), wk =   0.0219780
        k(   79) = (   0.1333333   0.2309401   0.0000000), wk =   0.0219780
        k(   80) = (   0.1222222   0.2116951   0.0000000), wk =   0.0219780
        k(   81) = (   0.1111111   0.1924501   0.0000000), wk =   0.0219780
        k(   82) = (   0.1000000   0.1732051   0.0000000), wk =   0.0219780
        k(   83) = (   0.0888889   0.1539601   0.0000000), wk =   0.0219780
        k(   84) = (   0.0777778   0.1347151   0.0000000), wk =   0.0219780
        k(   85) = (   0.0666667   0.1154701   0.0000000), wk =   0.0219780
        k(   86) = (   0.0555556   0.0962250   0.0000000), wk =   0.0219780
        k(   87) = (   0.0444444   0.0769800   0.0000000), wk =   0.0219780
        k(   88) = (   0.0333333   0.0577350   0.0000000), wk =   0.0219780
        k(   89) = (   0.0222222   0.0384900   0.0000000), wk =   0.0219780
        k(   90) = (   0.0111111   0.0192450   0.0000000), wk =   0.0219780
        k(   91) = (   0.0000000   0.0000000   0.0000000), wk =   0.0219780

     Dense  grid:    73555 G-vectors     FFT dimensions: (  32,  32, 180)

     Estimated max dynamical RAM per process >      11.46 MB

     Estimated total dynamical RAM >     366.76 MB

     Check: negative core charge=   -0.000003

     The potential is recalculated from file :
     ./out/ZrFCl.save/charge-density


     negative rho (up, down):  1.515E-03 0.000E+00
     Starting wfcs are   21 randomized atomic wfcs +    5 random wfcs
     Checking if some PAW data can be deallocated... 

     Band Structure Calculation
     Davidson diagonalization with overlap

     ethr =  3.85E-09,  avg # of iterations = 33.8

     total cpu time spent up to now is       19.2 secs

     End of band structure calculation

          k = 0.0000 0.0000 0.0000 (  9213 PWs)   bands (ev):

   -49.4630 -28.0298 -27.1179 -27.1179 -24.8730 -17.4035  -7.4982  -6.6510
    -6.6510  -5.5355  -3.8244  -3.8244  -0.3563   1.6435   1.6435   2.0100
     2.8455   2.8455   3.6041   3.7780   4.6419   5.1570   6.4474   7.2096
     8.9389  10.5517

          k = 0.0167 0.0096 0.0000 (  9207 PWs)   bands (ev):

   -49.4628 -28.0289 -27.1208 -27.1183 -24.8722 -17.4018  -7.4954  -6.6542
    -6.6510  -5.5345  -3.8361  -3.8265  -0.3556   1.6401   1.6476   2.0172
     2.8415   2.8490   3.6117   3.7854   4.6492   5.1673   6.4570   7.2170
     8.9430  10.5570

          k = 0.0333 0.0192 0.0000 (  9219 PWs)   bands (ev):

   -49.4621 -28.0266 -27.1296 -27.1196 -24.8699 -17.3968  -7.4872  -6.6638
    -6.6511  -5.5316  -3.8707  -3.8329  -0.3535   1.6303   1.6600   2.0375
     2.8312   2.8594   3.6339   3.8073   4.6712   5.1975   6.4857   7.2392
     8.9550  10.5718

          k = 0.0500 0.0289 0.0000 (  9197 PWs)   bands (ev):

   -49.4610 -28.0226 -27.1440 -27.1218 -24.8660 -17.3885  -7.4737  -6.6792
    -6.6512  -5.5271  -3.9270  -3.8433  -0.3505   1.6152   1.6807   2.0679
     2.8203   2.8765   3.6693   3.8426   4.7073   5.2461   6.5334   7.2759
     8.9748  10.5433

          k = 0.0667 0.0385 0.0000 (  9203 PWs)   bands (ev):

   -49.4594 -28.0171 -27.1637 -27.1249 -24.8609 -17.3771  -7.4553  -6.7001
    -6.6515  -5.5216  -4.0030  -3.8576  -0.3473   1.5968   1.7098   2.1032
     2.8164   2.8997   3.7163   3.8902   4.7569   5.3111   6.5996   7.3270
     9.0018  10.4262

          k = 0.0833 0.0481 0.0000 (  9215 PWs)   bands (ev):

   -49.4575 -28.0102 -27.1885 -27.1288 -24.8547 -17.3624  -7.4324  -6.7255
    -6.6519  -5.5157  -4.0965  -3.8756  -0.3450   1.5773   1.7475   2.1370
     2.8277   2.9287   3.7741   3.9487   4.8195   5.3898   6.6834   7.3923
     9.0351  10.2941

          k = 0.1000 0.0577 0.0000 (  9223 PWs)   bands (ev):

   -49.4551 -28.0019 -27.2177 -27.1334 -24.8477 -17.3448  -7.4055  -6.7548
    -6.6525  -5.5101  -4.2044  -3.8968  -0.3446   1.5593   1.7939   2.1634
     2.8613   2.9628   3.8421   4.0174   4.8943   5.4797   6.7831   7.4713
     9.0731  10.1563

          k = 0.1167 0.0674 0.0000 (  9223 PWs)   bands (ev):

   -49.4524 -27.9925 -27.2508 -27.1387 -24.8401 -17.3242  -7.3755  -6.7869
    -6.6535  -5.5059  -4.3238  -3.9211  -0.3471   1.5457   1.8491   2.1799
     2.9200   3.0012   3.9198   4.0954   4.9805   5.5786   6.8966   7.5632
     9.1130  10.0218

          k = 0.1333 0.0770 0.0000 (  9213 PWs)   bands (ev):

   -49.4493 -27.9820 -27.2872 -27.1447 -24.8323 -17.3010  -7.3431  -6.8208
    -6.6548  -5.5039  -4.4515  -3.9478  -0.3536   1.5388   1.9132   2.1878
     3.0024   3.0433   4.0072   4.1827   5.0772   5.6848   7.0205   7.6669
     9.1499   9.9007

          k = 0.1500 0.0866 0.0000 (  9219 PWs)   bands (ev):

   -49.4460 -27.9706 -27.3262 -27.1513 -24.8244 -17.2752  -7.3097  -6.8556
    -6.6565  -5.5055  -4.5840  -3.9767  -0.3649   1.5410   1.9862   2.1909
     3.0883   3.1038   4.1040   4.2789   5.1836   5.7971   7.1508   7.7801
     9.1761   9.8060

          k = 0.1667 0.0962 0.0000 (  9217 PWs)   bands (ev):

   -49.4423 -27.9586 -27.3672 -27.1584 -24.8167 -17.2472  -7.2767  -6.8897
    -6.6588  -5.5127  -4.7173  -4.0073  -0.3814   1.5536   2.0679   2.1938
     3.1354   3.2196   4.2098   4.3843   5.2986   5.9148   7.2825   7.8988
     9.1841   9.7505

          k = 0.1833 0.1058 0.0000 (  9219 PWs)   bands (ev):

   -49.4384 -27.9464 -27.4093 -27.1659 -24.8094 -17.2170  -7.2461  -6.9214
    -6.6616  -5.5282  -4.8465  -4.0391  -0.4029   1.5776   2.1583   2.1997
     3.1841   3.3456   4.3245   4.4986   5.4210   6.0376   7.4097   8.0168
     9.1770   9.7359

          k = 0.2000 0.1155 0.0000 (  9227 PWs)   bands (ev):

   -49.4344 -27.9342 -27.4518 -27.1738 -24.8028 -17.1851  -7.2209  -6.9481
    -6.6650  -5.5565  -4.9652  -4.0717  -0.4291   1.6129   2.2114   2.2569
     3.2338   3.4791   4.4478   4.6219   5.5492   6.1650   7.5255   8.1252
     9.1742   9.7447

          k = 0.2167 0.1251 0.0000 (  9231 PWs)   bands (ev):

   -49.4302 -27.9227 -27.4936 -27.1819 -24.7968 -17.1517  -7.2052  -6.9662
    -6.6689  -5.6031  -5.0661  -4.1047  -0.4589   1.6587   2.2306   2.3632
     3.2840   3.6180   4.5794   4.7541   5.6816   6.2970   7.6219   8.2164
     9.1991   9.7524

          k = 0.2333 0.1347 0.0000 (  9205 PWs)   bands (ev):

   -49.4259 -27.9126 -27.5338 -27.1902 -24.7917 -17.1171  -7.2025  -6.9722
    -6.6734  -5.6723  -5.1432  -4.1376  -0.4913   1.7135   2.2586   2.4764
     3.3345   3.7612   4.7191   4.8950   5.8161   6.4329   7.6913   8.2900
     9.2612   9.7541

          k = 0.2500 0.1443 0.0000 (  9213 PWs)   bands (ev):

   -49.4215 -27.9049 -27.5709 -27.1986 -24.7875 -17.0817  -7.2133  -6.9666
    -6.6784  -5.7629  -5.1959  -4.1702  -0.5250   1.7752   2.2963   2.5954
     3.3853   3.9076   4.8667   5.0441   5.9502   6.5721   7.7313   8.3534
     9.3489   9.7715

          k = 0.2667 0.1540 0.0000 (  9233 PWs)   bands (ev):

   -49.4171 -27.9008 -27.6034 -27.2069 -24.7841 -17.0458  -7.2341  -6.9530
    -6.6839  -5.8683  -5.2293  -4.2021  -0.5588   1.8415   2.3442   2.7186
     3.4365   4.0570   5.0220   5.2012   6.0811   6.7136   7.7489   8.4116
     9.4385   9.8319

          k = 0.2833 0.1636 0.0000 (  9233 PWs)   bands (ev):

   -49.4128 -27.9019 -27.6296 -27.2152 -24.7817 -17.0098  -7.2604  -6.9363
    -6.6898  -5.9807  -5.2498  -4.2329  -0.5916   1.9100   2.4021   2.8440
     3.4891   4.2089   5.1845   5.3656   6.2055   6.8561   7.7591   8.4636
     9.5176   9.9438

          k = 0.3000 0.1732 0.0000 (  9225 PWs)   bands (ev):

   -49.4086 -27.9090 -27.6482 -27.2232 -24.7800 -16.9742  -7.2895  -6.9196
    -6.6960  -6.0938  -5.2621  -4.2624  -0.6225   1.9786   2.4691   2.9687
     3.5443   4.3631   5.3537   5.5366   6.3205   6.9981   7.7775   8.5070
     9.5950  10.0904

          k = 0.3167 0.1828 0.0000 (  9219 PWs)   bands (ev):

   -49.4045 -27.9225 -27.6590 -27.2309 -24.7792 -16.9393  -7.3195  -6.9052
    -6.7024  -6.2033  -5.2693  -4.2904  -0.6508   2.0460   2.5432   3.0886
     3.6046   4.5194   5.5284   5.7131   6.4246   7.1378   7.8160   8.5426
     9.6800  10.2496

          k = 0.3333 0.1925 0.0000 (  9205 PWs)   bands (ev):

   -49.4006 -27.9410 -27.6629 -27.2383 -24.7790 -16.9056  -7.3494  -6.8943
    -6.7088  -6.3057  -5.2732  -4.3165  -0.6760   2.1112   2.6214   3.1986
     3.6731   4.6777   5.7066   5.8937   6.5201   7.2738   7.8805   8.5754
     9.7712  10.4009

          k = 0.3500 0.2021 0.0000 (  9189 PWs)   bands (ev):

   -49.3969 -27.9627 -27.6617 -27.2453 -24.7794 -16.8734  -7.3785  -6.8880
    -6.7151  -6.3987  -5.2750  -4.3407  -0.6979   2.1739   2.7001   3.2937
     3.7529   4.8378   5.8842   6.0768   6.6142   7.4040   7.9706   8.6124
     9.8589  10.4992

          k = 0.3667 0.2117 0.0000 (  9157 PWs)   bands (ev):

   -49.3935 -27.9856 -27.6573 -27.2517 -24.7802 -16.8433  -7.4064  -6.8872
    -6.7212  -6.4799  -5.2754  -4.3627  -0.7164   2.2339   2.7756   3.3707
     3.8446   4.9994   6.0530   6.2616   6.7194   7.5256   8.0813   8.6611
     9.9236  10.4231

          k = 0.3833 0.2213 0.0000 (  9161 PWs)   bands (ev):

   -49.3904 -28.0082 -27.6512 -27.2575 -24.7813 -16.8155  -7.4328  -6.8925
    -6.7270  -6.5476  -5.2749  -4.3824  -0.7317   2.2909   2.8443   3.4302
     3.9448   5.1621   6.2010   6.4501   6.8489   7.6352   8.2053   8.7274
     9.9218  10.2277

          k = 0.4000 0.2309 0.0000 (  9167 PWs)   bands (ev):

   -49.3876 -28.0294 -27.6444 -27.2627 -24.7826 -16.7906  -7.4572  -6.9040
    -6.7323  -6.6007  -5.2739  -4.3997  -0.7440   2.3444   2.9035   3.4752
     4.0477   5.3248   6.3185   6.6462   7.0088   7.7315   8.3336   8.8137
     9.7761  10.0893

          k = 0.4167 0.2406 0.0000 (  9161 PWs)   bands (ev):

   -49.3852 -28.0483 -27.6376 -27.2672 -24.7839 -16.7689  -7.4792  -6.9205
    -6.7370  -6.6396  -5.2727  -4.4145  -0.7536   2.3935   2.9515   3.5090
     4.1469   5.4856   6.4057   6.8502   7.1946   7.8171   8.4538   8.9164
     9.5417   9.9725

          k = 0.4333 0.2502 0.0000 (  9174 PWs)   bands (ev):

   -49.3832 -28.0643 -27.6315 -27.2709 -24.7852 -16.7506  -7.4983  -6.9395
    -6.7411  -6.6663  -5.2716  -4.4268  -0.7608   2.4370   2.9879   3.5342
     4.2365   5.6405   6.4677   7.0575   7.3953   7.9001   8.5466   9.0152
     9.3185   9.8087

          k = 0.4500 0.2598 0.0000 (  9164 PWs)   bands (ev):

   -49.3816 -28.0772 -27.6264 -27.2738 -24.7863 -16.7361  -7.5139  -6.9578
    -6.7443  -6.6838  -5.2705  -4.4363  -0.7660   2.4736   3.0133   3.5525
     4.3117   5.7836   6.5073   7.2607   7.5961   7.9941   8.5815   8.9997
     9.2269   9.6126

          k = 0.4667 0.2694 0.0000 (  9180 PWs)   bands (ev):

   -49.3805 -28.0866 -27.6226 -27.2760 -24.7871 -16.7255  -7.5256  -6.9727
    -6.7466  -6.6945  -5.2697  -4.4432  -0.7694   2.5015   3.0294   3.5649
     4.3684   5.9047   6.5267   7.4466   7.7751   8.1160   8.5270   8.8748
     9.2020   9.4734

          k = 0.4833 0.2791 0.0000 (  9194 PWs)   bands (ev):

   -49.3798 -28.0923 -27.6203 -27.2773 -24.7877 -16.7191  -7.5327  -6.9823
    -6.7481  -6.7003  -5.2691  -4.4473  -0.7714   2.5191   3.0380   3.5721
     4.4036   5.9893   6.5312   7.5894   7.9087   8.2669   8.4132   8.7593
     9.0868   9.4380

          k = 0.5000 0.2887 0.0000 (  9202 PWs)   bands (ev):

   -49.3796 -28.0942 -27.6195 -27.2777 -24.7879 -16.7170  -7.5352  -6.9856
    -6.7486  -6.7021  -5.2690  -4.4487  -0.7720   2.5251   3.0407   3.5745
     4.4156   6.0204   6.5306   7.6460   7.9669   8.3471   8.3640   8.6829
     9.0301   9.4299

          k = 0.4944 0.2983 0.0000 (  9200 PWs)   bands (ev):

   -49.3795 -28.0939 -27.6194 -27.2784 -24.7877 -16.7167  -7.5342  -6.9868
    -6.7522  -6.6970  -5.2692  -4.4521  -0.7696   2.5265   3.0398   3.5731
     4.4091   6.0298   6.5343   7.6479   7.9683   8.3487   8.3656   8.6844
     9.0314   9.4302

          k = 0.4889 0.3079 0.0000 (  9202 PWs)   bands (ev):

   -49.3795 -28.0930 -27.6191 -27.2806 -24.7874 -16.7160  -7.5311  -6.9905
    -6.7602  -6.6849  -5.2698  -4.4623  -0.7624   2.5308   3.0372   3.5689
     4.3902   6.0573   6.5454   7.6536   7.9725   8.3533   8.3705   8.6887
     9.0352   9.4310

          k = 0.4833 0.3175 0.0000 (  9186 PWs)   bands (ev):

   -49.3793 -28.0916 -27.6186 -27.2841 -24.7869 -16.7147  -7.5261  -6.9966
    -6.7688  -6.6693  -5.2709  -4.4791  -0.7505   2.5378   3.0327   3.5622
     4.3604   6.1009   6.5643   7.6631   7.9796   8.3610   8.3787   8.6960
     9.0416   9.4322

          k = 0.4778 0.3272 0.0000 (  9174 PWs)   bands (ev):

   -49.3792 -28.0895 -27.6180 -27.2891 -24.7861 -16.7130  -7.5192  -7.0048
    -6.7767  -6.6520  -5.2725  -4.5022  -0.7340   2.5473   3.0261   3.5532
     4.3217   6.1578   6.5913   7.6764   7.9894   8.3716   8.3902   8.7062
     9.0505   9.4336

          k = 0.4722 0.3368 0.0000 (  9170 PWs)   bands (ev):

   -49.3789 -28.0870 -27.6172 -27.2954 -24.7852 -16.7108  -7.5104  -7.0150
    -6.7834  -6.6336  -5.2745  -4.5314  -0.7130   2.5590   3.0173   3.5425
     4.2765   6.2244   6.6274   7.6933   8.0022   8.3849   8.4053   8.7192
     9.0618   9.4347

          k = 0.4667 0.3464 0.0000 (  9170 PWs)   bands (ev):

   -49.3787 -28.0838 -27.6162 -27.3030 -24.7841 -16.7082  -7.5000  -7.0267
    -6.7887  -6.6144  -5.2770  -4.5663  -0.6878   2.5726   3.0060   3.5307
     4.2267   6.2969   6.6740   7.7138   8.0178   8.4008   8.4238   8.7350
     9.0756   9.4351

          k = 0.4611 0.3560 0.0000 (  9176 PWs)   bands (ev):

   -49.3784 -28.0802 -27.6151 -27.3118 -24.7828 -16.7051  -7.4880  -7.0396
    -6.7927  -6.5948  -5.2800  -4.6063  -0.6587   2.5877   2.9919   3.5184
     4.1744   6.3709   6.7329   7.7376   8.0363   8.4191   8.4460   8.7536
     9.0917   9.4345

          k = 0.4556 0.3657 0.0000 (  9180 PWs)   bands (ev):

   -49.3780 -28.0760 -27.6138 -27.3217 -24.7814 -16.7017  -7.4747  -7.0532
    -6.7956  -6.5748  -5.2835  -4.6510  -0.6258   2.6037   2.9747   3.5065
     4.1209   6.4425   6.8056   7.7647   8.0577   8.4398   8.4717   8.7749
     9.1100   9.4326

          k = 0.4500 0.3753 0.0000 (  9180 PWs)   bands (ev):

   -49.3776 -28.0714 -27.6124 -27.3327 -24.7799 -16.6979  -7.4603  -7.0672
    -6.7973  -6.5545  -5.2877  -4.6998  -0.5894   2.6202   2.9543   3.4958
     4.0673   6.5091   6.8929   7.7947   8.0819   8.4627   8.5010   8.7989
     9.1305   9.4295

          k = 0.4444 0.3849 0.0000 (  9162 PWs)   bands (ev):

   -49.3772 -28.0662 -27.6109 -27.3447 -24.7783 -16.6937  -7.4451  -7.0809
    -6.7982  -6.5341  -5.2925  -4.7520  -0.5499   2.6366   2.9305   3.4870
     4.0146   6.5699   6.9936   7.8272   8.1088   8.4877   8.5339   8.8255
     9.1529   9.4256

          k = 0.4389 0.3945 0.0000 (  9166 PWs)   bands (ev):

   -49.3767 -28.0607 -27.6092 -27.3575 -24.7766 -16.6892  -7.4297  -7.0940
    -6.7984  -6.5137  -5.2981  -4.8071  -0.5076   2.6524   2.9036   3.4807
     3.9633   6.6252   7.1058   7.8619   8.1382   8.5150   8.5704   8.8548
     9.1769   9.4221

          k = 0.4333 0.4041 0.0000 (  9170 PWs)   bands (ev):

   -49.3763 -28.0548 -27.6075 -27.3711 -24.7749 -16.6845  -7.4145  -7.1057
    -6.7978  -6.4933  -5.3046  -4.8642  -0.4628   2.6669   2.8738   3.4772
     3.9139   6.6760   7.2269   7.8980   8.1694   8.5448   8.6103   8.8866
     9.2024   9.4204

          k = 0.4278 0.4138 0.0000 (  9170 PWs)   bands (ev):

   -49.3758 -28.0485 -27.6056 -27.3854 -24.7732 -16.6796  -7.4002  -7.1155
    -6.7967  -6.4729  -5.3125  -4.9224  -0.4158   2.6796   2.8418   3.4767
     3.8667   6.7228   7.3547   7.9347   8.2020   8.5775   8.6536   8.9211
     9.2292   9.4225

          k = 0.4222 0.4234 0.0000 (  9176 PWs)   bands (ev):

   -49.3752 -28.0419 -27.6038 -27.4001 -24.7714 -16.6744  -7.3876  -7.1225
    -6.7951  -6.4526  -5.3220  -4.9809  -0.3671   2.6898   2.8085   3.4788
     3.8223   6.7660   7.4875   7.9710   8.2352   8.6142   8.7003   8.9585
     9.2572   9.4303

          k = 0.4167 0.4330 0.0000 (  9158 PWs)   bands (ev):

   -49.3747 -28.0351 -27.6018 -27.4151 -24.7697 -16.6692  -7.3775  -7.1260
    -6.7930  -6.4323  -5.3340  -5.0382  -0.3171   2.6963   2.7758   3.4829
     3.7813   6.8057   7.6237   8.0056   8.2685   8.6559   8.7503   8.9990
     9.2870   9.4450

          k = 0.4111 0.4426 0.0000 (  9158 PWs)   bands (ev):

   -49.3742 -28.0281 -27.5998 -27.4304 -24.7681 -16.6639  -7.3705  -7.1255
    -6.7905  -6.4122  -5.3496  -5.0926  -0.2661   2.6948   2.7485   3.4874
     3.7445   6.8417   7.7619   8.0367   8.3018   8.7040   8.8034   9.0429
     9.3193   9.4667

          k = 0.4056 0.4523 0.0000 (  9162 PWs)   bands (ev):

   -49.3736 -28.0210 -27.5979 -27.4457 -24.7665 -16.6586  -7.3671  -7.1208
    -6.7877  -6.3922  -5.3706  -5.1418  -0.2148   2.6777   2.7351   3.4902
     3.7138   6.8740   7.9009   8.0627   8.3362   8.7592   8.8596   9.0910
     9.3554   9.4950

          k = 0.4000 0.4619 0.0000 (  9158 PWs)   bands (ev):

   -49.3731 -28.0138 -27.5959 -27.4609 -24.7650 -16.6533  -7.3670  -7.1122
    -6.7844  -6.3723  -5.3988  -5.1833  -0.1635   2.6493   2.7324   3.4882
     3.6915   6.9023   8.0375   8.0838   8.3732   8.8220   8.9186   9.1435
     9.3963   9.5285

          k = 0.3944 0.4715 0.0000 (  9156 PWs)   bands (ev):

   -49.3726 -28.0067 -27.5940 -27.4759 -24.7636 -16.6481  -7.3697  -7.1005
    -6.7809  -6.3525  -5.4351  -5.2159  -0.1131   2.6187   2.7323   3.4785
     3.6800   6.9266   8.0894   8.1805   8.4147   8.8914   8.9805   9.2012
     9.4425   9.5662

          k = 0.3889 0.4811 0.0000 (  9156 PWs)   bands (ev):

   -49.3720 -27.9997 -27.5921 -27.4904 -24.7623 -16.6430  -7.3744  -7.0866
    -6.7770  -6.3328  -5.4784  -5.2399  -0.0639   2.5892   2.7322   3.4605
     3.6790   6.9466   8.0941   8.3146   8.4618   8.9660   9.0453   9.2643
     9.4943   9.6069

          k = 0.3833 0.4907 0.0000 (  9138 PWs)   bands (ev):

   -49.3716 -27.9929 -27.5903 -27.5042 -24.7612 -16.6382  -7.3805  -7.0716
    -6.7728  -6.3132  -5.5261  -5.2573  -0.0169   2.5625   2.7318   3.4361
     3.6863   6.9625   8.0925   8.4440   8.5165   9.0429   9.1137   9.3333
     9.5514   9.6495

          k = 0.3778 0.5004 0.0000 (  9142 PWs)   bands (ev):

   -49.3711 -27.9865 -27.5886 -27.5173 -24.7601 -16.6336  -7.3873  -7.0564
    -6.7685  -6.2938  -5.5756  -5.2701   0.0275   2.5392   2.7310   3.4080
     3.6984   6.9744   8.0872   8.5513   8.5942   9.1185   9.1867   9.4081
     9.6136   9.6931

          k = 0.3722 0.5100 0.0000 (  9148 PWs)   bands (ev):

   -49.3707 -27.9805 -27.5870 -27.5293 -24.7592 -16.6294  -7.3942  -7.0417
    -6.7640  -6.2745  -5.6248  -5.2798   0.0683   2.5198   2.7300   3.3785
     3.7130   6.9827   8.0802   8.6215   8.7089   9.1894   9.2645   9.4885
     9.6804   9.7370

          k = 0.3667 0.5196 0.0000 (  9144 PWs)   bands (ev):

   -49.3703 -27.9752 -27.5856 -27.5402 -24.7584 -16.6255  -7.4009  -7.0282
    -6.7596  -6.2555  -5.6719  -5.2873   0.1050   2.5047   2.7290   3.3491
     3.7280   6.9878   8.0727   8.6875   8.8264   9.2540   9.3443   9.5732
     9.7506   9.7811

          k = 0.3611 0.5292 0.0000 (  9150 PWs)   bands (ev):

   -49.3699 -27.9705 -27.5844 -27.5497 -24.7578 -16.6221  -7.4070  -7.0163
    -6.7553  -6.2373  -5.7156  -5.2931   0.1370   2.4939   2.7282   3.3211
     3.7424   6.9902   8.0659   8.7557   8.9393   9.3115   9.4217   9.6597
     9.8137   9.8351

          k = 0.3556 0.5389 0.0000 (  9162 PWs)   bands (ev):

   -49.3696 -27.9666 -27.5833 -27.5576 -24.7573 -16.6192  -7.4124  -7.0064
    -6.7514  -6.2202  -5.7545  -5.2976   0.1636   2.4871   2.7276   3.2956
     3.7551   6.9907   8.0602   8.8261   9.0458   9.3598   9.4916   9.7431
     9.8578   9.9101

          k = 0.3500 0.5485 0.0000 (  9166 PWs)   bands (ev):

   -49.3694 -27.9635 -27.5825 -27.5639 -24.7569 -16.6168  -7.4167  -6.9987
    -6.7481  -6.2052  -5.7870  -5.3009   0.1845   2.4838   2.7273   3.2738
     3.7655   6.9899   8.0560   8.8982   9.1430   9.3947   9.5485   9.8131
     9.8986   9.9894

          k = 0.3444 0.5581 0.0000 (  9160 PWs)   bands (ev):

   -49.3692 -27.9613 -27.5819 -27.5684 -24.7566 -16.6151  -7.4199  -6.9932
    -6.7456  -6.1932  -5.8118  -5.3032   0.1995   2.4830   2.7271   3.2569
     3.7732   6.9886   8.0533   8.9701   9.2226   9.4129   9.5868   9.8530
     9.9354  10.0653

          k = 0.3389 0.5677 0.0000 (  9164 PWs)   bands (ev):

   -49.3691 -27.9601 -27.5815 -27.5711 -24.7565 -16.6140  -7.4219  -6.9900
    -6.7440  -6.1854  -5.8273  -5.3046   0.2084   2.4836   2.7271   3.2460
     3.7779   6.9874   8.0518   9.0360   9.2634   9.4237   9.6035   9.8572
     9.9618  10.1362

          k = 0.3333 0.5774 0.0000 (  9162 PWs)   bands (ev):

   -49.3691 -27.9597 -27.5814 -27.5719 -24.7564 -16.6136  -7.4226  -6.9889
    -6.7435  -6.1828  -5.8326  -5.3051   0.2113   2.4842   2.7271   3.2422
     3.7794   6.9869   8.0514   9.0711   9.2610   9.4357   9.6047   9.8520
     9.9734  10.1980

          k = 0.3222 0.5581 0.0000 (  9148 PWs)   bands (ev):

   -49.3692 -27.9611 -27.5819 -27.5685 -24.7566 -16.6152  -7.4198  -6.9927
    -6.7455  -6.1921  -5.8131  -5.3033   0.2003   2.4791   2.7276   3.2578
     3.7737   6.9894   8.0521   8.9057   9.3222   9.3547   9.6153   9.8251
     9.8986  10.0508

          k = 0.3111 0.5389 0.0000 (  9144 PWs)   bands (ev):

   -49.3697 -27.9645 -27.5837 -27.5588 -24.7571 -16.6201  -7.4116  -7.0027
    -6.7508  -6.2135  -5.7630  -5.2977   0.1697   2.4583   2.7310   3.3002
     3.7601   6.9967   8.0503   8.6089   9.0648   9.4119   9.5674   9.6009
    10.0031  10.0278

          k = 0.3000 0.5196 0.0000 (  9152 PWs)   bands (ev):

   -49.3706 -27.9687 -27.5868 -27.5438 -24.7578 -16.6287  -7.3982  -7.0160
    -6.7584  -6.2377  -5.6949  -5.2880   0.1237   2.4186   2.7402   3.3519
     3.7486   7.0054   8.0262   8.3031   8.7629   9.0839   9.5118   9.7411
     9.8826  10.1686

          k = 0.2889 0.5004 0.0000 (  9142 PWs)   bands (ev):

   -49.3719 -27.9723 -27.5913 -27.5248 -24.7586 -16.6410  -7.3806  -7.0291
    -6.7672  -6.2595  -5.6185  -5.2727   0.0668   2.3635   2.7549   3.3844
     3.7573   7.0075   7.8527   8.1290   8.4535   8.7429   9.4343   9.6809
     9.9257  10.2675

          k = 0.2778 0.4811 0.0000 (  9138 PWs)   bands (ev):

   -49.3736 -27.9743 -27.5971 -27.5029 -24.7594 -16.6572  -7.3603  -7.0380
    -6.7767  -6.2766  -5.5416  -5.2490   0.0031   2.2984   2.7726   3.3766
     3.7972   6.9909   7.5313   8.0453   8.1677   8.4557   9.3484   9.4486
    10.0292  10.3268

          k = 0.2667 0.4619 0.0000 (  9138 PWs)   bands (ev):

   -49.3757 -27.9737 -27.6041 -27.4790 -24.7603 -16.6773  -7.3394  -7.0388
    -6.7870  -6.2877  -5.4725  -5.2121  -0.0637   2.2275   2.7900   3.3353
     3.8546   6.9411   7.1871   7.7975   7.9532   8.3207   9.2065   9.2507
     9.9594  10.3548

          k = 0.2556 0.4426 0.0000 (  9154 PWs)   bands (ev):

   -49.3782 -27.9701 -27.6121 -27.4540 -24.7612 -16.7013  -7.3198  -7.0289
    -6.7983  -6.2914  -5.4188  -5.1569  -0.1304   2.1538   2.8027   3.2787
     3.9081   6.8146   6.8715   7.4955   7.7158   8.3032   8.9812   9.1286
     9.8719  10.2842

          k = 0.2444 0.4234 0.0000 (  9156 PWs)   bands (ev):

   -49.3811 -27.9632 -27.6208 -27.4284 -24.7621 -16.7288  -7.3026  -7.0072
    -6.8109  -6.2863  -5.3819  -5.0836  -0.1945   2.0793   2.8047   3.2216
     3.9429   6.4799   6.7178   7.1936   7.4930   8.2790   8.8038   8.9834
     9.8430  10.1928

          k = 0.2333 0.4041 0.0000 (  9164 PWs)   bands (ev):

   -49.3845 -27.9532 -27.6297 -27.4026 -24.7630 -16.7598  -7.2873  -6.9757
    -6.8252  -6.2704  -5.3573  -4.9981  -0.2538   2.0055   2.7894   3.1752
     3.9511   6.1350   6.5387   6.9005   7.2970   8.1762   8.7149   8.8293
     9.8630  10.0948

          k = 0.2222 0.3849 0.0000 (  9158 PWs)   bands (ev):

   -49.3882 -27.9406 -27.6380 -27.3771 -24.7641 -16.7938  -7.2725  -6.9379
    -6.8415  -6.2416  -5.3399  -4.9067  -0.3064   1.9334   2.7532   3.1449
     3.9287   5.7981   6.3339   6.6202   7.1211   7.9990   8.6552   8.7255
     9.8519  10.0445

          k = 0.2111 0.3657 0.0000 (  9182 PWs)   bands (ev):

   -49.3922 -27.9263 -27.6445 -27.3522 -24.7653 -16.8305  -7.2568  -6.8985
    -6.8593  -6.1982  -5.3263  -4.8134  -0.3511   1.8640   2.6990   3.1281
     3.8746   5.4747   6.1163   6.3543   6.9560   7.7925   8.5235   8.7357
     9.7431  10.0615

          k = 0.2000 0.3464 0.0000 (  9153 PWs)   bands (ev):

   -49.3966 -27.9119 -27.6476 -27.3281 -24.7669 -16.8694  -7.2390  -6.8854
    -6.8544  -6.1391  -5.3142  -4.7205  -0.3869   1.7981   2.6346   3.1164
     3.7905   5.1698   5.8954   6.1028   6.7950   7.5799   8.4013   8.7612
     9.5970  10.0422

          k = 0.1889 0.3272 0.0000 (  9179 PWs)   bands (ev):

   -49.4012 -27.8996 -27.6453 -27.3051 -24.7690 -16.9101  -7.2189  -6.9078
    -6.8199  -6.0647  -5.3017  -4.6298  -0.4134   1.7366   2.5666   3.1004
     3.6814   4.8871   5.6770   5.8655   6.6340   7.3702   8.2961   8.7876
     9.4375   9.9726

          k = 0.1778 0.3079 0.0000 (  9201 PWs)   bands (ev):

   -49.4061 -27.8914 -27.6355 -27.2831 -24.7716 -16.9519  -7.1969  -6.9337
    -6.7882  -5.9770  -5.2867  -4.5423  -0.4303   1.6801   2.4998   3.0697
     3.5575   4.6286   5.4648   5.6419   6.4710   7.1666   8.2045   8.8105
     9.2717   9.8905

          k = 0.1667 0.2887 0.0000 (  9199 PWs)   bands (ev):

   -49.4111 -27.8890 -27.6167 -27.2625 -24.7749 -16.9945  -7.1743  -6.9605
    -6.7609  -5.8803  -5.2663  -4.4586  -0.4382   1.6297   2.4371   3.0113
     3.4362   4.3938   5.2608   5.4313   6.3057   6.9706   8.1188   8.8246
     9.1067   9.8283

          k = 0.1556 0.2694 0.0000 (  9199 PWs)   bands (ev):

   -49.4162 -27.8922 -27.5893 -27.2432 -24.7791 -17.0372  -7.1542  -6.9849
    -6.7376  -5.7811  -5.2356  -4.3792  -0.4380   1.5859   2.3804   2.9130
     3.3365   4.1801   5.0663   5.2334   6.1390   6.7829   8.0287   8.8017
     8.9755   9.8046

          k = 0.1444 0.2502 0.0000 (  9193 PWs)   bands (ev):

   -49.4213 -27.9002 -27.5546 -27.2252 -24.7841 -17.0796  -7.1442  -6.9993
    -6.7180  -5.6888  -5.1875  -4.3045  -0.4308   1.5497   2.3309   2.7778
     3.2634   3.9839   4.8821   5.0479   5.9724   6.6035   7.9249   8.6752
     8.9531   9.8245

          k = 0.1333 0.2309 0.0000 (  9201 PWs)   bands (ev):

   -49.4264 -27.9115 -27.5145 -27.2087 -24.7901 -17.1211  -7.1533  -6.9946
    -6.7017  -5.6136  -5.1142  -4.2348  -0.4186   1.5215   2.2888   2.6240
     3.2067   3.8020   4.7088   4.8746   5.8079   6.4324   7.8030   8.5008
     8.9921   9.8763

          k = 0.1222 0.2117 0.0000 (  9213 PWs)   bands (ev):

   -49.4314 -27.9247 -27.4706 -27.1937 -24.7970 -17.1611  -7.1802  -6.9719
    -6.6883  -5.5610  -5.0125  -4.1701  -0.4032   1.5019   2.2535   2.4694
     3.1560   3.6325   4.5465   4.7135   5.6475   6.2694   7.6637   8.3198
     9.0539   9.8275

          k = 0.1111 0.1925 0.0000 (  9221 PWs)   bands (ev):

   -49.4362 -27.9390 -27.4247 -27.1801 -24.8048 -17.1994  -7.2166  -6.9392
    -6.6776  -5.5289  -4.8873  -4.1106  -0.3868   1.4913   2.2191   2.3299
     3.1059   3.4749   4.3958   4.5645   5.4932   6.1144   7.5115   8.1426
     9.1209   9.7625

          k = 0.1000 0.1732 0.0000 (  9221 PWs)   bands (ev):

   -49.4408 -27.9535 -27.3781 -27.1679 -24.8132 -17.2354  -7.2570  -6.9016
    -6.6692  -5.5116  -4.7470  -4.0565  -0.3713   1.4896   2.1499   2.2455
     3.0538   3.3309   4.2569   4.4277   5.3470   5.9670   7.3519   7.9749
     9.1698   9.7446

          k = 0.0889 0.1540 0.0000 (  9219 PWs)   bands (ev):

   -49.4451 -27.9676 -27.3322 -27.1572 -24.8222 -17.2687  -7.2984  -6.8619
    -6.6629  -5.5040  -4.5995  -4.0078  -0.3586   1.4965   2.0431   2.2197
     2.9983   3.2044   4.1302   4.3029   5.2107   5.8272   7.1911   7.8200
     9.1796   9.7920

          k = 0.0778 0.1347 0.0000 (  9227 PWs)   bands (ev):

   -49.4491 -27.9810 -27.2881 -27.1478 -24.8315 -17.2989  -7.3390  -6.8221
    -6.6584  -5.5027  -4.4514  -3.9648  -0.3496   1.5110   1.9433   2.2050
     2.9392   3.1008   4.0159   4.1902   5.0859   5.6952   7.0350   7.6805
     9.1537   9.8973

          k = 0.0667 0.1155 0.0000 (  9231 PWs)   bands (ev):

   -49.4526 -27.9932 -27.2470 -27.1397 -24.8406 -17.3258  -7.3772  -6.7833
    -6.6553  -5.5057  -4.3083  -3.9274  -0.3448   1.5315   1.8586   2.1880
     2.8819   3.0222   3.9144   4.0895   4.9740   5.5719   6.8895   7.5577
     9.1107  10.0372

          k = 0.0556 0.0962 0.0000 (  9241 PWs)   bands (ev):

   -49.4557 -28.0039 -27.2101 -27.1330 -24.8494 -17.3490  -7.4117  -6.7472
    -6.6533  -5.5112  -4.1753  -3.8958  -0.3438   1.5560   1.7893   2.1620
     2.8381   2.9641   3.8260   4.0009   4.8764   5.4587   6.7597   7.4527
     9.0644  10.1923

          k = 0.0444 0.0770 0.0000 (  9223 PWs)   bands (ev):

   -49.4583 -28.0130 -27.1782 -27.1275 -24.8572 -17.3684  -7.4416  -6.7150
    -6.6521  -5.5179  -4.0574  -3.8700  -0.3456   1.5818   1.7349   2.1258
     2.8166   2.9203   3.7509   3.9252   4.7942   5.3584   6.6496   7.3659
     9.0218  10.3486

          k = 0.0333 0.0577 0.0000 (  9219 PWs)   bands (ev):

   -49.4603 -28.0202 -27.1524 -27.1233 -24.8638 -17.3836  -7.4658  -6.6882
    -6.6515  -5.5246  -3.9594  -3.8500  -0.3490   1.6060   1.6940   2.0843
     2.8160   2.8874   3.6897   3.8632   4.7287   5.2744   6.5619   7.2979
     8.9865  10.4934

          k = 0.0222 0.0385 0.0000 (  9211 PWs)   bands (ev):

   -49.4618 -28.0255 -27.1334 -27.1202 -24.8688 -17.3946  -7.4836  -6.6679
    -6.6512  -5.5303  -3.8858  -3.8358  -0.3526   1.6259   1.6657   2.0461
     2.8274   2.8642   3.6435   3.8168   4.6809   5.2106   6.4985   7.2490
     8.9603  10.5779

          k = 0.0111 0.0192 0.0000 (  9209 PWs)   bands (ev):

   -49.4627 -28.0287 -27.1218 -27.1185 -24.8720 -17.4013  -7.4945  -6.6553
    -6.6510  -5.5341  -3.8399  -3.8272  -0.3553   1.6390   1.6490   2.0195
     2.8402   2.8502   3.6143   3.7879   4.6517   5.1707   6.4602   7.2195
     8.9443  10.5587

          k = 0.0000 0.0000 0.0000 (  9213 PWs)   bands (ev):

   -49.4630 -28.0298 -27.1179 -27.1179 -24.8730 -17.4035  -7.4982  -6.6510
    -6.6510  -5.5355  -3.8244  -3.8244  -0.3563   1.6435   1.6435   2.0100
     2.8455   2.8455   3.6041   3.7780   4.6419   5.1570   6.4474   7.2096
     8.9389  10.5517

     Writing all to output data dir ./out/ZrFCl.save/

     init_run     :      0.17s CPU      0.20s WALL (       1 calls)
     electrons    :     18.36s CPU     18.60s WALL (       1 calls)

     Called by init_run:
     wfcinit      :      0.00s CPU      0.00s WALL (       1 calls)
     potinit      :      0.05s CPU      0.06s WALL (       1 calls)
     hinit0       :      0.09s CPU      0.09s WALL (       1 calls)

     Called by electrons:
     c_bands      :     18.36s CPU     18.60s WALL (       1 calls)
     v_of_rho     :      0.00s CPU      0.00s WALL (       1 calls)
     newd         :      0.01s CPU      0.02s WALL (       1 calls)
     PAW_pot      :      0.04s CPU      0.05s WALL (       1 calls)

     Called by c_bands:
     init_us_2    :      0.01s CPU      0.01s WALL (      91 calls)
     init_us_2:cp :      0.01s CPU      0.01s WALL (      91 calls)
     cegterg      :     17.51s CPU     17.72s WALL (     198 calls)

     Called by *egterg:
     cdiaghg      :      3.06s CPU      3.08s WALL (    3165 calls)
     h_psi        :      8.84s CPU      9.02s WALL (    3363 calls)
     s_psi        :      0.71s CPU      0.72s WALL (    3363 calls)
     g_psi        :      0.04s CPU      0.04s WALL (    3074 calls)

     Called by h_psi:
     h_psi:calbec :      1.20s CPU      1.22s WALL (    3363 calls)
     vloc_psi     :      6.90s CPU      7.05s WALL (    3363 calls)
     add_vuspsi   :      0.71s CPU      0.72s WALL (    3363 calls)

     General routines
     calbec       :      1.20s CPU      1.22s WALL (    3363 calls)
     fft          :      0.00s CPU      0.00s WALL (      12 calls)
     fftw         :      6.47s CPU      6.61s WALL (   85368 calls)
     davcio       :      0.01s CPU      0.02s WALL (     182 calls)

     Parallel routines

     PWSCF        :     19.29s CPU     20.15s WALL


   This run was terminated on:  16:48:59   7Aug2026            

=------------------------------------------------------------------------------=
   JOB DONE.
=------------------------------------------------------------------------------=
