
     Program PWSCF v.7.2 starts on 18Sep2026 at  9: 8: 9 

     This program is part of the open-source Quantum ESPRESSO suite
     for quantum simulation of materials; please cite
         "P. Giannozzi et al., J. Phys.:Condens. Matter 21 395502 (2009);
         "P. Giannozzi et al., J. Phys.:Condens. Matter 29 465901 (2017);
         "P. Giannozzi et al., J. Chem. Phys. 152 154105 (2020);
          URL http://www.quantum-espresso.org", 
     in publications or presentations arising from this work. More details at
     http://www.quantum-espresso.org/quote

     Parallel version (MPI), running on    32 processors

     MPI processes distributed on     1 nodes
     228819 MiB available memory on the printing compute node when the environment starts

     Waiting for input...
     Reading input from standard input

     Current dimensions of program PWSCF are:
     Max number of different atomic species (ntypx) = 10
     Max number of k-points (npk) =  40000
     Max angular momentum in pseudopotentials (lmaxx) =  4
     file Zr.pbe-spn-kjpaw_psl.1.0.0.UPF: wavefunction(s)  4S 4P renormalized
     file F.pbe-n-kjpaw_psl.1.0.0.UPF: wavefunction(s)  2S 2P renormalized
     file Cl.pbe-n-kjpaw_psl.1.0.0.UPF: wavefunction(s)  3S 3P renormalized
     Message from routine setup:
     using ibrav=0 with symmetry is DISCOURAGED, use correct ibrav instead

     R & G space division:  proc/nbgrp/npool/nimage =      32
     Subspace diagonalization in iterative solution of the eigenvalue problem:
     a serial algorithm will be used


     Parallelization info
     --------------------
     sticks:   dense  smooth     PW     G-vecs:    dense   smooth      PW
     Min          21      21      6                 1363     1363     218
     Max          22      22      7                 1374     1374     231
     Sum         673     673    199                43721    43721    7095

     Using Slab Decomposition



     bravais-lattice index     =            0
     lattice parameter (alat)  =       6.1276  a.u.
     unit-cell volume          =     617.5680 (a.u.)^3
     number of atoms/cell      =            3
     number of atomic types    =            3
     number of electrons       =        26.00
     number of Kohn-Sham states=           26
     kinetic-energy cutoff     =      65.0000  Ry
     charge density cutoff     =     260.0000  Ry
     scf convergence threshold =      1.0E-08
     mixing beta               =       0.7000
     number of iterations used =            8  plain     mixing
     energy convergence thresh.=      1.0E-05
     force convergence thresh. =      1.0E-04
     Exchange-correlation= SLA  PW   PBX  PBC
                           (   1   4   3   4   0   0   0)
     nstep                     =           50


     celldm(1)=   6.127583  celldm(2)=   0.000000  celldm(3)=   0.000000
     celldm(4)=   0.000000  celldm(5)=   0.000000  celldm(6)=   0.000000

     crystal axes: (cart. coord. in units of alat)
               a(1) = (   1.000000   0.000000   0.000000 )  
               a(2) = (  -0.500000   0.870377   0.000000 )  
               a(3) = (   0.000000   0.000000   3.083967 )  

     reciprocal axes: (cart. coord. in units 2 pi/alat)
               b(1) = (  1.000000  0.574464 -0.000000 )  
               b(2) = (  0.000000  1.148927  0.000000 )  
               b(3) = (  0.000000 -0.000000  0.324258 )  


     PseudoPot. # 1 for Zr read from file:
     /mgpfs/home/rabdillah/repo/qe/pseudo/Zr.pbe-spn-kjpaw_psl.1.0.0.UPF
     MD5 check sum: 02112c41713a0468aff2bb39ef194e36
     Pseudo is Projector augmented-wave + core cor, Zval = 12.0
     Generated using &quot;atomic&quot; code by A. Dal Corso  v.6.2.2
     Shape of augmentation charge: PSQ
     Using radial grid of 1225 points,  6 beta functions with: 
                l(1) =   0
                l(2) =   0
                l(3) =   1
                l(4) =   1
                l(5) =   2
                l(6) =   2
     Q(r) pseudized with 0 coefficients 


     PseudoPot. # 2 for F  read from file:
     /mgpfs/home/rabdillah/repo/qe/pseudo/F.pbe-n-kjpaw_psl.1.0.0.UPF
     MD5 check sum: 66d718ea72839a4268ab2a9540e8cdd4
     Pseudo is Projector augmented-wave + core cor, Zval =  7.0
     Generated using &quot;atomic&quot; code by A. Dal Corso  v.6.3
     Shape of augmentation charge: PSQ
     Using radial grid of 1105 points,  4 beta functions with: 
                l(1) =   0
                l(2) =   0
                l(3) =   1
                l(4) =   1
     Q(r) pseudized with 0 coefficients 


     PseudoPot. # 3 for Cl read from file:
     /mgpfs/home/rabdillah/repo/qe/pseudo/Cl.pbe-n-kjpaw_psl.1.0.0.UPF
     MD5 check sum: 530da96d25dcb7781b0586ca00827062
     Pseudo is Projector augmented-wave + core cor, Zval =  7.0
     Generated using &quot;atomic&quot; code by A. Dal Corso  v.6.3
     Shape of augmentation charge: PSQ
     Using radial grid of 1157 points,  6 beta functions with: 
                l(1) =   0
                l(2) =   0
                l(3) =   1
                l(4) =   1
                l(5) =   2
                l(6) =   2
     Q(r) pseudized with 0 coefficients 


     atomic species   valence    mass     pseudopotential
        Zr            12.00    91.22400     Zr( 1.00)
        F              7.00    18.99800     F ( 1.00)
        Cl             7.00    35.45300     Cl( 1.00)

      2 Sym. Ops. (no inversion) found



   Cartesian axes

     site n.     atom                  positions (alat units)
         1           Zr  tau(   1) = (   0.0000000   0.0000000   2.9514683  )
         2           F   tau(   2) = (  -0.0000000   0.5802515   3.3625511  )
         3           Cl  tau(   3) = (  -0.0000000   0.5802515   2.4093427  )

     number of k points=    73
                       cart. coord. in units 2pi/alat
        k(    1) = (   0.0000000   0.0000000   0.0000000), wk =   0.0078125
        k(    2) = (   0.0000000   0.0718079   0.0000000), wk =   0.0156250
        k(    3) = (   0.0000000   0.1436159   0.0000000), wk =   0.0156250
        k(    4) = (   0.0000000   0.2154238   0.0000000), wk =   0.0156250
        k(    5) = (   0.0000000   0.2872318   0.0000000), wk =   0.0156250
        k(    6) = (   0.0000000   0.3590397   0.0000000), wk =   0.0156250
        k(    7) = (   0.0000000   0.4308476   0.0000000), wk =   0.0156250
        k(    8) = (   0.0000000   0.5026556   0.0000000), wk =   0.0156250
        k(    9) = (   0.0000000  -0.5744635   0.0000000), wk =   0.0078125
        k(   10) = (   0.0625000   0.0359040   0.0000000), wk =   0.0312500
        k(   11) = (   0.0625000   0.1077119   0.0000000), wk =   0.0312500
        k(   12) = (   0.0625000   0.1795198   0.0000000), wk =   0.0312500
        k(   13) = (   0.0625000   0.2513278   0.0000000), wk =   0.0312500
        k(   14) = (   0.0625000   0.3231357   0.0000000), wk =   0.0312500
        k(   15) = (   0.0625000   0.3949437   0.0000000), wk =   0.0312500
        k(   16) = (   0.0625000   0.4667516   0.0000000), wk =   0.0312500
        k(   17) = (   0.0625000   0.5385595   0.0000000), wk =   0.0312500
        k(   18) = (   0.1250000   0.0718079   0.0000000), wk =   0.0312500
        k(   19) = (   0.1250000   0.1436159   0.0000000), wk =   0.0312500
        k(   20) = (   0.1250000   0.2154238   0.0000000), wk =   0.0312500
        k(   21) = (   0.1250000   0.2872318   0.0000000), wk =   0.0312500
        k(   22) = (   0.1250000   0.3590397   0.0000000), wk =   0.0312500
        k(   23) = (   0.1250000   0.4308476   0.0000000), wk =   0.0312500
        k(   24) = (   0.1250000   0.5026556   0.0000000), wk =   0.0312500
        k(   25) = (   0.1250000   0.5744635   0.0000000), wk =   0.0156250
        k(   26) = (   0.1250000   0.0000000   0.0000000), wk =   0.0156250
        k(   27) = (   0.1875000   0.1077119   0.0000000), wk =   0.0312500
        k(   28) = (   0.1875000   0.1795198   0.0000000), wk =   0.0312500
        k(   29) = (   0.1875000   0.2513278   0.0000000), wk =   0.0312500
        k(   30) = (   0.1875000   0.3231357   0.0000000), wk =   0.0312500
        k(   31) = (   0.1875000   0.3949437   0.0000000), wk =   0.0312500
        k(   32) = (   0.1875000   0.4667516   0.0000000), wk =   0.0312500
        k(   33) = (   0.1875000   0.5385595   0.0000000), wk =   0.0312500
        k(   34) = (   0.1875000  -0.0359040   0.0000000), wk =   0.0312500
        k(   35) = (   0.2500000   0.1436159   0.0000000), wk =   0.0312500
        k(   36) = (   0.2500000   0.2154238   0.0000000), wk =   0.0312500
        k(   37) = (   0.2500000   0.2872318   0.0000000), wk =   0.0312500
        k(   38) = (   0.2500000   0.3590397   0.0000000), wk =   0.0312500
        k(   39) = (   0.2500000   0.4308476   0.0000000), wk =   0.0312500
        k(   40) = (   0.2500000   0.5026556   0.0000000), wk =   0.0312500
        k(   41) = (   0.2500000   0.5744635   0.0000000), wk =   0.0156250
        k(   42) = (   0.2500000  -0.0718079   0.0000000), wk =   0.0312500
        k(   43) = (   0.2500000   0.0000000   0.0000000), wk =   0.0156250
        k(   44) = (   0.3125000   0.1795198   0.0000000), wk =   0.0312500
        k(   45) = (   0.3125000   0.2513278   0.0000000), wk =   0.0312500
        k(   46) = (   0.3125000   0.3231357   0.0000000), wk =   0.0312500
        k(   47) = (   0.3125000   0.3949437   0.0000000), wk =   0.0312500
        k(   48) = (   0.3125000   0.4667516   0.0000000), wk =   0.0312500
        k(   49) = (   0.3125000   0.5385595   0.0000000), wk =   0.0312500
        k(   50) = (   0.3125000  -0.1077119   0.0000000), wk =   0.0312500
        k(   51) = (   0.3125000  -0.0359040   0.0000000), wk =   0.0312500
        k(   52) = (   0.3750000   0.2154238   0.0000000), wk =   0.0312500
        k(   53) = (   0.3750000   0.2872318   0.0000000), wk =   0.0312500
        k(   54) = (   0.3750000   0.3590397   0.0000000), wk =   0.0312500
        k(   55) = (   0.3750000   0.4308476   0.0000000), wk =   0.0312500
        k(   56) = (   0.3750000   0.5026556   0.0000000), wk =   0.0312500
        k(   57) = (   0.3750000   0.5744635   0.0000000), wk =   0.0156250
        k(   58) = (   0.3750000  -0.1436159   0.0000000), wk =   0.0312500
        k(   59) = (   0.3750000  -0.0718079   0.0000000), wk =   0.0312500
        k(   60) = (   0.3750000   0.0000000   0.0000000), wk =   0.0156250
        k(   61) = (   0.4375000   0.2513278   0.0000000), wk =   0.0312500
        k(   62) = (   0.4375000   0.3231357   0.0000000), wk =   0.0312500
        k(   63) = (   0.4375000   0.3949437   0.0000000), wk =   0.0312500
        k(   64) = (   0.4375000   0.4667516   0.0000000), wk =   0.0312500
        k(   65) = (   0.4375000   0.5385595   0.0000000), wk =   0.0312500
        k(   66) = (   0.4375000  -0.1795198   0.0000000), wk =   0.0312500
        k(   67) = (   0.4375000  -0.1077119   0.0000000), wk =   0.0312500
        k(   68) = (   0.4375000  -0.0359040   0.0000000), wk =   0.0312500
        k(   69) = (  -0.5000000  -0.2872318   0.0000000), wk =   0.0156250
        k(   70) = (  -0.5000000  -0.2154238   0.0000000), wk =   0.0312500
        k(   71) = (  -0.5000000  -0.1436159   0.0000000), wk =   0.0312500
        k(   72) = (  -0.5000000  -0.0718079   0.0000000), wk =   0.0312500
        k(   73) = (  -0.5000000  -0.0000000   0.0000000), wk =   0.0156250

     Dense  grid:    43721 G-vectors     FFT dimensions: (  32,  32, 100)

     Estimated max dynamical RAM per process >      13.86 MB

     Estimated total dynamical RAM >     443.41 MB

     Check: negative core charge=   -0.000005

     Initial potential from superposition of free atoms

     starting charge      25.9978, renormalised to      26.0000

     negative rho (up, down):  6.468E-06 0.000E+00
     Starting wfcs are   21 randomized atomic wfcs +    5 random wfcs
     Checking if some PAW data can be deallocated... 

     total cpu time spent up to now is        0.9 secs

     Self-consistent Calculation

     iteration #  1     ecut=    65.00 Ry     beta= 0.70
     Davidson diagonalization with overlap
     ethr =  1.00E-02,  avg # of iterations =  6.3

     Threshold (ethr) on eigenvalues was too large:
     Diagonalizing with lowered threshold

     Davidson diagonalization with overlap
     ethr =  8.02E-04,  avg # of iterations =  1.1

     negative rho (up, down):  6.345E-05 0.000E+00

     total cpu time spent up to now is        4.1 secs

     total energy              =    -446.15550304 Ry
     estimated scf accuracy    <       0.21038659 Ry

     iteration #  2     ecut=    65.00 Ry     beta= 0.70
     Davidson diagonalization with overlap
     ethr =  8.09E-04,  avg # of iterations =  3.8

     negative rho (up, down):  3.881E-05 0.000E+00

     total cpu time spent up to now is        5.8 secs

     total energy              =    -446.16086226 Ry
     estimated scf accuracy    <       0.34983131 Ry

     iteration #  3     ecut=    65.00 Ry     beta= 0.70
     Davidson diagonalization with overlap
     ethr =  8.09E-04,  avg # of iterations =  2.3

     negative rho (up, down):  4.939E-05 0.000E+00

     total cpu time spent up to now is        7.2 secs

     total energy              =    -446.23986202 Ry
     estimated scf accuracy    <       0.02401969 Ry

     iteration #  4     ecut=    65.00 Ry     beta= 0.70
     Davidson diagonalization with overlap
     ethr =  9.24E-05,  avg # of iterations =  2.8

     negative rho (up, down):  7.054E-05 0.000E+00

     total cpu time spent up to now is        8.5 secs

     total energy              =    -446.24441745 Ry
     estimated scf accuracy    <       0.00168837 Ry

     iteration #  5     ecut=    65.00 Ry     beta= 0.70
     Davidson diagonalization with overlap
     ethr =  6.49E-06,  avg # of iterations =  5.3

     negative rho (up, down):  8.138E-05 0.000E+00

     total cpu time spent up to now is       10.3 secs

     total energy              =    -446.24470840 Ry
     estimated scf accuracy    <       0.00108637 Ry

     iteration #  6     ecut=    65.00 Ry     beta= 0.70
     Davidson diagonalization with overlap
     ethr =  4.18E-06,  avg # of iterations =  2.3

     negative rho (up, down):  8.477E-05 0.000E+00

     total cpu time spent up to now is       11.6 secs

     total energy              =    -446.24493667 Ry
     estimated scf accuracy    <       0.00001930 Ry

     iteration #  7     ecut=    65.00 Ry     beta= 0.70
     Davidson diagonalization with overlap
     ethr =  7.42E-08,  avg # of iterations =  3.0

     negative rho (up, down):  8.546E-05 0.000E+00

     total cpu time spent up to now is       13.0 secs

     total energy              =    -446.24494222 Ry
     estimated scf accuracy    <       0.00000041 Ry

     iteration #  8     ecut=    65.00 Ry     beta= 0.70
     Davidson diagonalization with overlap
     ethr =  1.59E-09,  avg # of iterations =  2.0

     negative rho (up, down):  8.569E-05 0.000E+00

     total cpu time spent up to now is       14.3 secs

     total energy              =    -446.24494232 Ry
     estimated scf accuracy    <       0.00000003 Ry

     iteration #  9     ecut=    65.00 Ry     beta= 0.70
     Davidson diagonalization with overlap
     ethr =  1.04E-10,  avg # of iterations =  2.0

     negative rho (up, down):  8.571E-05 0.000E+00

     total cpu time spent up to now is       15.6 secs

     End of self-consistent calculation

          k = 0.0000 0.0000 0.0000 (  5423 PWs)   bands (ev):

   -45.6020 -24.1836 -23.2556 -23.2472 -21.0344 -13.5708  -3.6728  -2.8237
    -2.8127  -1.7025   0.0215   0.0504   3.4723   5.4655   5.5298   5.8310
     6.7003   6.7313   7.7746   8.6720  11.0384  13.6951  14.5542  14.6323
    15.5076  17.1973

          k = 0.0000 0.0718 0.0000 (  5443 PWs)   bands (ev):

   -45.5988 -24.1723 -23.2969 -23.2534 -21.0234 -13.5474  -3.6348  -2.8673
    -2.8131  -1.6902  -0.1375   0.0213   3.4814   5.4237   5.5880   5.9170
     6.6661   6.7789   7.8988   8.8638  11.1658  13.7751  14.2786  14.7338
    15.3083  17.2093

          k = 0.0000 0.1436 0.0000 (  5443 PWs)   bands (ev):

   -45.5897 -24.1407 -23.4092 -23.2710 -20.9966 -13.4799  -3.5334  -2.9770
    -2.8157  -1.6722  -0.5446  -0.0585   3.4811   5.3662   5.7660   6.0282
     6.7647   6.9071   8.2415   9.3037  11.5361  13.6525  13.9450  14.9906
    15.0361  17.1132

          k = 0.0000 0.2154 0.0000 (  5468 PWs)   bands (ev):

   -45.5760 -24.0962 -23.5631 -23.2973 -20.9675 -13.3756  -3.4129  -3.1020
    -2.8239  -1.7029  -1.0380  -0.1706   3.4216   5.4197   6.0595   6.0677
     7.0817   7.1359   8.7323   9.8094  12.0065  13.1928  13.7233  15.1749
    15.5270  16.9531

          k = 0.0000 0.2872 0.0000 (  5484 PWs)   bands (ev):

   -45.5598 -24.0580 -23.7157 -23.3280 -20.9470 -13.2474  -3.3885  -3.1384
    -2.8398  -1.9333  -1.3595  -0.2928   3.3039   5.6247   6.1543   6.4797
     7.2708   7.6374   9.2666  10.2955  12.0392  13.1130  13.7376  15.6927
    16.1341  16.7668

          k = 0.0000 0.3590 0.0000 (  5452 PWs)   bands (ev):

   -45.5435 -24.0732 -23.8016 -23.3585 -20.9392 -13.1129  -3.4880  -3.0798
    -2.8617  -2.3481  -1.4340  -0.4055   3.1835   5.8921   6.3822   6.9416
     7.4754   8.2075   9.7186  10.7057  11.9008  12.9111  14.4492  15.3851
    16.1902  16.3569

          k = 0.0000 0.4308 0.0000 (  5468 PWs)   bands (ev):

   -45.5297 -24.1530 -23.7986 -23.3842 -20.9411 -12.9933  -3.5970  -3.0608
    -2.8847  -2.6879  -1.4426  -0.4944   3.1022   6.1292   6.6759   7.2835
     7.7801   8.8362  10.0175  11.0343  11.9831  12.8271  14.0949  14.9833
    15.7693  15.8626

          k = 0.0000 0.5027 0.0000 (  5478 PWs)   bands (ev):

   -45.5204 -24.2247 -23.7739 -23.4013 -20.9463 -12.9102  -3.6809  -3.1171
    -2.9022  -2.8432  -1.4393  -0.5507   3.0641   6.3116   6.8680   7.4213
     8.1404   9.4796  10.2469  11.3042  12.0503  12.7181  13.3388  14.6905
    15.1401  15.3585

          k = 0.0000-0.5745 0.0000 (  5478 PWs)   bands (ev):

   -45.5171 -24.2513 -23.7630 -23.4073 -20.9489 -12.8803  -3.7141  -3.1587
    -2.9087  -2.8735  -1.4372  -0.5700   3.0543   6.3881   6.9171   7.4568
     8.2979   9.8383  10.3504  11.5443  11.8049  12.4793  13.3967  14.3411
    14.9291  15.1848

          k = 0.0625 0.0359 0.0000 (  5447 PWs)   bands (ev):

   -45.5988 -24.1722 -23.2914 -23.2596 -21.0233 -13.5471  -3.6345  -2.8602
    -2.8209  -1.6897  -0.1182  -0.0002   3.4828   5.4588   5.5487   5.9192
     6.6819   6.7588   7.9012   8.8669  11.1676  13.7760  14.3221  14.6784
    15.3155  17.1705

          k = 0.0625 0.1077 0.0000 (  5438 PWs)   bands (ev):

   -45.5926 -24.1506 -23.3706 -23.2691 -21.0044 -13.5016  -3.5644  -2.9401
    -2.8192  -1.6745  -0.4062  -0.0496   3.4885   5.3741   5.7025   6.0181
     6.7007   6.8644   8.1341   9.1767  11.4199  13.7937  13.9712  14.8330
    15.1304  17.0977

          k = 0.0625 0.1795 0.0000 (  5440 PWs)   bands (ev):

   -45.5812 -24.1122 -23.5019 -23.2928 -20.9768 -13.4156  -3.4488  -3.0582
    -2.8275  -1.6767  -0.8490  -0.1571   3.4636   5.3411   5.9734   6.0778
     6.9040   7.0686   8.5515   9.6360  11.8854  13.3113  13.8261  14.8972
    15.4652  16.9121

          k = 0.0625 0.2513 0.0000 (  5481 PWs)   bands (ev):

   -45.5662 -24.0689 -23.6531 -23.3248 -20.9526 -13.2990  -3.3589  -3.1496
    -2.8457  -1.7877  -1.2609  -0.2906   3.3834   5.4500   6.1089   6.3877
     7.1342   7.4602   9.0685  10.1264  12.2252  13.0860  13.5300  15.3201
    16.0097  16.6970

          k = 0.0625 0.3231 0.0000 (  5466 PWs)   bands (ev):

   -45.5500 -24.0523 -23.7730 -23.3595 -20.9391 -13.1670  -3.4171  -3.1093
    -2.8740  -2.1350  -1.4190  -0.4252   3.2770   5.7079   6.2270   6.8420
     7.3441   7.9964   9.5725  10.5875  12.0493  13.0086  13.9496  15.6186
    16.1265  16.4314

          k = 0.0625 0.3949 0.0000 (  5465 PWs)   bands (ev):

   -45.5349 -24.1062 -23.8039 -23.3914 -20.9367 -13.0390  -3.5253  -3.0586
    -2.9136  -2.5069  -1.4461  -0.5420   3.1921   6.0267   6.4294   7.1930
     7.6129   8.6394   9.9564  10.9699  11.9937  12.8558  14.5601  14.8146
    15.6673  16.3698

          k = 0.0625 0.4668 0.0000 (  5460 PWs)   bands (ev):

   -45.5233 -24.1863 -23.7824 -23.4158 -20.9406 -12.9367  -3.6180  -3.0993
    -2.9467  -2.7182  -1.4470  -0.6273   3.1473   6.2795   6.6850   7.3562
     7.9078   9.3687  10.2232  11.2672  12.0942  12.8387  13.6147  14.7775
    15.1383  15.8758

          k = 0.0625 0.5386 0.0000 (  5480 PWs)   bands (ev):

   -45.5171 -24.2355 -23.7628 -23.4290 -20.9448 -12.8796  -3.6745  -3.1813
    -2.9539  -2.7815  -1.4444  -0.6720   3.1323   6.4133   6.8622   7.4111
     8.0945   9.9894  10.4340  11.5042  11.9805  12.5736  13.3432  14.3702
    14.9369  15.3158

          k = 0.1250 0.0718 0.0000 (  5438 PWs)   bands (ev):

   -45.5894 -24.1400 -23.4046 -23.2781 -20.9964 -13.4785  -3.5324  -2.9708
    -2.8242  -1.6705  -0.5278  -0.0834   3.4868   5.3958   5.7228   6.0351
     6.7730   6.8877   8.2491   9.3107  11.5428  13.6683  13.9624  14.9808
    15.0022  17.0765

          k = 0.1250 0.1436 0.0000 (  5454 PWs)   bands (ev):

   -45.5810 -24.1117 -23.4997 -23.2968 -20.9767 -13.4146  -3.4482  -3.0554
    -2.8319  -1.6753  -0.8404  -0.1721   3.4686   5.3471   5.9566   6.0831
     6.9041   7.0627   8.5562   9.6396  11.8902  13.3193  13.8324  14.8970
    15.4476  16.8958

          k = 0.1250 0.2154 0.0000 (  5469 PWs)   bands (ev):

   -45.5683 -24.0733 -23.6237 -23.3317 -20.9546 -13.3160  -3.3456  -3.1487
    -2.8579  -1.7388  -1.1944  -0.3280   3.4319   5.3433   6.1341   6.3780
     7.0376   7.4181   9.0032  10.0721  12.4191  12.9160  13.5142  15.1310
    15.9995  16.6318

          k = 0.1250 0.2872 0.0000 (  5466 PWs)   bands (ev):

   -45.5533 -24.0448 -23.7401 -23.3758 -20.9382 -13.1949  -3.3437  -3.1443
    -2.9008  -1.9764  -1.4014  -0.5098   3.3835   5.4693   6.2447   6.8072
     7.2335   7.9143   9.5032  10.5423  12.4616  13.0479  13.3342  15.4044
    16.0215  16.9318

          k = 0.1250 0.3590 0.0000 (  5452 PWs)   bands (ev):

   -45.5382 -24.0663 -23.7956 -23.4208 -20.9311 -13.0680  -3.4363  -3.0675
    -2.9624  -2.3118  -1.4550  -0.6847   3.3443   5.7470   6.3696   7.0741
     7.5458   8.5713   9.9604  11.0008  12.2469  12.9076  14.0198  14.9722
    15.7540  16.3625

          k = 0.1250 0.4308 0.0000 (  5463 PWs)   bands (ev):

   -45.5254 -24.1346 -23.7855 -23.4595 -20.9316 -12.9555  -3.5226  -3.0957
    -2.9894  -2.5514  -1.4655  -0.8288   3.3296   6.1359   6.4739   7.2334
     7.7816   9.3813  10.3131  11.3838  12.2203  12.8541  14.1035  14.5300
    15.0559  16.2485

          k = 0.1250 0.5027 0.0000 (  5473 PWs)   bands (ev):

   -45.5169 -24.1936 -23.7618 -23.4856 -20.9350 -12.8775  -3.5813  -3.2155
    -2.9728  -2.6508  -1.4667  -0.9234   3.3335   6.4768   6.5919   7.3397
     7.8341  10.1961  10.5973  11.6202  12.2276  12.8284  13.3228  14.3899
    14.8763  15.7844

          k = 0.1250 0.5745 0.0000 (  5484 PWs)   bands (ev):

   -45.5139 -24.2155 -23.7516 -23.4948 -20.9368 -12.8496  -3.6025  -3.2685
    -2.9685  -2.6735  -1.4667  -0.9562   3.3379   6.5191   6.7682   7.3602
     7.8189  10.4707  10.9482  11.8180  11.9019  12.5923  13.3648  14.1857
    15.0098  15.2616

          k = 0.1250 0.0000 0.0000 (  5443 PWs)   bands (ev):

   -45.5924 -24.1502 -23.3668 -23.2746 -21.0043 -13.5006  -3.5636  -2.9345
    -2.8265  -1.6733  -0.3939  -0.0673   3.4915   5.4096   5.6578   6.0235
     6.6981   6.8571   8.1403   9.1825  11.4246  13.8039  13.9922  14.7976
    15.1232  17.0753

          k = 0.1875 0.1077 0.0000 (  5453 PWs)   bands (ev):

   -45.5754 -24.0948 -23.5600 -23.3053 -20.9673 -13.3727  -3.4114  -3.0971
    -2.8329  -1.6991  -1.0260  -0.1990   3.4327   5.4358   6.0276   6.0686
     7.0623   7.1439   8.7448   9.8174  12.0167  13.2082  13.7367  15.1875
    15.4793  16.9161

          k = 0.1875 0.1795 0.0000 (  5466 PWs)   bands (ev):

   -45.5657 -24.0676 -23.6509 -23.3314 -20.9525 -13.2964  -3.3578  -3.1461
    -2.8525  -1.7826  -1.2531  -0.3153   3.3944   5.4518   6.1091   6.3740
     7.1233   7.4631   9.0778  10.1310  12.2295  13.1022  13.5399  15.3295
    15.9812  16.6790

          k = 0.1875 0.2513 0.0000 (  5470 PWs)   bands (ev):

   -45.5530 -24.0440 -23.7391 -23.3794 -20.9383 -13.1933  -3.3431  -3.1431
    -2.9041  -1.9723  -1.3991  -0.5232   3.3899   5.4678   6.2450   6.8036
     7.2270   7.9164   9.5077  10.5436  12.4591  13.0535  13.3475  15.4095
    16.0174  16.9609

          k = 0.1875 0.3231 0.0000 (  5471 PWs)   bands (ev):

   -45.5392 -24.0508 -23.7873 -23.4402 -20.9287 -13.0768  -3.3902  -3.0794
    -2.9846  -2.2180  -1.4619  -0.7708   3.4284   5.5742   6.4328   6.9727
     7.5407   8.5543   9.9711  11.0143  12.5688  12.8927  13.5773  14.9198
    16.1634  16.2650

          k = 0.1875 0.3949 0.0000 (  5465 PWs)   bands (ev):

   -45.5264 -24.0954 -23.7834 -23.5013 -20.9251 -12.9644  -3.4522  -3.0942
    -3.0134  -2.4166  -1.4921  -1.0045   3.4969   5.8125   6.5767   7.0563
     7.7828   9.3850  10.4052  11.4853  12.5389  12.8057  14.0772  14.3507
    15.2076  16.1079

          k = 0.1875 0.4668 0.0000 (  5469 PWs)   bands (ev):

   -45.5166 -24.1444 -23.7597 -23.5507 -20.9256 -12.8749  -3.5057  -3.2093
    -2.9750  -2.5215  -1.5127  -1.1821   3.5689   6.1644   6.6008   7.2199
     7.7819  10.2830  10.7499  11.8363  12.4562  12.9244  13.7087  14.3590
    14.7045  15.9497

          k = 0.1875 0.5386 0.0000 (  5480 PWs)   bands (ev):

   -45.5113 -24.1734 -23.7424 -23.5783 -20.9269 -12.8252  -3.5382  -3.2835
    -2.9602  -2.5564  -1.5277  -1.2748   3.6148   6.4960   6.5883   7.3550
     7.6212  10.7039  11.3714  11.9724  12.2976  12.7895  13.3826  14.2809
    14.8691  15.5936

          k = 0.1875-0.0359 0.0000 (  5443 PWs)   bands (ev):

   -45.5807 -24.1110 -23.4997 -23.2993 -20.9767 -13.4131  -3.4474  -3.0539
    -2.8356  -1.6740  -0.8407  -0.1775   3.4703   5.3657   5.9309   6.0841
     6.8857   7.0745   8.5639   9.6443  11.8955  13.3226  13.8378  14.8881
    15.4356  16.8923

          k = 0.2500 0.1436 0.0000 (  5476 PWs)   bands (ev):

   -45.5589 -24.0559 -23.7141 -23.3370 -20.9471 -13.2425  -3.3869  -3.1348
    -2.8497  -1.9264  -1.3535  -0.3247   3.3183   5.6292   6.1616   6.4501
     7.2528   7.6465   9.2821  10.3025  12.0439  13.1288  13.7611  15.7113
    16.0951  16.7281

          k = 0.2500 0.2154 0.0000 (  5460 PWs)   bands (ev):

   -45.5491 -24.0503 -23.7713 -23.3680 -20.9393 -13.1624  -3.4155  -3.1070
    -2.8826  -2.1271  -1.4144  -0.4563   3.2917   5.7067   6.2293   6.8284
     7.3292   8.0034   9.5842  10.5907  12.0528  13.0206  13.9806  15.6403
    16.1235  16.4459

          k = 0.2500 0.2872 0.0000 (  5467 PWs)   bands (ev):

   -45.5376 -24.0650 -23.7942 -23.4272 -20.9314 -13.0644  -3.4352  -3.0676
    -2.9668  -2.3063  -1.4523  -0.7073   3.3550   5.7457   6.3699   7.0683
     7.5377   8.5750   9.9671  11.0000  12.2476  12.9125  14.0507  14.9852
    15.7846  16.3652

          k = 0.2500 0.3590 0.0000 (  5464 PWs)   bands (ev):

   -45.5260 -24.0949 -23.7825 -23.5045 -20.9254 -12.9624  -3.4518  -3.0976
    -3.0117  -2.4146  -1.4913  -1.0151   3.5018   5.8133   6.5756   7.0542
     7.7805   9.3867  10.4079  11.4825  12.5358  12.8060  14.0946  14.3664
    15.2334  16.0943

          k = 0.2500 0.4308 0.0000 (  5470 PWs)   bands (ev):

   -45.5162 -24.1208 -23.7577 -23.5831 -20.9219 -12.8725  -3.4862  -3.1900
    -2.9735  -2.4548  -1.5607  -1.2840   3.6863   5.9725   6.6641   7.1341
     7.7966  10.2997  10.8238  11.8822  12.6366  12.9509  14.0081  14.3398
    14.5872  15.5146

          k = 0.2500 0.5027 0.0000 (  5483 PWs)   bands (ev):

   -45.5097 -24.1345 -23.7367 -23.6429 -20.9206 -12.8106  -3.5406  -3.2193
    -2.9460  -2.4557  -1.6887  -1.4116   3.8389   6.2246   6.6181   7.2800
     7.6408  10.8340  11.3944  11.9943  12.8440  13.2125  13.5698  14.2488
    14.6128  15.3198

          k = 0.2500 0.5745 0.0000 (  5494 PWs)   bands (ev):

   -45.5073 -24.1381 -23.7286 -23.6656 -20.9203 -12.7885  -3.5672  -3.2200
    -2.9363  -2.4498  -1.7594  -1.4390   3.8977   6.3937   6.5867   7.2650
     7.5815  10.8469  12.0079  12.3238  12.3479  13.1096  13.6419  14.1819
    14.8024  15.5257

          k = 0.2500-0.0718 0.0000 (  5467 PWs)   bands (ev):

   -45.5654 -24.0671 -23.6527 -23.3319 -20.9528 -13.2946  -3.3576  -3.1464
    -2.8544  -1.7837  -1.2569  -0.3133   3.3929   5.4616   6.1068   6.3611
     7.1154   7.4702   9.0850  10.1346  12.2305  13.0994  13.5387  15.3212
    15.9908  16.6840

          k = 0.2500 0.0000 0.0000 (  5464 PWs)   bands (ev):

   -45.5677 -24.0720 -23.6252 -23.3350 -20.9549 -13.3126  -3.3446  -3.1477
    -2.8631  -1.7376  -1.1973  -0.3348   3.4342   5.3573   6.1275   6.3587
     7.0225   7.4279   9.0167  10.0788  12.4269  12.9129  13.5168  15.1283
    15.9954  16.6307

          k = 0.3125 0.1795 0.0000 (  5458 PWs)   bands (ev):

   -45.5422 -24.0717 -23.8000 -23.3686 -20.9398 -13.1059  -3.4865  -3.0781
    -2.8728  -2.3427  -1.4288  -0.4404   3.1989   5.8895   6.3899   6.9231
     7.4578   8.2195   9.7341  10.7099  11.9084  12.9252  14.4906  15.4279
    16.1508  16.3853

          k = 0.3125 0.2513 0.0000 (  5465 PWs)   bands (ev):

   -45.5337 -24.1050 -23.8016 -23.4013 -20.9373 -13.0323  -3.5234  -3.0589
    -2.9224  -2.5015  -1.4412  -0.5770   3.2079   6.0237   6.4346   7.1807
     7.6001   8.6482   9.9673  10.9700  12.0036  12.8697  14.6158  14.8457
    15.6538  16.3934

          k = 0.3125 0.3231 0.0000 (  5460 PWs)   bands (ev):

   -45.5244 -24.1339 -23.7833 -23.4675 -20.9323 -12.9498  -3.5212  -3.1020
    -2.9887  -2.5492  -1.4618  -0.8563   3.3419   6.1368   6.4747   7.2255
     7.7763   9.3868  10.3193  11.3780  12.2275  12.8635  14.1411  14.5640
    15.0695  16.2716

          k = 0.3125 0.3949 0.0000 (  5459 PWs)   bands (ev):

   -45.5159 -24.1444 -23.7580 -23.5558 -20.9262 -12.8708  -3.5059  -3.2124
    -2.9741  -2.5213  -1.5123  -1.1973   3.5753   6.1707   6.5977   7.2160
     7.7791  10.2902  10.7531  11.8245  12.4515  12.9313  13.7489  14.3732
    14.7325  15.9380

          k = 0.3125 0.4668 0.0000 (  5475 PWs)   bands (ev):

   -45.5093 -24.1349 -23.7357 -23.6450 -20.9210 -12.8085  -3.5417  -3.2201
    -2.9458  -2.4560  -1.6937  -1.4124   3.8402   6.2308   6.6159   7.2783
     7.6386  10.8422  11.3956  11.9863  12.8323  13.2197  13.6046  14.2376
    14.6276  15.3122

          k = 0.3125 0.5386 0.0000 (  5496 PWs)   bands (ev):

   -45.5057 -24.1191 -23.7231 -23.7049 -20.9180 -12.7741  -3.5910  -3.1724
    -2.9196  -2.3770  -1.9357  -1.4623   4.0259   6.3324   6.5839   7.1609
     7.6387  10.8734  11.9786  12.3076  13.2018  13.2767  13.5370  13.8955
    14.8128  15.5188

          k = 0.3125-0.1077 0.0000 (  5461 PWs)   bands (ev):

   -45.5488 -24.0508 -23.7729 -23.3674 -20.9398 -13.1605  -3.4165  -3.1071
    -2.8836  -2.1332  -1.4153  -0.4508   3.2875   5.7093   6.2268   6.8261
     7.3282   8.0079   9.5904  10.5942  12.0500  13.0188  13.9705  15.6367
    16.1373  16.4435

          k = 0.3125-0.0359 0.0000 (  5466 PWs)   bands (ev):

   -45.5523 -24.0438 -23.7420 -23.3798 -20.9390 -13.1894  -3.3444  -3.1429
    -2.9073  -1.9798  -1.4016  -0.5189   3.3858   5.4757   6.2381   6.7953
     7.2233   7.9242   9.5202  10.5495  12.4533  13.0503  13.3417  15.4121
    16.0390  16.9570

          k = 0.3750 0.2154 0.0000 (  5465 PWs)   bands (ev):

   -45.5281 -24.1533 -23.7955 -23.3951 -20.9422 -12.9843  -3.5951  -3.0621
    -2.8970  -2.6848  -1.4366  -0.5315   3.1179   6.1249   6.6802   7.2706
     7.7698   8.8514  10.0307  11.0383  11.9990  12.8465  14.1434  15.0198
    15.7235  15.9085

          k = 0.3750 0.2872 0.0000 (  5455 PWs)   bands (ev):

   -45.5218 -24.1865 -23.7791 -23.4265 -20.9418 -12.9280  -3.6156  -3.1046
    -2.9518  -2.7182  -1.4411  -0.6638   3.1629   6.2748   6.6920   7.3422
     7.9048   9.3789  10.2318  11.2684  12.1133  12.8608  13.6554  14.8054
    15.1442  15.8861

          k = 0.3750 0.3590 0.0000 (  5470 PWs)   bands (ev):

   -45.5155 -24.1942 -23.7587 -23.4943 -20.9363 -12.8699  -3.5798  -3.2218
    -2.9732  -2.6535  -1.4621  -0.9520   3.3451   6.4708   6.6025   7.3284
     7.8341  10.2097  10.5981  11.6128  12.2473  12.8530  13.3480  14.4061
    14.9040  15.7984

          k = 0.3750 0.4308 0.0000 (  5478 PWs)   bands (ev):

   -45.5102 -24.1747 -23.7399 -23.5839 -20.9281 -12.8192  -3.5395  -3.2871
    -2.9602  -2.5597  -1.5290  -1.2881   3.6199   6.5099   6.5824   7.3465
     7.6209  10.7231  11.3711  11.9523  12.3205  12.8023  13.4022  14.3051
    14.8830  15.6105

          k = 0.3750 0.5027 0.0000 (  5498 PWs)   bands (ev):

   -45.5067 -24.1402 -23.7270 -23.6679 -20.9212 -12.7845  -3.5694  -3.2225
    -2.9366  -2.4537  -1.7659  -1.4370   3.8966   6.4033   6.5857   7.2642
     7.5769  10.8638  11.9934  12.3413  12.3754  13.0796  13.6602  14.1912
    14.8007  15.5475

          k = 0.3750 0.5745 0.0000 (  5494 PWs)   bands (ev):

   -45.5054 -24.1210 -23.7226 -23.7046 -20.9185 -12.7723  -3.5920  -3.1743
    -2.9202  -2.3822  -1.9344  -1.4604   4.0230   6.3332   6.5868   7.1632
     7.6362  10.8823  11.9728  12.3478  13.1823  13.2829  13.4954  13.9218
    14.8197  15.5307

          k = 0.3750-0.1436 0.0000 (  5454 PWs)   bands (ev):

   -45.5334 -24.1069 -23.8017 -23.4003 -20.9379 -13.0306  -3.5249  -3.0587
    -2.9230  -2.5084  -1.4410  -0.5708   3.2031   6.0219   6.4303   7.1828
     7.6040   8.6549   9.9736  10.9740  12.0013  12.8693  14.6062  14.8342
    15.6727  16.3802

          k = 0.3750-0.0718 0.0000 (  5457 PWs)   bands (ev):

   -45.5369 -24.0678 -23.7953 -23.4259 -20.9324 -13.0607  -3.4377  -3.0671
    -2.9695  -2.3188  -1.4523  -0.6975   3.3471   5.7474   6.3653   7.0630
     7.5453   8.5849   9.9794  11.0068  12.2405  12.9105  14.0327  14.9932
    15.7793  16.3794

          k = 0.3750 0.0000 0.0000 (  5470 PWs)   bands (ev):

   -45.5382 -24.0530 -23.7886 -23.4409 -20.9300 -13.0712  -3.3929  -3.0789
    -2.9893  -2.2307  -1.4615  -0.7671   3.4230   5.5784   6.4264   6.9640
     7.5459   8.5661   9.9882  11.0218  12.5542  12.8870  13.5799  14.9325
    16.1947  16.2663

          k = 0.4375 0.2513 0.0000 (  5469 PWs)   bands (ev):

   -45.5186 -24.2260 -23.7699 -23.4127 -20.9478 -12.8998  -3.6784  -3.1218
    -2.9154  -2.8412  -1.4325  -0.5892   3.0800   6.3084   6.8663   7.4070
     8.1433   9.4983  10.2585  11.3129  12.0769  12.7528  13.3649  14.7215
    15.1833  15.3068

          k = 0.4375 0.3231 0.0000 (  5470 PWs)   bands (ev):

   -45.5153 -24.2369 -23.7588 -23.4399 -20.9464 -12.8696  -3.6720  -3.1881
    -2.9582  -2.7860  -1.4379  -0.7083   3.1471   6.4100   6.8630   7.3967
     8.1014  10.0069  10.4376  11.5124  12.0165  12.6043  13.3606  14.3923
    14.9678  15.2925

          k = 0.4375 0.3949 0.0000 (  5480 PWs)   bands (ev):

   -45.5123 -24.2175 -23.7480 -23.5033 -20.9385 -12.8407  -3.6016  -3.2757
    -2.9698  -2.6796  -1.4617  -0.9828   3.3474   6.5170   6.7708   7.3478
     7.8257  10.4968  10.9454  11.8126  11.9417  12.6124  13.3787  14.2080
    15.0405  15.2519

          k = 0.4375 0.4668 0.0000 (  5486 PWs)   bands (ev):

   -45.5100 -24.1765 -23.7396 -23.5831 -20.9286 -12.8179  -3.5401  -3.2892
    -2.9607  -2.5635  -1.5289  -1.2838   3.6167   6.4997   6.5897   7.3408
     7.6308  10.7293  11.4027  11.9574  12.2972  12.8000  13.4038  14.2989
    14.8793  15.6015

          k = 0.4375 0.5386 0.0000 (  5477 PWs)   bands (ev):

   -45.5088 -24.1387 -23.7349 -23.6437 -20.9219 -12.8054  -3.5429  -3.2247
    -2.9469  -2.4655  -1.6908  -1.4069   3.8338   6.2269   6.6232   7.2703
     7.6487  10.8540  11.4390  11.9800  12.8465  13.1969  13.5844  14.2467
    14.6241  15.3065

          k = 0.4375-0.1795 0.0000 (  5461 PWs)   bands (ev):

   -45.5216 -24.1882 -23.7788 -23.4257 -20.9422 -12.9268  -3.6171  -3.1044
    -2.9523  -2.7230  -1.4408  -0.6592   3.1593   6.2753   6.6820   7.3447
     7.9091   9.3907  10.2393  11.2713  12.1109  12.8632  13.6502  14.7899
    15.1582  15.8750

          k = 0.4375-0.1077 0.0000 (  5471 PWs)   bands (ev):

   -45.5239 -24.1377 -23.7829 -23.4658 -20.9333 -12.9468  -3.5238  -3.1028
    -2.9905  -2.5597  -1.4614  -0.8464   3.3340   6.1325   6.4729   7.2191
     7.7893   9.4024  10.3347  11.3851  12.2221  12.8667  14.1322  14.5464
    15.0676  16.2626

          k = 0.4375-0.0359 0.0000 (  5461 PWs)   bands (ev):

   -45.5252 -24.0998 -23.7821 -23.5031 -20.9268 -12.9574  -3.4549  -3.1011
    -3.0130  -2.4299  -1.4905  -1.0043   3.4923   5.8138   6.5770   7.0404
     7.7953   9.4040  10.4291  11.4912  12.5245  12.8063  14.0856  14.3643
    15.2208  16.1121

          k =-0.5000-0.2872 0.0000 (  5470 PWs)   bands (ev):

   -45.5152 -24.2530 -23.7587 -23.4189 -20.9506 -12.8695  -3.7113  -3.1645
    -2.9223  -2.8720  -1.4302  -0.6090   3.0703   6.3862   6.9118   7.4419
     8.3067   9.8612  10.3562  11.5553  11.8466  12.5092  13.4187  14.3654
    14.9750  15.1285

          k =-0.5000-0.2154 0.0000 (  5471 PWs)   bands (ev):

   -45.5152 -24.2375 -23.7587 -23.4396 -20.9465 -12.8692  -3.6726  -3.1881
    -2.9584  -2.7875  -1.4378  -0.7066   3.1457   6.4114   6.8563   7.3988
     8.1022  10.0168  10.4407  11.5147  12.0100  12.6049  13.3632  14.3876
    14.9596  15.2971

          k =-0.5000-0.1436 0.0000 (  5470 PWs)   bands (ev):

   -45.5153 -24.1966 -23.7583 -23.4931 -20.9369 -12.8682  -3.5816  -3.2232
    -2.9740  -2.6587  -1.4619  -0.9459   3.3404   6.4753   6.5891   7.3260
     7.8443  10.2251  10.6168  11.6175  12.2374  12.8557  13.3438  14.3961
    14.8960  15.7925

          k =-0.5000-0.0718 0.0000 (  5474 PWs)   bands (ev):

   -45.5153 -24.1489 -23.7572 -23.5539 -20.9274 -12.8673  -3.5079  -3.2169
    -2.9753  -2.5322  -1.5119  -1.1867   3.5671   6.1647   6.6040   7.2018
     7.7965  10.3068  10.7842  11.8310  12.4489  12.9315  13.7314  14.3654
    14.7163  15.9371

          k =-0.5000-0.0000 0.0000 (  5458 PWs)   bands (ev):

   -45.5153 -24.1263 -23.7563 -23.5824 -20.9235 -12.8670  -3.4886  -3.1967
    -2.9743  -2.4689  -1.5601  -1.2756   3.6779   5.9729   6.6726   7.1141
     7.8135  10.3195  10.8603  11.8823  12.6492  12.9287  14.0069  14.3418
    14.5802  15.5097

     highest occupied, lowest unoccupied level (ev):     4.0259    5.3411

!    total energy              =    -446.24494233 Ry
     total all-electron energy =     -8320.715222 Ry
     estimated scf accuracy    <          1.4E-09 Ry

     The total energy is the sum of the following terms:
     one-electron contribution =    -304.91332922 Ry
     hartree contribution      =     160.64847951 Ry
     xc contribution           =     -38.52283107 Ry
     ewald contribution        =       3.16808912 Ry
     one-center paw contrib.   =    -266.62535067 Ry

     convergence has been achieved in   9 iterations

     negative rho (up, down):  8.571E-05 0.000E+00

     Forces acting on atoms (cartesian axes, Ry/au):

     atom    1 type  1   force =     0.00000000    0.00033901   -0.00023335
     atom    2 type  2   force =     0.00000000   -0.00006284    0.00194646
     atom    3 type  3   force =     0.00000000   -0.00027617   -0.00171311
     The non-local contrib.  to forces
     atom    1 type  1   force =     0.00000000    0.00124591   -0.02146708
     atom    2 type  2   force =     0.00000000    0.00699994   -1.09497966
     atom    3 type  3   force =     0.00000000    0.00019077    0.22242705
     The ionic contribution  to forces
     atom    1 type  1   force =    -0.00000001    0.05945328   -0.36175042
     atom    2 type  2   force =     0.00000001   -0.03960258   26.87350469
     atom    3 type  3   force =     0.00000000   -0.01985070  -26.51175427
     The local contribution  to forces
     atom    1 type  1   force =    -0.00000000   -0.06031764    0.37910719
     atom    2 type  2   force =     0.00000027    0.03256449  -25.78024207
     atom    3 type  3   force =     0.00000003    0.01933683   26.29483760
     The core correction contribution to forces
     atom    1 type  1   force =    -0.00000000   -0.00003975    0.00370585
     atom    2 type  2   force =     0.00000000   -0.00002165    0.00352172
     atom    3 type  3   force =    -0.00000000    0.00005014   -0.00729219
     The Hubbard contrib.    to forces
     atom    1 type  1   force =     0.00000000    0.00000000    0.00000000
     atom    2 type  2   force =     0.00000000    0.00000000    0.00000000
     atom    3 type  3   force =     0.00000000    0.00000000    0.00000000
     The SCF correction term to forces
     atom    1 type  1   force =    -0.00000000   -0.00000016    0.00009145
     atom    2 type  2   force =     0.00000000   -0.00000040    0.00006211
     atom    3 type  3   force =     0.00000000   -0.00000056   -0.00001096

     Total force =     0.002641     Total SCF correction =     0.000111

     BFGS Geometry Optimization
     Energy error            =      0.0E+00 Ry
     Gradient error          =      1.9E-03 Ry/Bohr

     number of scf cycles    =   1
     number of bfgs steps    =   0

     energy             new  =    -446.2449423257 Ry

     new trust radius        =       0.0019474757 bohr
     new conv_thr            =       0.0000000100 Ry


ATOMIC_POSITIONS (angstrom)
Zr            0.0000000000        0.0001793938        9.5702403569
F            -0.0000000020        1.8814771019       10.9043613451
Cl           -0.0000000020        1.8813642129        7.8115732065



     Writing config-only to output data dir ./tmp/ZrFCl.save/
     NEW-OLD atomic charge density approx. for the potential

     Check: negative core charge=   -0.000005

     negative rho (up, down):  8.560E-05 0.000E+00

     total cpu time spent up to now is       16.1 secs

     Self-consistent Calculation

     iteration #  1     ecut=    65.00 Ry     beta= 0.70
     Davidson diagonalization with overlap
     ethr =  1.00E-06,  avg # of iterations =  2.0

     Threshold (ethr) on eigenvalues was too large:
     Diagonalizing with lowered threshold

     Davidson diagonalization with overlap
     ethr =  2.18E-09,  avg # of iterations =  4.0

     negative rho (up, down):  8.539E-05 0.000E+00

     total cpu time spent up to now is       19.1 secs

     total energy              =    -446.24494826 Ry
     estimated scf accuracy    <       0.00000067 Ry

     iteration #  2     ecut=    65.00 Ry     beta= 0.70
     Davidson diagonalization with overlap
     ethr =  2.57E-09,  avg # of iterations =  2.0

     negative rho (up, down):  8.551E-05 0.000E+00

     total cpu time spent up to now is       20.5 secs

     total energy              =    -446.24494829 Ry
     estimated scf accuracy    <       0.00000108 Ry

     iteration #  3     ecut=    65.00 Ry     beta= 0.70
     Davidson diagonalization with overlap
     ethr =  2.57E-09,  avg # of iterations =  1.9

     negative rho (up, down):  8.554E-05 0.000E+00

     total cpu time spent up to now is       21.7 secs

     total energy              =    -446.24494853 Ry
     estimated scf accuracy    <       0.00000007 Ry

     iteration #  4     ecut=    65.00 Ry     beta= 0.70
     Davidson diagonalization with overlap
     ethr =  2.70E-10,  avg # of iterations =  2.0

     negative rho (up, down):  8.555E-05 0.000E+00

     total cpu time spent up to now is       22.9 secs

     End of self-consistent calculation

          k = 0.0000 0.0000 0.0000 (  5423 PWs)   bands (ev):

   -45.6056 -24.1853 -23.2589 -23.2504 -21.0330 -13.5713  -3.6704  -2.8197
    -2.8084  -1.7036   0.0223   0.0517   3.4663   5.4605   5.5253   5.8305
     6.6985   6.7282   7.7757   8.6725  11.0384  13.6980  14.5519  14.6301
    15.5003  17.1945

          k = 0.0000 0.0718 0.0000 (  5443 PWs)   bands (ev):

   -45.6024 -24.1740 -23.3001 -23.2566 -21.0220 -13.5480  -3.6324  -2.8633
    -2.8088  -1.6913  -0.1367   0.0227   3.4755   5.4186   5.5835   5.9164
     6.6644   6.7757   7.8996   8.8644  11.1656  13.7777  14.2763  14.7317
    15.3018  17.2070

          k = 0.0000 0.1436 0.0000 (  5443 PWs)   bands (ev):

   -45.5932 -24.1424 -23.4122 -23.2742 -20.9953 -13.4804  -3.5310  -2.9732
    -2.8115  -1.6732  -0.5441  -0.0572   3.4758   5.3609   5.7618   6.0273
     6.7633   6.9037   8.2418   9.3046  11.5355  13.6506  13.9456  14.9866
    15.0341  17.1109

          k = 0.0000 0.2154 0.0000 (  5468 PWs)   bands (ev):

   -45.5796 -24.0979 -23.5659 -23.3005 -20.9664 -13.3760  -3.4101  -3.0987
    -2.8198  -1.7037  -1.0381  -0.1694   3.4170   5.4143   6.0578   6.0638
     7.0778   7.1351   8.7319   9.8105  12.0051  13.1911  13.7217  15.1742
    15.5254  16.9507

          k = 0.0000 0.2872 0.0000 (  5484 PWs)   bands (ev):

   -45.5634 -24.0596 -23.7185 -23.3312 -20.9461 -13.2478  -3.3852  -3.1358
    -2.8358  -1.9334  -1.3606  -0.2917   3.2998   5.6200   6.1514   6.4762
     7.2663   7.6368   9.2652  10.2964  12.0376  13.1106  13.7369  15.6925
    16.1331  16.7640

          k = 0.0000 0.3590 0.0000 (  5452 PWs)   bands (ev):

   -45.5471 -24.0745 -23.8046 -23.3617 -20.9382 -13.1131  -3.4848  -3.0774
    -2.8578  -2.3479  -1.4355  -0.4045   3.1796   5.8888   6.3780   6.9385
     7.4704   8.2064   9.7162  10.7063  11.8999  12.9086  14.4490  15.3856
    16.1884  16.3564

          k = 0.0000 0.4308 0.0000 (  5468 PWs)   bands (ev):

   -45.5332 -24.1543 -23.8016 -23.3874 -20.9401 -12.9934  -3.5941  -3.0588
    -2.8809  -2.6875  -1.4441  -0.4935   3.0982   6.1263   6.6720   7.2799
     7.7756   8.8336  10.0151  11.0347  11.9819  12.8254  14.0958  14.9833
    15.7669  15.8601

          k = 0.0000 0.5027 0.0000 (  5478 PWs)   bands (ev):

   -45.5240 -24.2260 -23.7769 -23.4045 -20.9453 -12.9103  -3.6784  -3.1159
    -2.8985  -2.8419  -1.4408  -0.5499   3.0601   6.3083   6.8651   7.4169
     8.1367   9.4749  10.2461  11.3035  12.0489  12.7181  13.3393  14.6902
    15.1383  15.3559

          k = 0.0000-0.5745 0.0000 (  5478 PWs)   bands (ev):

   -45.5207 -24.2526 -23.7660 -23.4104 -20.9479 -12.8804  -3.7118  -3.1578
    -2.9050  -2.8719  -1.4387  -0.5692   3.0502   6.3845   6.9146   7.4522
     8.2944   9.8328  10.3495  11.5421  11.8066  12.4784  13.3975  14.3394
    14.9285  15.1821

          k = 0.0625 0.0359 0.0000 (  5447 PWs)   bands (ev):

   -45.6023 -24.1739 -23.2946 -23.2628 -21.0219 -13.5476  -3.6321  -2.8560
    -2.8168  -1.6908  -0.1171   0.0008   3.4770   5.4539   5.5441   5.9186
     6.6795   6.7564   7.9020   8.8675  11.1673  13.7786  14.3197  14.6763
    15.3093  17.1681

          k = 0.0625 0.1077 0.0000 (  5438 PWs)   bands (ev):

   -45.5961 -24.1523 -23.3736 -23.2723 -21.0032 -13.5021  -3.5619  -2.9362
    -2.8150  -1.6756  -0.4056  -0.0484   3.4831   5.3689   5.6981   6.0173
     6.6990   6.8613   8.1345   9.1776  11.4194  13.7932  13.9711  14.8303
    15.1263  17.0937

          k = 0.0625 0.1795 0.0000 (  5440 PWs)   bands (ev):

   -45.5847 -24.1139 -23.5047 -23.2960 -20.9757 -13.4160  -3.4462  -3.0547
    -2.8234  -1.6776  -0.8488  -0.1559   3.4589   5.3356   5.9694   6.0763
     6.9018   7.0661   8.5513   9.6371  11.8844  13.3091  13.8250  14.8961
    15.4632  16.9090

          k = 0.0625 0.2513 0.0000 (  5481 PWs)   bands (ev):

   -45.5698 -24.0706 -23.6559 -23.3280 -20.9516 -13.2994  -3.3558  -3.1467
    -2.8417  -1.7881  -1.2615  -0.2895   3.3793   5.4446   6.1068   6.3841
     7.1301   7.4593   9.0675  10.1274  12.2235  13.0843  13.5281  15.3203
    16.0085  16.6944

          k = 0.0625 0.3231 0.0000 (  5466 PWs)   bands (ev):

   -45.5536 -24.0537 -23.7759 -23.3626 -20.9382 -13.1673  -3.4138  -3.1068
    -2.8701  -2.1349  -1.4204  -0.4243   3.2732   5.7033   6.2239   6.8388
     7.3392   7.9956   9.5704  10.5883  12.0481  13.0061  13.9489  15.6181
    16.1257  16.4313

          k = 0.0625 0.3949 0.0000 (  5465 PWs)   bands (ev):

   -45.5385 -24.1074 -23.8069 -23.3946 -20.9358 -13.0392  -3.5223  -3.0563
    -2.9100  -2.5066  -1.4476  -0.5412   3.1883   6.0233   6.4254   7.1895
     7.6082   8.6378   9.9536  10.9706  11.9928  12.8537  14.5600  14.8146
    15.6657  16.3680

          k = 0.0625 0.4668 0.0000 (  5460 PWs)   bands (ev):

   -45.5269 -24.1876 -23.7854 -23.4190 -20.9397 -12.9368  -3.6154  -3.0975
    -2.9436  -2.7170  -1.4484  -0.6266   3.1434   6.2764   6.6814   7.3521
     7.9035   9.3656  10.2213  11.2672  12.0926  12.8377  13.6156  14.7770
    15.1364  15.8735

          k = 0.0625 0.5386 0.0000 (  5480 PWs)   bands (ev):

   -45.5206 -24.2368 -23.7658 -23.4322 -20.9438 -12.8797  -3.6722  -3.1799
    -2.9510  -2.7796  -1.4459  -0.6714   3.1283   6.4097   6.8596   7.4066
     8.0902   9.9850  10.4330  11.5031  11.9802  12.5731  13.3437  14.3690
    14.9358  15.3136

          k = 0.1250 0.0718 0.0000 (  5438 PWs)   bands (ev):

   -45.5930 -24.1417 -23.4076 -23.2814 -20.9952 -13.4790  -3.5300  -2.9669
    -2.8202  -1.6716  -0.5270  -0.0825   3.4817   5.3906   5.7183   6.0339
     6.7713   6.8850   8.2493   9.3114  11.5422  13.6665  13.9628  14.9786
    14.9990  17.0743

          k = 0.1250 0.1436 0.0000 (  5454 PWs)   bands (ev):

   -45.5845 -24.1134 -23.5026 -23.3001 -20.9756 -13.4150  -3.4456  -3.0518
    -2.8279  -1.6762  -0.8401  -0.1711   3.4640   5.3416   5.9524   6.0815
     6.9018   7.0605   8.5560   9.6405  11.8892  13.3170  13.8313  14.8961
    15.4457  16.8935

          k = 0.1250 0.2154 0.0000 (  5469 PWs)   bands (ev):

   -45.5719 -24.0750 -23.6265 -23.3349 -20.9536 -13.3164  -3.3428  -3.1455
    -2.8540  -1.7393  -1.1948  -0.3270   3.4280   5.3376   6.1319   6.3744
     7.0338   7.4170   9.0023  10.0731  12.4178  12.9138  13.5121  15.1315
    15.9982  16.6290

          k = 0.1250 0.2872 0.0000 (  5466 PWs)   bands (ev):

   -45.5569 -24.0463 -23.7429 -23.3789 -20.9373 -13.1952  -3.3404  -3.1417
    -2.8971  -1.9763  -1.4026  -0.5090   3.3800   5.4637   6.2423   6.8041
     7.2287   7.9137   9.5013  10.5433  12.4601  13.0452  13.3330  15.4042
    16.0204  16.9311

          k = 0.1250 0.3590 0.0000 (  5452 PWs)   bands (ev):

   -45.5418 -24.0676 -23.7986 -23.4239 -20.9303 -13.0683  -3.4332  -3.0650
    -2.9589  -2.3117  -1.4563  -0.6841   3.3409   5.7420   6.3667   7.0704
     7.5414   8.5703   9.9574  11.0017  12.2460  12.9055  14.0186  14.9704
    15.7541  16.3619

          k = 0.1250 0.4308 0.0000 (  5463 PWs)   bands (ev):

   -45.5290 -24.1358 -23.7885 -23.4625 -20.9307 -12.9557  -3.5197  -3.0931
    -2.9866  -2.5508  -1.4668  -0.8284   3.3262   6.1319   6.4702   7.2292
     7.7775   9.3800  10.3100  11.3844  12.2190  12.8528  14.1033  14.5289
    15.0548  16.2466

          k = 0.1250 0.5027 0.0000 (  5473 PWs)   bands (ev):

   -45.5205 -24.1948 -23.7648 -23.4886 -20.9341 -12.8776  -3.5787  -3.2133
    -2.9702  -2.6496  -1.4680  -0.9231   3.3299   6.4734   6.5885   7.3353
     7.8294  10.1941  10.5952  11.6200  12.2254  12.8282  13.3232  14.3889
    14.8752  15.7824

          k = 0.1250 0.5745 0.0000 (  5484 PWs)   bands (ev):

   -45.5174 -24.2167 -23.7546 -23.4979 -20.9359 -12.8497  -3.6000  -3.2666
    -2.9659  -2.6721  -1.4680  -0.9560   3.3343   6.5151   6.7661   7.3558
     7.8136  10.4685  10.9456  11.8161  11.9036  12.5905  13.3651  14.1849
    15.0086  15.2600

          k = 0.1250 0.0000 0.0000 (  5443 PWs)   bands (ev):

   -45.5959 -24.1519 -23.3698 -23.2779 -21.0031 -13.5011  -3.5612  -2.9305
    -2.8225  -1.6744  -0.3930  -0.0664   3.4863   5.4046   5.6530   6.0225
     6.6958   6.8549   8.1407   9.1832  11.4241  13.8035  13.9917  14.7952
    15.1194  17.0717

          k = 0.1875 0.1077 0.0000 (  5453 PWs)   bands (ev):

   -45.5790 -24.0965 -23.5628 -23.3085 -20.9662 -13.3731  -3.4087  -3.0937
    -2.8290  -1.6998  -1.0260  -0.1981   3.4286   5.4304   6.0235   6.0663
     7.0592   7.1429   8.7442   9.8182  12.0153  13.2064  13.7353  15.1873
    15.4776  16.9139

          k = 0.1875 0.1795 0.0000 (  5466 PWs)   bands (ev):

   -45.5693 -24.0693 -23.6536 -23.3347 -20.9516 -13.2968  -3.3548  -3.1431
    -2.8487  -1.7828  -1.2537  -0.3144   3.3907   5.4463   6.1065   6.3703
     7.1196   7.4622   9.0767  10.1319  12.2276  13.1006  13.5384  15.3298
    15.9800  16.6763

          k = 0.1875 0.2513 0.0000 (  5470 PWs)   bands (ev):

   -45.5566 -24.0455 -23.7419 -23.3825 -20.9374 -13.1936  -3.3397  -3.1406
    -2.9005  -1.9722  -1.4003  -0.5225   3.3867   5.4622   6.2423   6.8005
     7.2223   7.9158   9.5057  10.5445  12.4574  13.0513  13.3465  15.4091
    16.0164  16.9601

          k = 0.1875 0.3231 0.0000 (  5471 PWs)   bands (ev):

   -45.5428 -24.0521 -23.7903 -23.4433 -20.9279 -13.0770  -3.3870  -3.0768
    -2.9812  -2.2178  -1.4632  -0.7704   3.4255   5.5686   6.4300   6.9690
     7.5364   8.5536   9.9681  11.0153  12.5678  12.8910  13.5758  14.9176
    16.1633  16.2650

          k = 0.1875 0.3949 0.0000 (  5465 PWs)   bands (ev):

   -45.5300 -24.0966 -23.7864 -23.5044 -20.9243 -12.9645  -3.4491  -3.0911
    -3.0108  -2.4163  -1.4932  -1.0045   3.4941   5.8073   6.5733   7.0521
     7.7789   9.3844  10.4016  11.4862  12.5379  12.8045  14.0755  14.3482
    15.2082  16.1076

          k = 0.1875 0.4668 0.0000 (  5469 PWs)   bands (ev):

   -45.5202 -24.1456 -23.7627 -23.5537 -20.9247 -12.8750  -3.5028  -3.2068
    -2.9725  -2.5209  -1.5136  -1.1824   3.5659   6.1604   6.5968   7.2156
     7.7775  10.2828  10.7464  11.8366  12.4542  12.9233  13.7084  14.3583
    14.7035  15.9497

          k = 0.1875 0.5386 0.0000 (  5480 PWs)   bands (ev):

   -45.5148 -24.1746 -23.7454 -23.5813 -20.9260 -12.8252  -3.5353  -3.2814
    -2.9578  -2.5556  -1.5284  -1.2753   3.6117   6.4932   6.5841   7.3506
     7.6158  10.7020  11.3700  11.9721  12.2958  12.7884  13.3824  14.2805
    14.8680  15.5926

          k = 0.1875-0.0359 0.0000 (  5443 PWs)   bands (ev):

   -45.5842 -24.1128 -23.5025 -23.3025 -20.9756 -13.4135  -3.4448  -3.0501
    -2.8318  -1.6749  -0.8402  -0.1767   3.4660   5.3603   5.9267   6.0819
     6.8836   7.0725   8.5635   9.6451  11.8945  13.3202  13.8368  14.8875
    15.4337  16.8897

          k = 0.2500 0.1436 0.0000 (  5476 PWs)   bands (ev):

   -45.5624 -24.0575 -23.7168 -23.3403 -20.9462 -13.2428  -3.3837  -3.1323
    -2.8459  -1.9263  -1.3546  -0.3239   3.3149   5.6244   6.1581   6.4464
     7.2489   7.6458   9.2804  10.3030  12.0423  13.1268  13.7605  15.7115
    16.0940  16.7256

          k = 0.2500 0.2154 0.0000 (  5460 PWs)   bands (ev):

   -45.5527 -24.0517 -23.7742 -23.3712 -20.9384 -13.1627  -3.4122  -3.1046
    -2.8789  -2.1269  -1.4157  -0.4556   3.2885   5.7019   6.2257   6.8251
     7.3246   8.0026   9.5820  10.5913  12.0515  13.0185  13.9800  15.6396
    16.1229  16.4461

          k = 0.2500 0.2872 0.0000 (  5467 PWs)   bands (ev):

   -45.5412 -24.0663 -23.7972 -23.4303 -20.9305 -13.0646  -3.4320  -3.0651
    -2.9634  -2.3061  -1.4536  -0.7068   3.3521   5.7406   6.3665   7.0648
     7.5333   8.5741   9.9641  11.0008  12.2465  12.9109  14.0497  14.9832
    15.7849  16.3647

          k = 0.2500 0.3590 0.0000 (  5464 PWs)   bands (ev):

   -45.5296 -24.0961 -23.7856 -23.5075 -20.9245 -12.9625  -3.4487  -3.0946
    -3.0092  -2.4144  -1.4924  -1.0150   3.4992   5.8081   6.5719   7.0503
     7.7765   9.3861  10.4041  11.4834  12.5346  12.8053  14.0932  14.3636
    15.2341  16.0940

          k = 0.2500 0.4308 0.0000 (  5470 PWs)   bands (ev):

   -45.5198 -24.1220 -23.7607 -23.5861 -20.9211 -12.8726  -3.4832  -3.1874
    -2.9710  -2.4545  -1.5613  -1.2846   3.6838   5.9679   6.6596   7.1302
     7.7923  10.3000  10.8199  11.8824  12.6360  12.9489  14.0060  14.3386
    14.5878  15.5157

          k = 0.2500 0.5027 0.0000 (  5483 PWs)   bands (ev):

   -45.5132 -24.1356 -23.7398 -23.6459 -20.9197 -12.8107  -3.5375  -3.2170
    -2.9436  -2.4553  -1.6888  -1.4129   3.8364   6.2212   6.6132   7.2754
     7.6358  10.8322  11.3939  11.9932  12.8429  13.2107  13.5699  14.2485
    14.6118  15.3209

          k = 0.2500 0.5745 0.0000 (  5494 PWs)   bands (ev):

   -45.5109 -24.1392 -23.7317 -23.6686 -20.9194 -12.7886  -3.5641  -3.2178
    -2.9339  -2.4494  -1.7594  -1.4403   3.8951   6.3917   6.5816   7.2591
     7.5767  10.8447  12.0063  12.3251  12.3477  13.1073  13.6410  14.1812
    14.8026  15.5253

          k = 0.2500-0.0718 0.0000 (  5467 PWs)   bands (ev):

   -45.5689 -24.0688 -23.6553 -23.3351 -20.9518 -13.2949  -3.3545  -3.1434
    -2.8507  -1.7839  -1.2576  -0.3126   3.3894   5.4561   6.1040   6.3572
     7.1122   7.4691   9.0837  10.1353  12.2287  13.0977  13.5372  15.3219
    15.9894  16.6819

          k = 0.2500 0.0000 0.0000 (  5464 PWs)   bands (ev):

   -45.5712 -24.0737 -23.6278 -23.3382 -20.9539 -13.3129  -3.3418  -3.1444
    -2.8595  -1.7380  -1.1976  -0.3341   3.4308   5.3516   6.1249   6.3549
     7.0195   7.4266   9.0155  10.0796  12.4256  12.9105  13.5150  15.1292
    15.9938  16.6284

          k = 0.3125 0.1795 0.0000 (  5458 PWs)   bands (ev):

   -45.5458 -24.0730 -23.8029 -23.3718 -20.9388 -13.1061  -3.4833  -3.0758
    -2.8692  -2.3425  -1.4302  -0.4397   3.1957   5.8858   6.3852   6.9199
     7.4533   8.2182   9.7314  10.7102  11.9075  12.9233  14.4901  15.4287
    16.1492  16.3848

          k = 0.3125 0.2513 0.0000 (  5465 PWs)   bands (ev):

   -45.5373 -24.1062 -23.8046 -23.4045 -20.9364 -13.0325  -3.5203  -3.0567
    -2.9189  -2.5013  -1.4426  -0.5764   3.2048   6.0200   6.4302   7.1773
     7.5956   8.6466   9.9643  10.9704  12.0027  12.8682  14.6150  14.8464
    15.6524  16.3916

          k = 0.3125 0.3231 0.0000 (  5460 PWs)   bands (ev):

   -45.5280 -24.1351 -23.7863 -23.4706 -20.9314 -12.9499  -3.5183  -3.0994
    -2.9861  -2.5488  -1.4630  -0.8560   3.3390   6.1327   6.4705   7.2215
     7.7721   9.3855  10.3160  11.3784  12.2261  12.8626  14.1409  14.5630
    15.0686  16.2695

          k = 0.3125 0.3949 0.0000 (  5459 PWs)   bands (ev):

   -45.5194 -24.1455 -23.7610 -23.5588 -20.9254 -12.8709  -3.5029  -3.2100
    -2.9717  -2.5208  -1.5132  -1.1975   3.5728   6.1666   6.5931   7.2120
     7.7745  10.2901  10.7494  11.8248  12.4495  12.9305  13.7486  14.3724
    14.7317  15.9380

          k = 0.3125 0.4668 0.0000 (  5475 PWs)   bands (ev):

   -45.5129 -24.1360 -23.7388 -23.6480 -20.9201 -12.8085  -3.5386  -3.2178
    -2.9434  -2.4557  -1.6939  -1.4136   3.8379   6.2275   6.6108   7.2738
     7.6336  10.8404  11.3950  11.9854  12.8310  13.2181  13.6046  14.2372
    14.6266  15.3132

          k = 0.3125 0.5386 0.0000 (  5496 PWs)   bands (ev):

   -45.5093 -24.1201 -23.7262 -23.7080 -20.9172 -12.7741  -3.5878  -3.1700
    -2.9172  -2.3767  -1.9359  -1.4636   4.0237   6.3306   6.5785   7.1545
     7.6338  10.8711  11.9771  12.3087  13.2029  13.2773  13.5341  13.8932
    14.8131  15.5185

          k = 0.3125-0.1077 0.0000 (  5461 PWs)   bands (ev):

   -45.5523 -24.0522 -23.7757 -23.3706 -20.9389 -13.1607  -3.4132  -3.1047
    -2.8801  -2.1329  -1.4167  -0.4501   3.2845   5.7045   6.2231   6.8229
     7.3239   8.0068   9.5880  10.5946  12.0488  13.0168  13.9698  15.6364
    16.1365  16.4436

          k = 0.3125-0.0359 0.0000 (  5466 PWs)   bands (ev):

   -45.5559 -24.0453 -23.7447 -23.3830 -20.9381 -13.1897  -3.3410  -3.1404
    -2.9039  -1.9795  -1.4028  -0.5184   3.3830   5.4700   6.2349   6.7925
     7.2190   7.9232   9.5179  10.5502  12.4518  13.0482  13.3406  15.4121
    16.0379  16.9563

          k = 0.3750 0.2154 0.0000 (  5465 PWs)   bands (ev):

   -45.5317 -24.1544 -23.7985 -23.3983 -20.9412 -12.9844  -3.5923  -3.0602
    -2.8935  -2.6845  -1.4379  -0.5309   3.1147   6.1214   6.6760   7.2671
     7.7656   8.8485  10.0282  11.0383  11.9979  12.8453  14.1440  15.0201
    15.7215  15.9064

          k = 0.3750 0.2872 0.0000 (  5455 PWs)   bands (ev):

   -45.5254 -24.1877 -23.7821 -23.4296 -20.9408 -12.9281  -3.6129  -3.1028
    -2.9489  -2.7173  -1.4424  -0.6634   3.1597   6.2710   6.6882   7.3382
     7.9006   9.3758  10.2299  11.2680  12.1119  12.8603  13.6561  14.8050
    15.1425  15.8841

          k = 0.3750 0.3590 0.0000 (  5470 PWs)   bands (ev):

   -45.5191 -24.1953 -23.7617 -23.4974 -20.9353 -12.8700  -3.5771  -3.2198
    -2.9708  -2.6525  -1.4632  -0.9518   3.3421   6.4667   6.5991   7.3243
     7.8293  10.2074  10.5960  11.6124  12.2454  12.8531  13.3484  14.4051
    14.9030  15.7967

          k = 0.3750 0.4308 0.0000 (  5478 PWs)   bands (ev):

   -45.5138 -24.1758 -23.7430 -23.5870 -20.9272 -12.8192  -3.5366  -3.2850
    -2.9579  -2.5590  -1.5297  -1.2886   3.6172   6.5073   6.5775   7.3423
     7.6153  10.7211  11.3697  11.9521  12.3187  12.8016  13.4020  14.3045
    14.8820  15.6100

          k = 0.3750 0.5027 0.0000 (  5498 PWs)   bands (ev):

   -45.5103 -24.1412 -23.7301 -23.6709 -20.9204 -12.7846  -3.5664  -3.2202
    -2.9343  -2.4533  -1.7661  -1.4381   3.8943   6.4014   6.5802   7.2585
     7.5718  10.8616  11.9919  12.3419  12.3759  13.0771  13.6594  14.1903
    14.8011  15.5470

          k = 0.3750 0.5745 0.0000 (  5494 PWs)   bands (ev):

   -45.5090 -24.1219 -23.7257 -23.7077 -20.9177 -12.7723  -3.5889  -3.1719
    -2.9179  -2.3819  -1.9347  -1.4616   4.0209   6.3314   6.5813   7.1569
     7.6312  10.8801  11.9713  12.3489  13.1833  13.2837  13.4921  13.9194
    14.8202  15.5305

          k = 0.3750-0.1436 0.0000 (  5454 PWs)   bands (ev):

   -45.5370 -24.1080 -23.8047 -23.4035 -20.9370 -13.0307  -3.5219  -3.0565
    -2.9197  -2.5081  -1.4424  -0.5703   3.2001   6.0182   6.4258   7.1796
     7.5997   8.6530   9.9706  10.9742  12.0005  12.8677  14.6053  14.8350
    15.6713  16.3787

          k = 0.3750-0.0718 0.0000 (  5457 PWs)   bands (ev):

   -45.5405 -24.0689 -23.7982 -23.4291 -20.9316 -13.0609  -3.4346  -3.0647
    -2.9663  -2.3185  -1.4536  -0.6972   3.3444   5.7422   6.3615   7.0599
     7.5413   8.5836   9.9761  11.0073  12.2395  12.9089  14.0316  14.9913
    15.7798  16.3790

          k = 0.3750 0.0000 0.0000 (  5470 PWs)   bands (ev):

   -45.5418 -24.0543 -23.7915 -23.4441 -20.9292 -13.0714  -3.3896  -3.0764
    -2.9862  -2.2304  -1.4628  -0.7669   3.4206   5.5727   6.4227   6.9610
     7.5420   8.5650   9.9849  11.0225  12.5531  12.8858  13.5783  14.9304
    16.1950  16.2664

          k = 0.4375 0.2513 0.0000 (  5469 PWs)   bands (ev):

   -45.5222 -24.2272 -23.7730 -23.4159 -20.9468 -12.8999  -3.6758  -3.1207
    -2.9120  -2.8401  -1.4338  -0.5887   3.0767   6.3043   6.8631   7.4028
     8.1399   9.4931  10.2578  11.3117  12.0758  12.7531  13.3653  14.7215
    15.1816  15.3045

          k = 0.4375 0.3231 0.0000 (  5470 PWs)   bands (ev):

   -45.5189 -24.2380 -23.7619 -23.4431 -20.9454 -12.8696  -3.6695  -3.1868
    -2.9555  -2.7844  -1.4392  -0.7079   3.1438   6.4055   6.8604   7.3924
     8.0972  10.0019  10.4369  11.5110  12.0163  12.6040  13.3610  14.3914
    14.9667  15.2907

          k = 0.4375 0.3949 0.0000 (  5480 PWs)   bands (ev):

   -45.5159 -24.2186 -23.7511 -23.5064 -20.9375 -12.8407  -3.5990  -3.2739
    -2.9674  -2.6784  -1.4628  -0.9827   3.3444   6.5122   6.7686   7.3436
     7.8204  10.4941  10.9430  11.8108  11.9433  12.6108  13.3790  14.2073
    15.0389  15.2512

          k = 0.4375 0.4668 0.0000 (  5486 PWs)   bands (ev):

   -45.5136 -24.1776 -23.7427 -23.5862 -20.9277 -12.8180  -3.5372  -3.2872
    -2.9584  -2.5628  -1.5296  -1.2843   3.6141   6.4968   6.5849   7.3365
     7.6253  10.7274  11.4013  11.9570  12.2955  12.7990  13.4035  14.2985
    14.8784  15.6008

          k = 0.4375 0.5386 0.0000 (  5477 PWs)   bands (ev):

   -45.5124 -24.1397 -23.7381 -23.6467 -20.9211 -12.8055  -3.5399  -3.2225
    -2.9445  -2.4651  -1.6910  -1.4080   3.8316   6.2235   6.6180   7.2659
     7.6436  10.8525  11.4383  11.9788  12.8450  13.1950  13.5845  14.2463
    14.6236  15.3077

          k = 0.4375-0.1795 0.0000 (  5461 PWs)   bands (ev):

   -45.5252 -24.1893 -23.7819 -23.4288 -20.9413 -12.9269  -3.6144  -3.1027
    -2.9494  -2.7220  -1.4421  -0.6587   3.1561   6.2715   6.6780   7.3408
     7.9053   9.3873  10.2375  11.2707  12.1095  12.8627  13.6509  14.7896
    15.1564  15.8732

          k = 0.4375-0.1077 0.0000 (  5471 PWs)   bands (ev):

   -45.5275 -24.1388 -23.7859 -23.4689 -20.9324 -12.9469  -3.5209  -3.1005
    -2.9878  -2.5591  -1.4626  -0.8462   3.3313   6.1283   6.4685   7.2153
     7.7856   9.4007  10.3314  11.3852  12.2207  12.8657  14.1320  14.5455
    15.0667  16.2610

          k = 0.4375-0.0359 0.0000 (  5461 PWs)   bands (ev):

   -45.5288 -24.1009 -23.7851 -23.5062 -20.9259 -12.9575  -3.4519  -3.0984
    -3.0106  -2.4295  -1.4916  -1.0044   3.4900   5.8086   6.5727   7.0368
     7.7916   9.4032  10.4252  11.4917  12.5234  12.8054  14.0843  14.3615
    15.2215  16.1122

          k =-0.5000-0.2872 0.0000 (  5470 PWs)   bands (ev):

   -45.5188 -24.2541 -23.7618 -23.4221 -20.9496 -12.8696  -3.7089  -3.1637
    -2.9188  -2.8706  -1.4314  -0.6084   3.0669   6.3816   6.9092   7.4375
     8.3035   9.8549  10.3556  11.5533  11.8480  12.5085  13.4194  14.3643
    14.9743  15.1261

          k =-0.5000-0.2154 0.0000 (  5471 PWs)   bands (ev):

   -45.5188 -24.2386 -23.7617 -23.4427 -20.9455 -12.8692  -3.6701  -3.1869
    -2.9557  -2.7859  -1.4390  -0.7062   3.1425   6.4069   6.8535   7.3945
     8.0982  10.0117  10.4400  11.5134  12.0099  12.6045  13.3636  14.3869
    14.9582  15.2955

          k =-0.5000-0.1436 0.0000 (  5470 PWs)   bands (ev):

   -45.5188 -24.1977 -23.7613 -23.4963 -20.9359 -12.8683  -3.5789  -3.2213
    -2.9715  -2.6577  -1.4630  -0.9457   3.3375   6.4712   6.5854   7.3218
     7.8398  10.2227  10.6149  11.6169  12.2353  12.8556  13.3440  14.3955
    14.8949  15.7910

          k =-0.5000-0.0718 0.0000 (  5474 PWs)   bands (ev):

   -45.5189 -24.1500 -23.7603 -23.5570 -20.9265 -12.8674  -3.5050  -3.2146
    -2.9729  -2.5316  -1.5128  -1.1870   3.5646   6.1606   6.5992   7.1977
     7.7923  10.3066  10.7807  11.8309  12.4466  12.9304  13.7312  14.3648
    14.7156  15.9372

          k =-0.5000-0.0000 0.0000 (  5458 PWs)   bands (ev):

   -45.5189 -24.1273 -23.7594 -23.5855 -20.9226 -12.8670  -3.4856  -3.1943
    -2.9719  -2.4685  -1.5607  -1.2763   3.6757   5.9682   6.6676   7.1103
     7.8093  10.3199  10.8563  11.8821  12.6489  12.9259  14.0054  14.3406
    14.5810  15.5110

     highest occupied, lowest unoccupied level (ev):     4.0237    5.3356

!    total energy              =    -446.24494854 Ry
     total all-electron energy =     -8320.715228 Ry
     estimated scf accuracy    <          7.1E-09 Ry

     The total energy is the sum of the following terms:
     one-electron contribution =    -304.71761183 Ry
     hartree contribution      =     160.54965060 Ry
     xc contribution           =     -38.52193337 Ry
     ewald contribution        =       3.07026506 Ry
     one-center paw contrib.   =    -266.62531900 Ry

     convergence has been achieved in   4 iterations

     negative rho (up, down):  8.555E-05 0.000E+00

     Forces acting on atoms (cartesian axes, Ry/au):

     atom    1 type  1   force =     0.00000000    0.00024551   -0.00002132
     atom    2 type  2   force =     0.00000000   -0.00003430    0.00146831
     atom    3 type  3   force =     0.00000000   -0.00021121   -0.00144698
     The non-local contrib.  to forces
     atom    1 type  1   force =     0.00000000    0.00117834   -0.02146265
     atom    2 type  2   force =     0.00000000    0.00688747   -1.09624896
     atom    3 type  3   force =     0.00000000    0.00021961    0.22260945
     The ionic contribution  to forces
     atom    1 type  1   force =    -0.00000001    0.05790845   -0.36583420
     atom    2 type  2   force =     0.00000001   -0.03866065   26.86756482
     atom    3 type  3   force =     0.00000000   -0.01924780  -26.50173063
     The local contribution  to forces
     atom    1 type  1   force =    -0.00000000   -0.05879879    0.38396942
     atom    2 type  2   force =     0.00000027    0.03176327  -25.77334953
     atom    3 type  3   force =     0.00000003    0.01877109   26.28490028
     The core correction contribution to forces
     atom    1 type  1   force =    -0.00000000   -0.00003911    0.00371029
     atom    2 type  2   force =     0.00000000   -0.00002136    0.00352755
     atom    3 type  3   force =    -0.00000000    0.00004809   -0.00729673
     The Hubbard contrib.    to forces
     atom    1 type  1   force =     0.00000000    0.00000000    0.00000000
     atom    2 type  2   force =     0.00000000    0.00000000    0.00000000
     atom    3 type  3   force =     0.00000000    0.00000000    0.00000000
     The SCF correction term to forces
     atom    1 type  1   force =    -0.00000000   -0.00000094   -0.00044910
     atom    2 type  2   force =    -0.00000000   -0.00000059   -0.00007049
     atom    3 type  3   force =     0.00000000    0.00000024    0.00002574

     Total force =     0.002087     Total SCF correction =     0.000455
     SCF correction compared to forces is large: reduce conv_thr to get better values
     Energy error            =      6.2E-06 Ry
     Gradient error          =      1.5E-03 Ry/Bohr

     number of scf cycles    =   2
     number of bfgs steps    =   1

     energy             old  =    -446.2449423257 Ry
     energy             new  =    -446.2449485399 Ry

     CASE: energy            _new < energy            _old

     new trust radius        =       0.0021422233 bohr
     new conv_thr            =            1.0E-10 Ry


ATOMIC_POSITIONS (angstrom)
Zr            0.0000000000        0.0003691646        9.5702197027
F            -0.0000000020        1.8814502715       10.9054946433
Cl           -0.0000000020        1.8812012725        7.8104605625



     Writing config-only to output data dir ./tmp/ZrFCl.save/
     NEW-OLD atomic charge density approx. for the potential

     Check: negative core charge=   -0.000005

     negative rho (up, down):  8.531E-05 0.000E+00

     total cpu time spent up to now is       23.4 secs

     Self-consistent Calculation

     iteration #  1     ecut=    65.00 Ry     beta= 0.70
     Davidson diagonalization with overlap
     ethr =  1.00E-06,  avg # of iterations =  2.0

     Threshold (ethr) on eigenvalues was too large:
     Diagonalizing with lowered threshold

     Davidson diagonalization with overlap
     ethr =  3.04E-09,  avg # of iterations =  4.0

     negative rho (up, down):  8.515E-05 0.000E+00

     total cpu time spent up to now is       26.4 secs

     total energy              =    -446.24495353 Ry
     estimated scf accuracy    <       0.00000091 Ry

     iteration #  2     ecut=    65.00 Ry     beta= 0.70
     Davidson diagonalization with overlap
     ethr =  3.49E-09,  avg # of iterations =  2.0

     negative rho (up, down):  8.528E-05 0.000E+00

     total cpu time spent up to now is       27.7 secs

     total energy              =    -446.24495351 Ry
     estimated scf accuracy    <       0.00000201 Ry

     iteration #  3     ecut=    65.00 Ry     beta= 0.70
     Davidson diagonalization with overlap
     ethr =  3.49E-09,  avg # of iterations =  1.9

     negative rho (up, down):  8.534E-05 0.000E+00

     total cpu time spent up to now is       28.9 secs

     total energy              =    -446.24495394 Ry
     estimated scf accuracy    <       0.00000006 Ry

     iteration #  4     ecut=    65.00 Ry     beta= 0.70
     Davidson diagonalization with overlap
     ethr =  2.35E-10,  avg # of iterations =  2.0

     negative rho (up, down):  8.534E-05 0.000E+00

     total cpu time spent up to now is       30.1 secs

     total energy              =    -446.24495395 Ry
     estimated scf accuracy    <          5.4E-09 Ry

     iteration #  5     ecut=    65.00 Ry     beta= 0.70
     Davidson diagonalization with overlap
     ethr =  2.06E-11,  avg # of iterations =  2.0

     negative rho (up, down):  8.535E-05 0.000E+00

     total cpu time spent up to now is       31.4 secs

     total energy              =    -446.24495395 Ry
     estimated scf accuracy    <          1.3E-09 Ry

     iteration #  6     ecut=    65.00 Ry     beta= 0.70
     Davidson diagonalization with overlap
     ethr =  4.96E-12,  avg # of iterations =  2.0

     negative rho (up, down):  8.535E-05 0.000E+00

     total cpu time spent up to now is       32.7 secs

     End of self-consistent calculation

          k = 0.0000 0.0000 0.0000 (  5423 PWs)   bands (ev):

   -45.6098 -24.1874 -23.2628 -23.2542 -21.0311 -13.5718  -3.6677  -2.8152
    -2.8036  -1.7047   0.0239   0.0538   3.4594   5.4548   5.5202   5.8299
     6.6965   6.7248   7.7769   8.6731  11.0384  13.7014  14.5493  14.6275
    15.4906  17.1911

          k = 0.0000 0.0718 0.0000 (  5443 PWs)   bands (ev):

   -45.6066 -24.1762 -23.3039 -23.2605 -21.0202 -13.5484  -3.6296  -2.8589
    -2.8040  -1.6924  -0.1353   0.0248   3.4689   5.4128   5.5785   5.9158
     6.6624   6.7722   7.9006   8.8651  11.1654  13.7809  14.2735  14.7291
    15.2932  17.2040

          k = 0.0000 0.1436 0.0000 (  5443 PWs)   bands (ev):

   -45.5975 -24.1445 -23.4158 -23.2781 -20.9937 -13.4807  -3.5280  -2.9691
    -2.8068  -1.6742  -0.5431  -0.0551   3.4699   5.3548   5.7570   6.0263
     6.7618   6.8998   8.2422   9.3056  11.5349  13.6483  13.9462  14.9814
    15.0318  17.1079

          k = 0.0000 0.2154 0.0000 (  5468 PWs)   bands (ev):

   -45.5838 -24.1000 -23.5692 -23.3043 -20.9649 -13.3763  -3.4069  -3.0950
    -2.8152  -1.7044  -1.0378  -0.1675   3.4119   5.4080   6.0559   6.0593
     7.0734   7.1341   8.7314   9.8116  12.0036  13.1890  13.7195  15.1733
    15.5235  16.9476

          k = 0.0000 0.2872 0.0000 (  5484 PWs)   bands (ev):

   -45.5676 -24.0616 -23.7218 -23.3350 -20.9447 -13.2479  -3.3815  -3.1328
    -2.8313  -1.9331  -1.3618  -0.2899   3.2953   5.6145   6.1483   6.4721
     7.2613   7.6359   9.2634  10.2973  12.0356  13.1076  13.7362  15.6924
    16.1321  16.7605

          k = 0.0000 0.3590 0.0000 (  5452 PWs)   bands (ev):

   -45.5513 -24.0763 -23.8081 -23.3655 -20.9369 -13.1132  -3.4812  -3.0746
    -2.8534  -2.3475  -1.4370  -0.4029   3.1753   5.8846   6.3737   6.9347
     7.4650   8.2048   9.7131  10.7070  11.8988  12.9054  14.4488  15.3860
    16.1863  16.3558

          k = 0.0000 0.4308 0.0000 (  5468 PWs)   bands (ev):

   -45.5375 -24.1560 -23.8051 -23.3911 -20.9387 -12.9934  -3.5909  -3.0563
    -2.8766  -2.6868  -1.4457  -0.4920   3.0939   6.1226   6.6677   7.2754
     7.7707   8.8303  10.0123  11.0351  11.9805  12.8232  14.0967  14.9835
    15.7643  15.8574

          k = 0.0000 0.5027 0.0000 (  5478 PWs)   bands (ev):

   -45.5282 -24.2277 -23.7805 -23.4082 -20.9439 -12.9102  -3.6755  -3.1143
    -2.8942  -2.8404  -1.4423  -0.5485   3.0556   6.3041   6.8616   7.4117
     8.1326   9.4694  10.2450  11.3024  12.0472  12.7180  13.3398  14.6897
    15.1363  15.3531

          k = 0.0000-0.5745 0.0000 (  5478 PWs)   bands (ev):

   -45.5250 -24.2543 -23.7696 -23.4142 -20.9464 -12.8803  -3.7091  -3.1566
    -2.9007  -2.8699  -1.4401  -0.5679   3.0457   6.3800   6.9115   7.4467
     8.2906   9.8264  10.3484  11.5391  11.8084  12.4773  13.3986  14.3371
    14.9280  15.1793

          k = 0.0625 0.0359 0.0000 (  5447 PWs)   bands (ev):

   -45.6065 -24.1760 -23.2983 -23.2667 -21.0201 -13.5480  -3.6293  -2.8514
    -2.8122  -1.6919  -0.1154   0.0025   3.4704   5.4484   5.5388   5.9179
     6.6768   6.7537   7.9030   8.8681  11.1672  13.7817  14.3167  14.6737
    15.3011  17.1651

          k = 0.0625 0.1077 0.0000 (  5438 PWs)   bands (ev):

   -45.6004 -24.1545 -23.3772 -23.2761 -21.0015 -13.5025  -3.5590  -2.9319
    -2.8104  -1.6766  -0.4043  -0.0464   3.4770   5.3630   5.6931   6.0164
     6.6971   6.8579   8.1351   9.1784  11.4189  13.7923  13.9710  14.8270
    15.1210  17.0901

          k = 0.0625 0.1795 0.0000 (  5440 PWs)   bands (ev):

   -45.5890 -24.1161 -23.5081 -23.2998 -20.9742 -13.4164  -3.4431  -3.0507
    -2.8188  -1.6784  -0.8481  -0.1540   3.4536   5.3293   5.9648   6.0747
     6.8993   7.0634   8.5511   9.6382  11.8834  13.3063  13.8235  14.8948
    15.4608  16.9059

          k = 0.0625 0.2513 0.0000 (  5481 PWs)   bands (ev):

   -45.5740 -24.0727 -23.6592 -23.3318 -20.9503 -13.2996  -3.3522  -3.1433
    -2.8372  -1.7881  -1.2621  -0.2878   3.3747   5.4384   6.1043   6.3799
     7.1256   7.4581   9.0662  10.1285  12.2214  13.0822  13.5258  15.3207
    16.0071  16.6912

          k = 0.0625 0.3231 0.0000 (  5466 PWs)   bands (ev):

   -45.5578 -24.0556 -23.7793 -23.3664 -20.9369 -13.1674  -3.4101  -3.1039
    -2.8658  -2.1344  -1.4218  -0.4227   3.2691   5.6978   6.2206   6.8350
     7.3339   7.9945   9.5678  10.5891  12.0466  13.0028  13.9483  15.6175
    16.1249  16.4313

          k = 0.0625 0.3949 0.0000 (  5465 PWs)   bands (ev):

   -45.5427 -24.1092 -23.8104 -23.3983 -20.9344 -13.0393  -3.5188  -3.0535
    -2.9058  -2.5060  -1.4491  -0.5399   3.1842   6.0191   6.4212   7.1854
     7.6031   8.6357   9.9502  10.9712  11.9917  12.8510  14.5598  14.8146
    15.6638  16.3663

          k = 0.0625 0.4668 0.0000 (  5460 PWs)   bands (ev):

   -45.5312 -24.1893 -23.7889 -23.4227 -20.9383 -12.9368  -3.6123  -3.0952
    -2.9400  -2.7155  -1.4499  -0.6254   3.1392   6.2724   6.6773   7.3472
     7.8988   9.3620  10.2191  11.2670  12.0907  12.8365  13.6165  14.7763
    15.1345  15.8710

          k = 0.0625 0.5386 0.0000 (  5480 PWs)   bands (ev):

   -45.5249 -24.2384 -23.7693 -23.4359 -20.9424 -12.8796  -3.6694  -3.1782
    -2.9476  -2.7774  -1.4473  -0.6702   3.1240   6.4052   6.8565   7.4013
     8.0854   9.9799  10.4317  11.5016  11.9798  12.5725  13.3442  14.3674
    14.9347  15.3112

          k = 0.1250 0.0718 0.0000 (  5438 PWs)   bands (ev):

   -45.5972 -24.1439 -23.4111 -23.2852 -20.9936 -13.4794  -3.5271  -2.9625
    -2.8157  -1.6725  -0.5257  -0.0808   3.4760   5.3848   5.7132   6.0325
     6.7693   6.8820   8.2496   9.3122  11.5415  13.6642  13.9631  14.9759
    14.9949  17.0715

          k = 0.1250 0.1436 0.0000 (  5454 PWs)   bands (ev):

   -45.5888 -24.1156 -23.5059 -23.3039 -20.9741 -13.4153  -3.4426  -3.0477
    -2.8235  -1.6770  -0.8394  -0.1694   3.4589   5.3354   5.9476   6.0797
     6.8993   7.0580   8.5557   9.6415  11.8881  13.3142  13.8299  14.8949
    15.4434  16.8905

          k = 0.1250 0.2154 0.0000 (  5469 PWs)   bands (ev):

   -45.5761 -24.0771 -23.6297 -23.3387 -20.9522 -13.3166  -3.3394  -3.1419
    -2.8497  -1.7395  -1.1951  -0.3254   3.4236   5.3311   6.1294   6.3704
     7.0296   7.4156   9.0011  10.0743  12.4162  12.9111  13.5095  15.1322
    15.9967  16.6259

          k = 0.1250 0.2872 0.0000 (  5466 PWs)   bands (ev):

   -45.5611 -24.0483 -23.7462 -23.3826 -20.9360 -13.1953  -3.3366  -3.1387
    -2.8929  -1.9758  -1.4038  -0.5077   3.3762   5.4573   6.2395   6.8004
     7.2234   7.9127   9.4989  10.5444  12.4583  13.0420  13.3317  15.4040
    16.0194  16.9302

          k = 0.1250 0.3590 0.0000 (  5452 PWs)   bands (ev):

   -45.5461 -24.0693 -23.8021 -23.4276 -20.9290 -13.0683  -3.4296  -3.0620
    -2.9548  -2.3112  -1.4577  -0.6830   3.3373   5.7362   6.3633   7.0662
     7.5366   8.5690   9.9539  11.0026  12.2449  12.9028  14.0173  14.9684
    15.7542  16.3618

          k = 0.1250 0.4308 0.0000 (  5463 PWs)   bands (ev):

   -45.5333 -24.1375 -23.7921 -23.4662 -20.9294 -12.9556  -3.5165  -3.0900
    -2.9833  -2.5499  -1.4681  -0.8275   3.3225   6.1271   6.4661   7.2243
     7.7727   9.3783  10.3062  11.3850  12.2174  12.8510  14.1031  14.5276
    15.0536  16.2448

          k = 0.1250 0.5027 0.0000 (  5473 PWs)   bands (ev):

   -45.5247 -24.1965 -23.7684 -23.4922 -20.9328 -12.8775  -3.5757  -3.2108
    -2.9671  -2.6481  -1.4692  -0.9223   3.3260   6.4690   6.5846   7.3302
     7.8239  10.1917  10.5927  11.6196  12.2229  12.8278  13.3236  14.3876
    14.8742  15.7803

          k = 0.1250 0.5745 0.0000 (  5484 PWs)   bands (ev):

   -45.5217 -24.2184 -23.7582 -23.5015 -20.9345 -12.8495  -3.5971  -3.2642
    -2.9629  -2.6703  -1.4691  -0.9553   3.3303   6.5103   6.7634   7.3505
     7.8075  10.4660  10.9424  11.8136  11.9055  12.5885  13.3656  14.1837
    15.0075  15.2582

          k = 0.1250 0.0000 0.0000 (  5443 PWs)   bands (ev):

   -45.6002 -24.1540 -23.3734 -23.2818 -21.0014 -13.5015  -3.5583  -2.9260
    -2.8181  -1.6754  -0.3914  -0.0649   3.4804   5.3990   5.6477   6.0213
     6.6933   6.8524   8.1411   9.1839  11.4236  13.8029  13.9911  14.7922
    15.1143  17.0685

          k = 0.1875 0.1077 0.0000 (  5453 PWs)   bands (ev):

   -45.5832 -24.0987 -23.5660 -23.3123 -20.9648 -13.3734  -3.4056  -3.0898
    -2.8247  -1.7003  -1.0256  -0.1966   3.4240   5.4242   6.0188   6.0639
     7.0555   7.1416   8.7435   9.8191  12.0137  13.2042  13.7334  15.1868
    15.4758  16.9112

          k = 0.1875 0.1795 0.0000 (  5466 PWs)   bands (ev):

   -45.5735 -24.0714 -23.6568 -23.3384 -20.9502 -13.2970  -3.3513  -3.1397
    -2.8445  -1.7827  -1.2543  -0.3129   3.3866   5.4400   6.1035   6.3661
     7.1154   7.4611   9.0753  10.1328  12.2254  13.0985  13.5364  15.3301
    15.9787  16.6732

          k = 0.1875 0.2513 0.0000 (  5470 PWs)   bands (ev):

   -45.5608 -24.0475 -23.7452 -23.3863 -20.9361 -13.1937  -3.3359  -3.1375
    -2.8964  -1.9716  -1.4015  -0.5212   3.3831   5.4557   6.2393   6.7969
     7.2171   7.9148   9.5032  10.5455  12.4554  13.0484  13.3453  15.4087
    16.0155  16.9590

          k = 0.1875 0.3231 0.0000 (  5471 PWs)   bands (ev):

   -45.5470 -24.0538 -23.7938 -23.4469 -20.9266 -13.0771  -3.3833  -3.0738
    -2.9773  -2.2173  -1.4644  -0.7695   3.4224   5.5621   6.4266   6.9648
     7.5317   8.5526   9.9644  11.0165  12.5665  12.8887  13.5740  14.9150
    16.1637  16.2650

          k = 0.1875 0.3949 0.0000 (  5465 PWs)   bands (ev):

   -45.5342 -24.0982 -23.7900 -23.5080 -20.9230 -12.9645  -3.4457  -3.0876
    -3.0078  -2.4158  -1.4943  -1.0040   3.4910   5.8015   6.5692   7.0474
     7.7743   9.3836  10.3972  11.4872  12.5368  12.8029  14.0735  14.3454
    15.2087  16.1076

          k = 0.1875 0.4668 0.0000 (  5469 PWs)   bands (ev):

   -45.5244 -24.1473 -23.7663 -23.5572 -20.9234 -12.8749  -3.4994  -3.2038
    -2.9695  -2.5201  -1.5143  -1.1823   3.5627   6.1557   6.5919   7.2107
     7.7722  10.2825  10.7424  11.8369  12.4519  12.9220  13.7080  14.3573
    14.7024  15.9499

          k = 0.1875 0.5386 0.0000 (  5480 PWs)   bands (ev):

   -45.5191 -24.1762 -23.7491 -23.5849 -20.9248 -12.8251  -3.5319  -3.2788
    -2.9549  -2.5545  -1.5289  -1.2757   3.6083   6.4900   6.5789   7.3456
     7.6092  10.6999  11.3684  11.9719  12.2938  12.7871  13.3822  14.2798
    14.8669  15.5916

          k = 0.1875-0.0359 0.0000 (  5443 PWs)   bands (ev):

   -45.5885 -24.1150 -23.5058 -23.3064 -20.9741 -13.4138  -3.4418  -3.0460
    -2.8275  -1.6756  -0.8394  -0.1752   3.4612   5.3542   5.9219   6.0796
     6.8814   7.0701   8.5631   9.6460  11.8935  13.3172  13.8355  14.8867
    15.4313  16.8870

          k = 0.2500 0.1436 0.0000 (  5476 PWs)   bands (ev):

   -45.5667 -24.0595 -23.7200 -23.3441 -20.9449 -13.2430  -3.3800  -3.1292
    -2.8417  -1.9257  -1.3558  -0.3225   3.3111   5.6187   6.1545   6.4422
     7.2445   7.6447   9.2784  10.3035  12.0403  13.1241  13.7599  15.7118
    16.0929  16.7226

          k = 0.2500 0.2154 0.0000 (  5460 PWs)   bands (ev):

   -45.5569 -24.0536 -23.7775 -23.3750 -20.9371 -13.1628  -3.4084  -3.1017
    -2.8748  -2.1263  -1.4172  -0.4543   3.2849   5.6963   6.2219   6.8212
     7.3196   8.0015   9.5791  10.5918  12.0499  13.0157  13.9794  15.6387
    16.1222  16.4463

          k = 0.2500 0.2872 0.0000 (  5467 PWs)   bands (ev):

   -45.5454 -24.0680 -23.8007 -23.4340 -20.9293 -13.0646  -3.4284  -3.0622
    -2.9595  -2.3056  -1.4549  -0.7059   3.3489   5.7346   6.3626   7.0607
     7.5284   8.5729   9.9603  11.0016  12.2452  12.9087  14.0486  14.9809
    15.7852  16.3646

          k = 0.2500 0.3590 0.0000 (  5464 PWs)   bands (ev):

   -45.5339 -24.0977 -23.7892 -23.5112 -20.9233 -12.9625  -3.4452  -3.0911
    -3.0062  -2.4139  -1.4934  -1.0146   3.4963   5.8022   6.5674   7.0458
     7.7718   9.3854  10.3996  11.4845  12.5331  12.8042  14.0915  14.3605
    15.2347  16.0940

          k = 0.2500 0.4308 0.0000 (  5470 PWs)   bands (ev):

   -45.5241 -24.1235 -23.7644 -23.5897 -20.9198 -12.8725  -3.4796  -3.1843
    -2.9681  -2.4539  -1.5617  -1.2851   3.6811   5.9626   6.6542   7.1257
     7.7870  10.3003  10.8152  11.8828  12.6352  12.9465  14.0037  14.3370
    14.5884  15.5169

          k = 0.2500 0.5027 0.0000 (  5483 PWs)   bands (ev):

   -45.5175 -24.1371 -23.7434 -23.6495 -20.9185 -12.8105  -3.5339  -3.2142
    -2.9407  -2.4546  -1.6885  -1.4141   3.8337   6.2172   6.6075   7.2703
     7.6295  10.8302  11.3933  11.9923  12.8414  13.2085  13.5699  14.2481
    14.6105  15.3221

          k = 0.2500 0.5745 0.0000 (  5494 PWs)   bands (ev):

   -45.5152 -24.1407 -23.7354 -23.6722 -20.9182 -12.7884  -3.5605  -3.2151
    -2.9311  -2.4487  -1.7592  -1.4416   3.8923   6.3893   6.5755   7.2528
     7.5703  10.8422  12.0048  12.3265  12.3474  13.1045  13.6400  14.1803
    14.8027  15.5251

          k = 0.2500-0.0718 0.0000 (  5467 PWs)   bands (ev):

   -45.5732 -24.0709 -23.6585 -23.3390 -20.9505 -13.2951  -3.3511  -3.1400
    -2.8465  -1.7837  -1.2581  -0.3112   3.3855   5.4498   6.1010   6.3530
     7.1085   7.4677   9.0821  10.1361  12.2266  13.0955  13.5353  15.3227
    15.9878  16.6792

          k = 0.2500 0.0000 0.0000 (  5464 PWs)   bands (ev):

   -45.5755 -24.0759 -23.6310 -23.3421 -20.9525 -13.3132  -3.3385  -3.1407
    -2.8554  -1.7380  -1.1978  -0.3328   3.4269   5.3451   6.1219   6.3508
     7.0161   7.4250   9.0141  10.0806  12.4241  12.9076  13.5127  15.1304
    15.9919  16.6259

          k = 0.3125 0.1795 0.0000 (  5458 PWs)   bands (ev):

   -45.5501 -24.0747 -23.8064 -23.3756 -20.9375 -13.1061  -3.4797  -3.0730
    -2.8651  -2.3419  -1.4317  -0.4384   3.1922   5.8812   6.3804   6.9162
     7.4482   8.2164   9.7280  10.7104  11.9065  12.9207  14.4897  15.4296
    16.1474  16.3844

          k = 0.3125 0.2513 0.0000 (  5465 PWs)   bands (ev):

   -45.5415 -24.1078 -23.8082 -23.4082 -20.9351 -13.0324  -3.5168  -3.0540
    -2.9151  -2.5007  -1.4440  -0.5752   3.2013   6.0154   6.4255   7.1732
     7.5906   8.6445   9.9606  10.9707  12.0017  12.8661  14.6142  14.8471
    15.6508  16.3898

          k = 0.3125 0.3231 0.0000 (  5460 PWs)   bands (ev):

   -45.5323 -24.1367 -23.7899 -23.4743 -20.9301 -12.9498  -3.5149  -3.0963
    -2.9830  -2.5481  -1.4642  -0.8553   3.3358   6.1277   6.4658   7.2169
     7.7673   9.3838  10.3120  11.3789  12.2246  12.8615  14.1406  14.5617
    15.0677  16.2676

          k = 0.3125 0.3949 0.0000 (  5459 PWs)   bands (ev):

   -45.5237 -24.1471 -23.7647 -23.5624 -20.9241 -12.8707  -3.4995  -3.2070
    -2.9688  -2.5201  -1.5139  -1.1975   3.5699   6.1619   6.5877   7.2073
     7.7691  10.2899  10.7450  11.8253  12.4472  12.9295  13.7483  14.3712
    14.7308  15.9382

          k = 0.3125 0.4668 0.0000 (  5475 PWs)   bands (ev):

   -45.5172 -24.1374 -23.7425 -23.6516 -20.9189 -12.8084  -3.5350  -3.2150
    -2.9406  -2.4551  -1.6938  -1.4147   3.8353   6.2235   6.6049   7.2688
     7.6271  10.8383  11.3943  11.9846  12.8295  13.2162  13.6046  14.2367
    14.6254  15.3145

          k = 0.3125 0.5386 0.0000 (  5496 PWs)   bands (ev):

   -45.5136 -24.1214 -23.7299 -23.7116 -20.9160 -12.7739  -3.5842  -3.1671
    -2.9144  -2.3762  -1.9361  -1.4648   4.0212   6.3284   6.5720   7.1476
     7.6275  10.8685  11.9757  12.3099  13.2040  13.2780  13.5306  13.8905
    14.8133  15.5183

          k = 0.3125-0.1077 0.0000 (  5461 PWs)   bands (ev):

   -45.5566 -24.0541 -23.7790 -23.3744 -20.9376 -13.1608  -3.4095  -3.1018
    -2.8761  -2.1322  -1.4181  -0.4489   3.2811   5.6988   6.2191   6.8193
     7.3191   8.0054   9.5850  10.5950  12.0473  13.0140  13.9691  15.6360
    16.1358  16.4438

          k = 0.3125-0.0359 0.0000 (  5466 PWs)   bands (ev):

   -45.5601 -24.0473 -23.7480 -23.3868 -20.9368 -13.1898  -3.3372  -3.1374
    -2.9000  -1.9787  -1.4040  -0.5174   3.3798   5.4634   6.2313   6.7892
     7.2144   7.9218   9.5151  10.5510  12.4499  13.0454  13.3393  15.4122
    16.0368  16.9556

          k = 0.3750 0.2154 0.0000 (  5465 PWs)   bands (ev):

   -45.5359 -24.1560 -23.8021 -23.4021 -20.9399 -12.9844  -3.5889  -3.0578
    -2.8896  -2.6839  -1.4393  -0.5298   3.1111   6.1169   6.6713   7.2628
     7.7610   8.8449  10.0253  11.0381  11.9966  12.8438  14.1447  15.0204
    15.7193  15.9040

          k = 0.3750 0.2872 0.0000 (  5455 PWs)   bands (ev):

   -45.5297 -24.1892 -23.7857 -23.4334 -20.9395 -12.9280  -3.6097  -3.1005
    -2.9456  -2.7161  -1.4437  -0.6624   3.1562   6.2663   6.6840   7.3334
     7.8959   9.3720  10.2276  11.2674  12.1102  12.8596  13.6569  14.8045
    15.1408  15.8818

          k = 0.3750 0.3590 0.0000 (  5470 PWs)   bands (ev):

   -45.5234 -24.1969 -23.7654 -23.5010 -20.9340 -12.8698  -3.5740  -3.2173
    -2.9679  -2.6513  -1.4643  -0.9512   3.3387   6.4615   6.5952   7.3194
     7.8237  10.2047  10.5936  11.6117  12.2431  12.8531  13.3488  14.4038
    14.9021  15.7948

          k = 0.3750 0.4308 0.0000 (  5478 PWs)   bands (ev):

   -45.5181 -24.1773 -23.7467 -23.5906 -20.9260 -12.8190  -3.5332  -3.2825
    -2.9552  -2.5581  -1.5302  -1.2889   3.6142   6.5042   6.5716   7.3373
     7.6086  10.7187  11.3681  11.9519  12.3167  12.8007  13.4018  14.3036
    14.8810  15.6094

          k = 0.3750 0.5027 0.0000 (  5498 PWs)   bands (ev):

   -45.5146 -24.1426 -23.7338 -23.6745 -20.9191 -12.7844  -3.5628  -3.2175
    -2.9315  -2.4527  -1.7661  -1.4393   3.8917   6.3991   6.5738   7.2523
     7.5652  10.8591  11.9905  12.3425  12.3764  13.0742  13.6585  14.1890
    14.8014  15.5467

          k = 0.3750 0.5745 0.0000 (  5494 PWs)   bands (ev):

   -45.5133 -24.1232 -23.7295 -23.7114 -20.9165 -12.7721  -3.5853  -3.1691
    -2.9150  -2.3813  -1.9349  -1.4628   4.0185   6.3292   6.5748   7.1502
     7.6246  10.8776  11.9698  12.3502  13.1845  13.2845  13.4882  13.9164
    14.8207  15.5304

          k = 0.3750-0.1436 0.0000 (  5454 PWs)   bands (ev):

   -45.5412 -24.1096 -23.8083 -23.4073 -20.9357 -13.0307  -3.5184  -3.0539
    -2.9159  -2.5074  -1.4438  -0.5692   3.1967   6.0135   6.4209   7.1758
     7.5949   8.6505   9.9669  10.9744  11.9995  12.8657  14.6043  14.8358
    15.6697  16.3772

          k = 0.3750-0.0718 0.0000 (  5457 PWs)   bands (ev):

   -45.5448 -24.0706 -23.8017 -23.4328 -20.9303 -13.0609  -3.4310  -3.0618
    -2.9626  -2.3178  -1.4549  -0.6964   3.3415   5.7362   6.3573   7.0562
     7.5368   8.5819   9.9722  11.0078  12.2384  12.9068  14.0304  14.9891
    15.7802  16.3790

          k = 0.3750 0.0000 0.0000 (  5470 PWs)   bands (ev):

   -45.5460 -24.0559 -23.7950 -23.4478 -20.9279 -13.0714  -3.3860  -3.0734
    -2.9826  -2.2297  -1.4640  -0.7663   3.4179   5.5662   6.4185   6.9575
     7.5376   8.5636   9.9809  11.0233  12.5517  12.8842  13.5765  14.9278
    16.1956  16.2664

          k = 0.4375 0.2513 0.0000 (  5469 PWs)   bands (ev):

   -45.5264 -24.2287 -23.7766 -23.4197 -20.9455 -12.8998  -3.6729  -3.1192
    -2.9081  -2.8387  -1.4351  -0.5876   3.0730   6.2992   6.8594   7.3977
     8.1360   9.4871  10.2569  11.3102  12.0744  12.7533  13.3657  14.7213
    15.1798  15.3021

          k = 0.4375 0.3231 0.0000 (  5470 PWs)   bands (ev):

   -45.5232 -24.2395 -23.7655 -23.4468 -20.9440 -12.8695  -3.6666  -3.1852
    -2.9523  -2.7826  -1.4403  -0.7070   3.1402   6.4001   6.8573   7.3872
     8.0925   9.9962  10.4361  11.5093  12.0161  12.6037  13.3616  14.3901
    14.9656  15.2887

          k = 0.4375 0.3949 0.0000 (  5480 PWs)   bands (ev):

   -45.5202 -24.2201 -23.7548 -23.5101 -20.9362 -12.8405  -3.5960  -3.2717
    -2.9645  -2.6769  -1.4638  -0.9822   3.3410   6.5065   6.7659   7.3384
     7.8144  10.4912  10.9401  11.8084  11.9451  12.6089  13.3796  14.2063
    15.0373  15.2502

          k = 0.4375 0.4668 0.0000 (  5486 PWs)   bands (ev):

   -45.5179 -24.1790 -23.7464 -23.5898 -20.9264 -12.8178  -3.5339  -3.2848
    -2.9556  -2.5618  -1.5301  -1.2846   3.6111   6.4935   6.5792   7.3315
     7.6188  10.7252  11.3996  11.9566  12.2935  12.7977  13.4033  14.2977
    14.8774  15.6002

          k = 0.4375 0.5386 0.0000 (  5477 PWs)   bands (ev):

   -45.5167 -24.1411 -23.7418 -23.6504 -20.9198 -12.8053  -3.5364  -3.2198
    -2.9416  -2.4645  -1.6910  -1.4091   3.8291   6.2196   6.6119   7.2611
     7.6372  10.8507  11.4375  11.9778  12.8431  13.1927  13.5845  14.2456
    14.6228  15.3092

          k = 0.4375-0.1795 0.0000 (  5461 PWs)   bands (ev):

   -45.5295 -24.1908 -23.7855 -23.4326 -20.9399 -12.9268  -3.6112  -3.1006
    -2.9460  -2.7206  -1.4434  -0.6578   3.1527   6.2668   6.6736   7.3361
     7.9009   9.3832  10.2354  11.2700  12.1078  12.8619  13.6516  14.7892
    15.1544  15.8712

          k = 0.4375-0.1077 0.0000 (  5471 PWs)   bands (ev):

   -45.5318 -24.1403 -23.7895 -23.4727 -20.9311 -12.9468  -3.5176  -3.0976
    -2.9847  -2.5582  -1.4638  -0.8455   3.3282   6.1233   6.4636   7.2107
     7.7812   9.3987  10.3276  11.3854  12.2192  12.8644  14.1317  14.5443
    15.0657  16.2595

          k = 0.4375-0.0359 0.0000 (  5461 PWs)   bands (ev):

   -45.5330 -24.1024 -23.7888 -23.5099 -20.9247 -12.9574  -3.4484  -3.0951
    -3.0076  -2.4288  -1.4926  -1.0042   3.4874   5.8026   6.5676   7.0326
     7.7873   9.4022  10.4205  11.4925  12.5221  12.8041  14.0828  14.3583
    15.2223  16.1124

          k =-0.5000-0.2872 0.0000 (  5470 PWs)   bands (ev):

   -45.5231 -24.2556 -23.7655 -23.4258 -20.9481 -12.8694  -3.7060  -3.1626
    -2.9150  -2.8689  -1.4326  -0.6074   3.0632   6.3761   6.9060   7.4322
     8.2999   9.8478  10.3548  11.5507  11.8497  12.5076  13.4203  14.3626
    14.9736  15.1236

          k =-0.5000-0.2154 0.0000 (  5471 PWs)   bands (ev):

   -45.5231 -24.2401 -23.7654 -23.4465 -20.9441 -12.8690  -3.6672  -3.1853
    -2.9525  -2.7840  -1.4402  -0.7053   3.1389   6.4015   6.8502   7.3894
     8.0937  10.0060  10.4392  11.5116  12.0097  12.6041  13.3640  14.3858
    14.9567  15.2938

          k =-0.5000-0.1436 0.0000 (  5470 PWs)   bands (ev):

   -45.5231 -24.1992 -23.7650 -23.4999 -20.9346 -12.8681  -3.5758  -3.2190
    -2.9686  -2.6563  -1.4641  -0.9452   3.3342   6.4661   6.5812   7.3169
     7.8346  10.2200  10.6125  11.6160  12.2330  12.8555  13.3443  14.3946
    14.8938  15.7894

          k =-0.5000-0.0718 0.0000 (  5474 PWs)   bands (ev):

   -45.5231 -24.1514 -23.7640 -23.5607 -20.9252 -12.8673  -3.5017  -3.2119
    -2.9700  -2.5308  -1.5135  -1.1871   3.5619   6.1558   6.5936   7.1931
     7.7872  10.3063  10.7766  11.8310  12.4441  12.9291  13.7311  14.3638
    14.7148  15.9376

          k =-0.5000-0.0000 0.0000 (  5458 PWs)   bands (ev):

   -45.5231 -24.1288 -23.7631 -23.5891 -20.9214 -12.8669  -3.4821  -3.1914
    -2.9689  -2.4679  -1.5611  -1.2768   3.6733   5.9629   6.6616   7.1061
     7.8042  10.3201  10.8517  11.8823  12.6484  12.9225  14.0036  14.3390
    14.5818  15.5125

     highest occupied, lowest unoccupied level (ev):     4.0212    5.3293

!    total energy              =    -446.24495395 Ry
     total all-electron energy =     -8320.715234 Ry
     estimated scf accuracy    <          8.2E-11 Ry

     The total energy is the sum of the following terms:
     one-electron contribution =    -304.49090206 Ry
     hartree contribution      =     160.43504802 Ry
     xc contribution           =     -38.52079913 Ry
     ewald contribution        =       2.95698039 Ry
     one-center paw contrib.   =    -266.62528117 Ry

     convergence has been achieved in   6 iterations

     negative rho (up, down):  8.535E-05 0.000E+00

     Forces acting on atoms (cartesian axes, Ry/au):

     atom    1 type  1   force =     0.00000000    0.00014694   -0.00006260
     atom    2 type  2   force =     0.00000000   -0.00000504    0.00106190
     atom    3 type  3   force =     0.00000000   -0.00014190   -0.00099930
     The non-local contrib.  to forces
     atom    1 type  1   force =     0.00000000    0.00111542   -0.02149146
     atom    2 type  2   force =     0.00000000    0.00677643   -1.09763517
     atom    3 type  3   force =     0.00000000    0.00025572    0.22284599
     The ionic contribution  to forces
     atom    1 type  1   force =    -0.00000001    0.05629326   -0.37078207
     atom    2 type  2   force =     0.00000001   -0.03770309   26.86036400
     atom    3 type  3   force =     0.00000000   -0.01859017  -26.48958193
     The local contribution  to forces
     atom    1 type  1   force =    -0.00000000   -0.05722070    0.38842565
     atom    2 type  2   force =     0.00000027    0.03094550  -25.76526382
     atom    3 type  3   force =     0.00000003    0.01814941   26.27296828
     The core correction contribution to forces
     atom    1 type  1   force =    -0.00000000   -0.00003896    0.00370070
     atom    2 type  2   force =     0.00000000   -0.00002112    0.00353383
     atom    3 type  3   force =    -0.00000000    0.00004538   -0.00730138
     The Hubbard contrib.    to forces
     atom    1 type  1   force =     0.00000000    0.00000000    0.00000000
     atom    2 type  2   force =     0.00000000    0.00000000    0.00000000
     atom    3 type  3   force =     0.00000000    0.00000000    0.00000000
     The SCF correction term to forces
     atom    1 type  1   force =    -0.00000000    0.00000082    0.00001353
     atom    2 type  2   force =    -0.00000000    0.00000013   -0.00000799
     atom    3 type  3   force =     0.00000000    0.00000065   -0.00000131

     Total force =     0.001474     Total SCF correction =     0.000016
     Energy error            =      5.4E-06 Ry
     Gradient error          =      1.1E-03 Ry/Bohr

     number of scf cycles    =   3
     number of bfgs steps    =   2

     energy             old  =    -446.2449485399 Ry
     energy             new  =    -446.2449539496 Ry

     CASE: energy            _new < energy            _old

     new trust radius        =       0.0032133349 bohr
     new conv_thr            =            1.0E-10 Ry


ATOMIC_POSITIONS (angstrom)
Zr           -0.0000000000        0.0006199998        9.5701383307
F            -0.0000000020        1.8814319622       10.9071949683
Cl           -0.0000000020        1.8809687465        7.8088416095



     Writing config-only to output data dir ./tmp/ZrFCl.save/
     NEW-OLD atomic charge density approx. for the potential

     Check: negative core charge=   -0.000005

     negative rho (up, down):  8.505E-05 0.000E+00

     total cpu time spent up to now is       33.2 secs

     Self-consistent Calculation

     iteration #  1     ecut=    65.00 Ry     beta= 0.70
     Davidson diagonalization with overlap
     ethr =  1.00E-06,  avg # of iterations =  3.0

     Threshold (ethr) on eigenvalues was too large:
     Diagonalizing with lowered threshold

     Davidson diagonalization with overlap
     ethr =  6.46E-09,  avg # of iterations =  2.1

     negative rho (up, down):  8.478E-05 0.000E+00

     total cpu time spent up to now is       36.1 secs

     total energy              =    -446.24495775 Ry
     estimated scf accuracy    <       0.00000178 Ry

     iteration #  2     ecut=    65.00 Ry     beta= 0.70
     Davidson diagonalization with overlap
     ethr =  6.86E-09,  avg # of iterations =  2.0

     negative rho (up, down):  8.498E-05 0.000E+00

     total cpu time spent up to now is       37.4 secs

     total energy              =    -446.24495780 Ry
     estimated scf accuracy    <       0.00000305 Ry

     iteration #  3     ecut=    65.00 Ry     beta= 0.70
     Davidson diagonalization with overlap
     ethr =  6.86E-09,  avg # of iterations =  1.9

     negative rho (up, down):  8.505E-05 0.000E+00

     total cpu time spent up to now is       38.7 secs

     total energy              =    -446.24495849 Ry
     estimated scf accuracy    <       0.00000018 Ry

     iteration #  4     ecut=    65.00 Ry     beta= 0.70
     Davidson diagonalization with overlap
     ethr =  6.95E-10,  avg # of iterations =  2.0

     negative rho (up, down):  8.507E-05 0.000E+00

     total cpu time spent up to now is       39.9 secs

     total energy              =    -446.24495852 Ry
     estimated scf accuracy    <       0.00000002 Ry

     iteration #  5     ecut=    65.00 Ry     beta= 0.70
     Davidson diagonalization with overlap
     ethr =  6.76E-11,  avg # of iterations =  2.0

     negative rho (up, down):  8.507E-05 0.000E+00

     total cpu time spent up to now is       41.2 secs

     total energy              =    -446.24495852 Ry
     estimated scf accuracy    <          3.3E-09 Ry

     iteration #  6     ecut=    65.00 Ry     beta= 0.70
     Davidson diagonalization with overlap
     ethr =  1.28E-11,  avg # of iterations =  2.0

     negative rho (up, down):  8.508E-05 0.000E+00

     total cpu time spent up to now is       42.4 secs

     total energy              =    -446.24495852 Ry
     estimated scf accuracy    <          1.9E-10 Ry

     iteration #  7     ecut=    65.00 Ry     beta= 0.70
     Davidson diagonalization with overlap
     ethr =  7.14E-13,  avg # of iterations =  2.0

     negative rho (up, down):  8.508E-05 0.000E+00

     total cpu time spent up to now is       43.7 secs

     End of self-consistent calculation

          k = 0.0000 0.0000 0.0000 (  5423 PWs)   bands (ev):

   -45.6160 -24.1905 -23.2685 -23.2599 -21.0286 -13.5723  -3.6637  -2.8085
    -2.7966  -1.7064   0.0262   0.0569   3.4492   5.4463   5.5126   5.8289
     6.6934   6.7199   7.7787   8.6740  11.0385  13.7063  14.5455  14.6238
    15.4768  17.1865

          k = 0.0000 0.0718 0.0000 (  5443 PWs)   bands (ev):

   -45.6128 -24.1793 -23.3095 -23.2661 -21.0178 -13.5489  -3.6255  -2.8524
    -2.7971  -1.6940  -0.1332   0.0278   3.4591   5.4043   5.5710   5.9148
     6.6594   6.7671   7.9021   8.8662  11.1652  13.7854  14.2695  14.7255
    15.2811  17.1999

          k = 0.0000 0.1436 0.0000 (  5443 PWs)   bands (ev):

   -45.6037 -24.1477 -23.4211 -23.2837 -20.9915 -13.4812  -3.5238  -2.9630
    -2.8000  -1.6757  -0.5415  -0.0522   3.4610   5.3458   5.7498   6.0246
     6.7594   6.8941   8.2428   9.3071  11.5339  13.6450  13.9472  14.9740
    15.0286  17.1038

          k = 0.0000 0.2154 0.0000 (  5468 PWs)   bands (ev):

   -45.5901 -24.1033 -23.5742 -23.3099 -20.9630 -13.3767  -3.4022  -3.0896
    -2.8085  -1.7053  -1.0374  -0.1647   3.4044   5.3988   6.0526   6.0529
     7.0669   7.1326   8.7305   9.8134  12.0013  13.1860  13.7164  15.1721
    15.5210  16.9434

          k = 0.0000 0.2872 0.0000 (  5484 PWs)   bands (ev):

   -45.5739 -24.0646 -23.7267 -23.3406 -20.9429 -13.2481  -3.3760  -3.1285
    -2.8248  -1.9326  -1.3634  -0.2874   3.2887   5.6062   6.1435   6.4660
     7.2539   7.6345   9.2608  10.2986  12.0328  13.1033  13.7352  15.6924
    16.1307  16.7557

          k = 0.0000 0.3590 0.0000 (  5452 PWs)   bands (ev):

   -45.5577 -24.0789 -23.8133 -23.3711 -20.9352 -13.1132  -3.4760  -3.0706
    -2.8470  -2.3468  -1.4393  -0.4006   3.1689   5.8785   6.3670   6.9292
     7.4568   8.2025   9.7086  10.7080  11.8973  12.9009  14.4485  15.3867
    16.1834  16.3550

          k = 0.0000 0.4308 0.0000 (  5468 PWs)   bands (ev):

   -45.5438 -24.1585 -23.8104 -23.3967 -20.9369 -12.9933  -3.5862  -3.0528
    -2.8704  -2.6858  -1.4479  -0.4899   3.0875   6.1171   6.6612   7.2690
     7.7633   8.8254  10.0082  11.0357  11.9785  12.8202  14.0979  14.9837
    15.7606  15.8533

          k = 0.0000 0.5027 0.0000 (  5478 PWs)   bands (ev):

   -45.5346 -24.2301 -23.7858 -23.4138 -20.9421 -12.9099  -3.6714  -3.1122
    -2.8881  -2.8380  -1.4444  -0.5466   3.0491   6.2980   6.8564   7.4040
     8.1264   9.4612  10.2436  11.3008  12.0448  12.7180  13.3405  14.6890
    15.1333  15.3490

          k = 0.0000-0.5745 0.0000 (  5478 PWs)   bands (ev):

   -45.5313 -24.2568 -23.7749 -23.4197 -20.9446 -12.8800  -3.7051  -3.1549
    -2.8946  -2.8671  -1.4423  -0.5659   3.0391   6.3734   6.9070   7.4387
     8.2848   9.8169  10.3469  11.5350  11.8111  12.4757  13.4001  14.3339
    14.9271  15.1750

          k = 0.0625 0.0359 0.0000 (  5447 PWs)   bands (ev):

   -45.6128 -24.1792 -23.3039 -23.2724 -21.0177 -13.5486  -3.6252  -2.8447
    -2.8055  -1.6935  -0.1128   0.0050   3.4607   5.4401   5.5309   5.9169
     6.6728   6.7497   7.9044   8.8691  11.1670  13.7863  14.3125  14.6700
    15.2894  17.1610

          k = 0.0625 0.1077 0.0000 (  5438 PWs)   bands (ev):

   -45.6066 -24.1577 -23.3826 -23.2818 -20.9993 -13.5030  -3.5549  -2.9256
    -2.8036  -1.6781  -0.4024  -0.0437   3.4679   5.3543   5.6856   6.0149
     6.6941   6.8528   8.1359   9.1797  11.4182  13.7909  13.9711  14.8222
    15.1136  17.0857

          k = 0.0625 0.1795 0.0000 (  5440 PWs)   bands (ev):

   -45.5952 -24.1193 -23.5132 -23.3055 -20.9722 -13.4167  -3.4387  -3.0449
    -2.8122  -1.6797  -0.8471  -0.1513   3.4457   5.3201   5.9579   6.0722
     6.8954   7.0593   8.5508   9.6399  11.8818  13.3023  13.8213  14.8930
    15.4575  16.9017

          k = 0.0625 0.2513 0.0000 (  5481 PWs)   bands (ev):

   -45.5803 -24.0759 -23.6640 -23.3374 -20.9485 -13.2999  -3.3471  -3.1385
    -2.8307  -1.7882  -1.2628  -0.2853   3.3680   5.4291   6.1005   6.3738
     7.1189   7.4564   9.0643  10.1302  12.2184  13.0791  13.5225  15.3211
    16.0052  16.6866

          k = 0.0625 0.3231 0.0000 (  5466 PWs)   bands (ev):

   -45.5641 -24.0584 -23.7844 -23.3720 -20.9352 -13.1675  -3.4047  -3.0997
    -2.8595  -2.1337  -1.4239  -0.4205   3.2629   5.6897   6.2155   6.8294
     7.3259   7.9928   9.5639  10.5904  12.0445  12.9981  13.9474  15.6166
    16.1238  16.4312

          k = 0.0625 0.3949 0.0000 (  5465 PWs)   bands (ev):

   -45.5491 -24.1117 -23.8157 -23.4038 -20.9327 -13.0392  -3.5139  -3.0496
    -2.8998  -2.5051  -1.4513  -0.5379   3.1781   6.0129   6.4146   7.1793
     7.5954   8.6326   9.9452  10.9723  11.9902  12.8473  14.5595  14.8146
    15.6611  16.3637

          k = 0.0625 0.4668 0.0000 (  5460 PWs)   bands (ev):

   -45.5375 -24.1917 -23.7942 -23.4282 -20.9365 -12.9365  -3.6079  -3.0920
    -2.9348  -2.7132  -1.4520  -0.6235   3.1329   6.2666   6.6712   7.3399
     7.8917   9.3566  10.2158  11.2667  12.0880  12.8347  13.6178  14.7753
    15.1315  15.8672

          k = 0.0625 0.5386 0.0000 (  5480 PWs)   bands (ev):

   -45.5312 -24.2409 -23.7747 -23.4414 -20.9406 -12.8793  -3.6653  -3.1757
    -2.9427  -2.7741  -1.4493  -0.6685   3.1176   6.3986   6.8520   7.3935
     8.0782   9.9724  10.4300  11.4994  11.9792  12.5717  13.3450  14.3652
    14.9330  15.3076

          k = 0.1250 0.0718 0.0000 (  5438 PWs)   bands (ev):

   -45.6035 -24.1471 -23.4163 -23.2909 -20.9914 -13.4798  -3.5229  -2.9562
    -2.8091  -1.6739  -0.5238  -0.0784   3.4675   5.3760   5.7055   6.0304
     6.7664   6.8774   8.2500   9.3135  11.5406  13.6610  13.9638  14.9719
    14.9891  17.0676

          k = 0.1250 0.1436 0.0000 (  5454 PWs)   bands (ev):

   -45.5950 -24.1189 -23.5109 -23.3095 -20.9721 -13.4157  -3.4382  -3.0418
    -2.8170  -1.6782  -0.8383  -0.1669   3.4513   5.3262   5.9405   6.0769
     6.8955   7.0542   8.5553   9.6431  11.8865  13.3101  13.8279  14.8933
    15.4402  16.8864

          k = 0.1250 0.2154 0.0000 (  5469 PWs)   bands (ev):

   -45.5824 -24.0803 -23.6345 -23.3443 -20.9504 -13.3169  -3.3346  -3.1366
    -2.8433  -1.7398  -1.1953  -0.3232   3.4171   5.3215   6.1256   6.3644
     7.0234   7.4136   8.9994  10.0761  12.4139  12.9073  13.5058  15.1332
    15.9945  16.6215

          k = 0.1250 0.2872 0.0000 (  5466 PWs)   bands (ev):

   -45.5674 -24.0512 -23.7512 -23.3882 -20.9343 -13.1954  -3.3311  -3.1344
    -2.8868  -1.9751  -1.4056  -0.5058   3.3705   5.4477   6.2352   6.7951
     7.2155   7.9112   9.4954  10.5461  12.4558  13.0373  13.3299  15.4036
    16.0179  16.9289

          k = 0.1250 0.3590 0.0000 (  5452 PWs)   bands (ev):

   -45.5524 -24.0719 -23.8074 -23.4331 -20.9273 -13.0683  -3.4245  -3.0577
    -2.9490  -2.3104  -1.4597  -0.6815   3.3319   5.7275   6.3581   7.0599
     7.5293   8.5671   9.9486  11.0041  12.2434  12.8991  14.0154  14.9654
    15.7544  16.3616

          k = 0.1250 0.4308 0.0000 (  5463 PWs)   bands (ev):

   -45.5396 -24.1400 -23.7974 -23.4716 -20.9277 -12.9554  -3.5117  -3.0855
    -2.9786  -2.5486  -1.4700  -0.8262   3.3169   6.1201   6.4598   7.2172
     7.7658   9.3758  10.3008  11.3859  12.2152  12.8486  14.1027  14.5258
    15.0519  16.2421

          k = 0.1250 0.5027 0.0000 (  5473 PWs)   bands (ev):

   -45.5311 -24.1989 -23.7737 -23.4976 -20.9310 -12.8772  -3.5713  -3.2071
    -2.9627  -2.6459  -1.4710  -0.9212   3.3202   6.4626   6.5788   7.3227
     7.8158  10.1880  10.5890  11.6190  12.2192  12.8273  13.3241  14.3857
    14.8727  15.7771

          k = 0.1250 0.5745 0.0000 (  5484 PWs)   bands (ev):

   -45.5280 -24.2208 -23.7636 -23.5068 -20.9328 -12.8492  -3.5929  -3.2609
    -2.9586  -2.6678  -1.4709  -0.9543   3.3243   6.5031   6.7595   7.3428
     7.7984  10.4621  10.9378  11.8102  11.9083  12.5855  13.3663  14.1821
    15.0056  15.2555

          k = 0.1250 0.0000 0.0000 (  5443 PWs)   bands (ev):

   -45.6064 -24.1572 -23.3786 -23.2875 -20.9992 -13.5020  -3.5542  -2.9194
    -2.8116  -1.6768  -0.3891  -0.0627   3.4716   5.3907   5.6397   6.0196
     6.6896   6.8486   8.1418   9.1850  11.4229  13.8020  13.9904  14.7880
    15.1071  17.0646

          k = 0.1875 0.1077 0.0000 (  5453 PWs)   bands (ev):

   -45.5895 -24.1019 -23.5709 -23.3180 -20.9629 -13.3737  -3.4010  -3.0841
    -2.8184  -1.7010  -1.0251  -0.1943   3.4171   5.4150   6.0118   6.0601
     7.0501   7.1398   8.7424   9.8204  12.0113  13.2010  13.7308  15.1862
    15.4732  16.9073

          k = 0.1875 0.1795 0.0000 (  5466 PWs)   bands (ev):

   -45.5798 -24.0746 -23.6615 -23.3441 -20.9484 -13.2972  -3.3463  -3.1347
    -2.8382  -1.7826  -1.2551  -0.3107   3.3804   5.4306   6.0991   6.3599
     7.1091   7.4594   9.0732  10.1342  12.2223  13.0956  13.5336  15.3307
    15.9768  16.6688

          k = 0.1875 0.2513 0.0000 (  5470 PWs)   bands (ev):

   -45.5671 -24.0504 -23.7501 -23.3918 -20.9344 -13.1938  -3.3304  -3.1332
    -2.8904  -1.9708  -1.4033  -0.5194   3.3777   5.4460   6.2347   6.7915
     7.2093   7.9134   9.4996  10.5471  12.4525  13.0442  13.3436  15.4081
    16.0141  16.9576

          k = 0.1875 0.3231 0.0000 (  5471 PWs)   bands (ev):

   -45.5533 -24.0564 -23.7989 -23.4524 -20.9250 -13.0770  -3.3780  -3.0694
    -2.9717  -2.2166  -1.4663  -0.7683   3.4176   5.5525   6.4215   6.9585
     7.5246   8.5511   9.9591  11.0182  12.5648  12.8856  13.5714  14.9111
    16.1641  16.2649

          k = 0.1875 0.3949 0.0000 (  5465 PWs)   bands (ev):

   -45.5406 -24.1007 -23.7953 -23.5134 -20.9214 -12.9643  -3.4407  -3.0825
    -3.0035  -2.4150  -1.4958  -1.0034   3.4864   5.7927   6.5630   7.0404
     7.7675   9.3824  10.3907  11.4888  12.5352  12.8008  14.0707  14.3411
    15.2096  16.1073

          k = 0.1875 0.4668 0.0000 (  5469 PWs)   bands (ev):

   -45.5308 -24.1496 -23.7717 -23.5626 -20.9218 -12.8746  -3.4946  -3.1995
    -2.9653  -2.5188  -1.5154  -1.1823   3.5579   6.1487   6.5846   7.2035
     7.7644  10.2821  10.7364  11.8374  12.4484  12.9201  13.7074  14.3558
    14.7009  15.9501

          k = 0.1875 0.5386 0.0000 (  5480 PWs)   bands (ev):

   -45.5255 -24.1785 -23.7545 -23.5901 -20.9231 -12.8248  -3.5271  -3.2751
    -2.9507  -2.5528  -1.5296  -1.2761   3.6032   6.4852   6.5712   7.3381
     7.5996  10.6967  11.3659  11.9716  12.2909  12.7853  13.3818  14.2788
    14.8652  15.5901

          k = 0.1875-0.0359 0.0000 (  5443 PWs)   bands (ev):

   -45.5947 -24.1182 -23.5107 -23.3121 -20.9722 -13.4141  -3.4375  -3.0399
    -2.8212  -1.6767  -0.8381  -0.1731   3.4539   5.3450   5.9148   6.0762
     6.8779   7.0666   8.5625   9.6473  11.8919  13.3129  13.8337  14.8856
    15.4280  16.8833

          k = 0.2500 0.1436 0.0000 (  5476 PWs)   bands (ev):

   -45.5730 -24.0626 -23.7248 -23.3497 -20.9431 -13.2431  -3.3746  -3.1248
    -2.8356  -1.9249  -1.3575  -0.3204   3.3053   5.6103   6.1489   6.4360
     7.2378   7.6431   9.2754  10.3044  12.0374  13.1203  13.7591  15.7122
    16.0914  16.7184

          k = 0.2500 0.2154 0.0000 (  5460 PWs)   bands (ev):

   -45.5632 -24.0564 -23.7825 -23.3806 -20.9354 -13.1628  -3.4030  -3.0976
    -2.8688  -2.1254  -1.4192  -0.4523   3.2795   5.6879   6.2161   6.8155
     7.3121   7.9998   9.5750  10.5927  12.0476  13.0118  13.9787  15.6374
    16.1213  16.4466

          k = 0.2500 0.2872 0.0000 (  5467 PWs)   bands (ev):

   -45.5517 -24.0705 -23.8060 -23.4395 -20.9276 -13.0646  -3.4231  -3.0580
    -2.9539  -2.3048  -1.4569  -0.7045   3.3441   5.7257   6.3568   7.0547
     7.5212   8.5710   9.9548  11.0029  12.2434  12.9058  14.0470  14.9775
    15.7856  16.3644

          k = 0.2500 0.3590 0.0000 (  5464 PWs)   bands (ev):

   -45.5402 -24.1001 -23.7945 -23.5166 -20.9216 -12.9623  -3.4401  -3.0860
    -3.0020  -2.4131  -1.4949  -1.0140   3.4920   5.7933   6.5607   7.0391
     7.7649   9.3842  10.3930  11.4861  12.5310  12.8027  14.0891  14.3559
    15.2356  16.0938

          k = 0.2500 0.4308 0.0000 (  5470 PWs)   bands (ev):

   -45.5304 -24.1258 -23.7698 -23.5950 -20.9182 -12.8722  -3.4745  -3.1799
    -2.9639  -2.4531  -1.5622  -1.2858   3.6771   5.9546   6.6463   7.1190
     7.7792  10.3008  10.8084  11.8835  12.6342  12.9429  14.0004  14.3348
    14.5894  15.5186

          k = 0.2500 0.5027 0.0000 (  5483 PWs)   bands (ev):

   -45.5239 -24.1393 -23.7489 -23.6548 -20.9169 -12.8102  -3.5287  -3.2102
    -2.9366  -2.4537  -1.6882  -1.4158   3.8296   6.2114   6.5990   7.2628
     7.6204  10.8271  11.3922  11.9908  12.8394  13.2054  13.5699  14.2476
    14.6086  15.3240

          k = 0.2500 0.5745 0.0000 (  5494 PWs)   bands (ev):

   -45.5216 -24.1429 -23.7409 -23.6775 -20.9166 -12.7880  -3.5553  -3.2112
    -2.9270  -2.4476  -1.7589  -1.4435   3.8881   6.3857   6.5665   7.2432
     7.5612  10.8385  12.0024  12.3285  12.3471  13.1005  13.6384  14.1791
    14.8028  15.5251

          k = 0.2500-0.0718 0.0000 (  5467 PWs)   bands (ev):

   -45.5795 -24.0741 -23.6632 -23.3446 -20.9487 -13.2953  -3.3460  -3.1350
    -2.8405  -1.7834  -1.2589  -0.3092   3.3797   5.4404   6.0964   6.3466
     7.1029   7.4656   9.0798  10.1373  12.2236  13.0925  13.5327  15.3238
    15.9855  16.6755

          k = 0.2500 0.0000 0.0000 (  5464 PWs)   bands (ev):

   -45.5817 -24.0791 -23.6357 -23.3478 -20.9508 -13.3134  -3.3337  -3.1354
    -2.8494  -1.7380  -1.1980  -0.3310   3.4211   5.3353   6.1174   6.3446
     7.0110   7.4226   9.0119  10.0820  12.4220  12.9036  13.5095  15.1320
    15.9893  16.6222

          k = 0.3125 0.1795 0.0000 (  5458 PWs)   bands (ev):

   -45.5564 -24.0773 -23.8115 -23.3812 -20.9358 -13.1061  -3.4744  -3.0691
    -2.8592  -2.3411  -1.4339  -0.4365   3.1868   5.8746   6.3731   6.9106
     7.4406   8.2138   9.7232  10.7108  11.9051  12.9171  14.4891  15.4308
    16.1448  16.3838

          k = 0.3125 0.2513 0.0000 (  5465 PWs)   bands (ev):

   -45.5478 -24.1102 -23.8135 -23.4138 -20.9334 -13.0323  -3.5118  -3.0501
    -2.9094  -2.4999  -1.4460  -0.5736   3.1961   6.0087   6.4184   7.1671
     7.5832   8.6414   9.9554  10.9713  12.0001  12.8633  14.6130  14.8482
    15.6485  16.3873

          k = 0.3125 0.3231 0.0000 (  5460 PWs)   bands (ev):

   -45.5386 -24.1390 -23.7953 -23.4797 -20.9285 -12.9496  -3.5100  -3.0918
    -2.9786  -2.5470  -1.4660  -0.8542   3.3309   6.1204   6.4587   7.2100
     7.7601   9.3813  10.3063  11.3796  12.2223  12.8599  14.1402  14.5599
    15.0664  16.2647

          k = 0.3125 0.3949 0.0000 (  5459 PWs)   bands (ev):

   -45.5301 -24.1494 -23.7701 -23.5678 -20.9225 -12.8704  -3.4946  -3.2027
    -2.9648  -2.5190  -1.5150  -1.1975   3.5655   6.1548   6.5797   7.2005
     7.7611  10.2895  10.7387  11.8260  12.4438  12.9281  13.7477  14.3696
    14.7296  15.9384

          k = 0.3125 0.4668 0.0000 (  5475 PWs)   bands (ev):

   -45.5235 -24.1396 -23.7480 -23.6569 -20.9173 -12.8080  -3.5298  -3.2109
    -2.9365  -2.4542  -1.6936  -1.4163   3.8314   6.2177   6.5961   7.2614
     7.6179  10.8352  11.3932  11.9834  12.8272  13.2134  13.6045  14.2359
    14.6236  15.3163

          k = 0.3125 0.5386 0.0000 (  5496 PWs)   bands (ev):

   -45.5200 -24.1235 -23.7355 -23.7170 -20.9144 -12.7736  -3.5790  -3.1630
    -2.9104  -2.3753  -1.9362  -1.4666   4.0176   6.3252   6.5626   7.1372
     7.6183  10.8646  11.9735  12.3116  13.2057  13.2790  13.5257  13.8866
    14.8136  15.5181

          k = 0.3125-0.1077 0.0000 (  5461 PWs)   bands (ev):

   -45.5629 -24.0568 -23.7840 -23.3801 -20.9359 -13.1608  -3.4041  -3.0977
    -2.8703  -2.1312  -1.4201  -0.4472   3.2759   5.6904   6.2131   6.8139
     7.3119   8.0032   9.5807  10.5957  12.0453  13.0102  13.9682  15.6354
    16.1346  16.4441

          k = 0.3125-0.0359 0.0000 (  5466 PWs)   bands (ev):

   -45.5664 -24.0502 -23.7528 -23.3924 -20.9352 -13.1899  -3.3317  -3.1331
    -2.8943  -1.9777  -1.4058  -0.5159   3.3750   5.4537   6.2260   6.7843
     7.2072   7.9198   9.5111  10.5522  12.4472  13.0415  13.3376  15.4122
    16.0351  16.9546

          k = 0.3750 0.2154 0.0000 (  5465 PWs)   bands (ev):

   -45.5422 -24.1583 -23.8075 -23.4077 -20.9381 -12.9842  -3.5841  -3.0544
    -2.8838  -2.6830  -1.4413  -0.5281   3.1057   6.1106   6.6644   7.2565
     7.7540   8.8397  10.0211  11.0380  11.9947  12.8417  14.1456  15.0210
    15.7161  15.9004

          k = 0.3750 0.2872 0.0000 (  5455 PWs)   bands (ev):

   -45.5360 -24.1915 -23.7911 -23.4389 -20.9377 -12.9277  -3.6052  -3.0973
    -2.9407  -2.7143  -1.4455  -0.6609   3.1509   6.2595   6.6778   7.3262
     7.8889   9.3664  10.2243  11.2666  12.1077  12.8586  13.6581  14.8037
    15.1382  15.8784

          k = 0.3750 0.3590 0.0000 (  5470 PWs)   bands (ev):

   -45.5297 -24.1991 -23.7709 -23.5065 -20.9323 -12.8695  -3.5695  -3.2137
    -2.9638  -2.6494  -1.4659  -0.9504   3.3337   6.4540   6.5895   7.3121
     7.8155  10.2006  10.5901  11.6109  12.2397  12.8532  13.3494  14.4020
    14.9006  15.7920

          k = 0.3750 0.4308 0.0000 (  5478 PWs)   bands (ev):

   -45.5244 -24.1795 -23.7522 -23.5960 -20.9243 -12.8187  -3.5284  -3.2788
    -2.9512  -2.5567  -1.5309  -1.2893   3.6097   6.4995   6.5630   7.3300
     7.5988  10.7153  11.3657  11.9517  12.3137  12.7995  13.4014  14.3024
    14.8794  15.6084

          k = 0.3750 0.5027 0.0000 (  5498 PWs)   bands (ev):

   -45.5209 -24.1446 -23.7393 -23.6799 -20.9175 -12.7840  -3.5577  -3.2136
    -2.9276  -2.4517  -1.7660  -1.4410   3.8878   6.3957   6.5643   7.2428
     7.5558  10.8555  11.9883  12.3433  12.3773  13.0699  13.6572  14.1873
    14.8019  15.5462

          k = 0.3750 0.5745 0.0000 (  5494 PWs)   bands (ev):

   -45.5197 -24.1251 -23.7350 -23.7168 -20.9149 -12.7717  -3.5801  -3.1649
    -2.9110  -2.3805  -1.9352  -1.4645   4.0149   6.3260   6.5652   7.1399
     7.6153  10.8739  11.9676  12.3519  13.1862  13.2857  13.4826  13.9122
    14.8213  15.5302

          k = 0.3750-0.1436 0.0000 (  5454 PWs)   bands (ev):

   -45.5475 -24.1120 -23.8136 -23.4129 -20.9339 -13.0306  -3.5134  -3.0501
    -2.9104  -2.5064  -1.4458  -0.5677   3.1916   6.0066   6.4136   7.1701
     7.5877   8.6469   9.9617  10.9747  11.9980  12.8629  14.6029  14.8370
    15.6674  16.3751

          k = 0.3750-0.0718 0.0000 (  5457 PWs)   bands (ev):

   -45.5511 -24.0730 -23.8069 -23.4384 -20.9286 -13.0608  -3.4258  -3.0577
    -2.9572  -2.3168  -1.4568  -0.6952   3.3370   5.7273   6.3510   7.0507
     7.5300   8.5795   9.9665  11.0088  12.2368  12.9039  14.0287  14.9859
    15.7807  16.3791

          k = 0.3750 0.0000 0.0000 (  5470 PWs)   bands (ev):

   -45.5523 -24.0584 -23.8001 -23.4534 -20.9263 -13.0713  -3.3807  -3.0691
    -2.9773  -2.2287  -1.4658  -0.7653   3.4138   5.5565   6.4122   6.9521
     7.5309   8.5615   9.9751  11.0246  12.5498  12.8818  13.5739  14.9240
    16.1964  16.2664

          k = 0.4375 0.2513 0.0000 (  5469 PWs)   bands (ev):

   -45.5328 -24.2309 -23.7821 -23.4253 -20.9436 -12.8995  -3.6685  -3.1171
    -2.9023  -2.8367  -1.4369  -0.5861   3.0675   6.2919   6.8538   7.3903
     8.1303   9.4782  10.2557  11.3080  12.0723  12.7537  13.3663  14.7209
    15.1770  15.2985

          k = 0.4375 0.3231 0.0000 (  5470 PWs)   bands (ev):

   -45.5295 -24.2417 -23.7710 -23.4523 -20.9421 -12.8691  -3.6624  -3.1828
    -2.9477  -2.7798  -1.4421  -0.7056   3.1348   6.3921   6.8527   7.3795
     8.0855   9.9878  10.4349  11.5068  12.0158  12.6031  13.3623  14.3883
    14.9638  15.2856

          k = 0.4375 0.3949 0.0000 (  5480 PWs)   bands (ev):

   -45.5265 -24.2223 -23.7603 -23.5155 -20.9344 -12.8402  -3.5916  -3.2686
    -2.9604  -2.6747  -1.4653  -0.9814   3.3359   6.4981   6.7619   7.3308
     7.8054  10.4867  10.9359  11.8051  11.9477  12.6062  13.3804  14.2048
    15.0348  15.2488

          k = 0.4375 0.4668 0.0000 (  5486 PWs)   bands (ev):

   -45.5242 -24.1811 -23.7519 -23.5952 -20.9247 -12.8174  -3.5291  -3.2812
    -2.9516  -2.5603  -1.5308  -1.2851   3.6066   6.4885   6.5709   7.3241
     7.6093  10.7220  11.3971  11.9561  12.2906  12.7960  13.4029  14.2968
    14.8759  15.5993

          k = 0.4375 0.5386 0.0000 (  5477 PWs)   bands (ev):

   -45.5230 -24.1431 -23.7473 -23.6558 -20.9182 -12.8049  -3.5314  -3.2159
    -2.9375  -2.4635  -1.6910  -1.4106   3.8254   6.2137   6.6028   7.2538
     7.6279  10.8480  11.4363  11.9762  12.8404  13.1894  13.5845  14.2447
    14.6216  15.3112

          k = 0.4375-0.1795 0.0000 (  5461 PWs)   bands (ev):

   -45.5358 -24.1931 -23.7909 -23.4382 -20.9381 -12.9265  -3.6067  -3.0977
    -2.9411  -2.7186  -1.4452  -0.6564   3.1474   6.2600   6.6669   7.3292
     7.8943   9.3772  10.2323  11.2689  12.1054  12.8608  13.6527  14.7886
    15.1515  15.8682

          k = 0.4375-0.1077 0.0000 (  5471 PWs)   bands (ev):

   -45.5381 -24.1426 -23.7949 -23.4782 -20.9294 -12.9466  -3.5128  -3.0935
    -2.9803  -2.5568  -1.4655  -0.8446   3.3236   6.1159   6.4563   7.2040
     7.7746   9.3958  10.3220  11.3857  12.2169  12.8626  14.1313  14.5426
    15.0643  16.2573

          k = 0.4375-0.0359 0.0000 (  5461 PWs)   bands (ev):

   -45.5393 -24.1047 -23.7941 -23.5154 -20.9231 -12.9572  -3.4434  -3.0904
    -3.0034  -2.4278  -1.4941  -1.0038   3.4835   5.7938   6.5602   7.0264
     7.7809   9.4007  10.4138  11.4936  12.5202  12.8024  14.0807  14.3537
    15.2233  16.1126

          k =-0.5000-0.2872 0.0000 (  5470 PWs)   bands (ev):

   -45.5294 -24.2578 -23.7709 -23.4314 -20.9462 -12.8690  -3.7019  -3.1610
    -2.9093  -2.8663  -1.4344  -0.6059   3.0576   6.3681   6.9012   7.4244
     8.2945   9.8373  10.3537  11.5469  11.8520  12.5063  13.4216  14.3602
    14.9725  15.1199

          k =-0.5000-0.2154 0.0000 (  5471 PWs)   bands (ev):

   -45.5295 -24.2423 -23.7709 -23.4520 -20.9423 -12.8687  -3.6630  -3.1831
    -2.9479  -2.7811  -1.4419  -0.7039   3.1335   6.3936   6.8453   7.3819
     8.0868   9.9974  10.4379  11.5091  12.0094  12.6034  13.3647  14.3842
    14.9545  15.2913

          k =-0.5000-0.1436 0.0000 (  5470 PWs)   bands (ev):

   -45.5295 -24.2014 -23.7705 -23.5054 -20.9328 -12.8678  -3.5713  -3.2156
    -2.9644  -2.6543  -1.4656  -0.9444   3.3292   6.4587   6.5751   7.3096
     7.8268  10.2158  10.6092  11.6148  12.2296  12.8553  13.3447  14.3933
    14.8920  15.7870

          k =-0.5000-0.0718 0.0000 (  5474 PWs)   bands (ev):

   -45.5295 -24.1536 -23.7694 -23.5661 -20.9236 -12.8669  -3.4968  -3.2078
    -2.9659  -2.5295  -1.5145  -1.1872   3.5577   6.1487   6.5853   7.1861
     7.7796  10.3057  10.7705  11.8312  12.4403  12.9272  13.7307  14.3625
    14.7137  15.9380

          k =-0.5000-0.0000 0.0000 (  5458 PWs)   bands (ev):

   -45.5295 -24.1309 -23.7685 -23.5946 -20.9197 -12.8666  -3.4771  -3.1872
    -2.9648  -2.4669  -1.5617  -1.2775   3.6697   5.9550   6.6529   7.0997
     7.7967  10.3205  10.8449  11.8824  12.6477  12.9177  14.0010  14.3368
    14.5829  15.5147

     highest occupied, lowest unoccupied level (ev):     4.0176    5.3201

!    total energy              =    -446.24495852 Ry
     total all-electron energy =     -8320.715238 Ry
     estimated scf accuracy    <          2.9E-12 Ry

     The total energy is the sum of the following terms:
     one-electron contribution =    -304.15605304 Ry
     hartree contribution      =     160.26590931 Ry
     xc contribution           =     -38.51917324 Ry
     ewald contribution        =       2.78958348 Ry
     one-center paw contrib.   =    -266.62522503 Ry

     convergence has been achieved in   7 iterations

     negative rho (up, down):  8.508E-05 0.000E+00

     Forces acting on atoms (cartesian axes, Ry/au):

     atom    1 type  1   force =     0.00000000    0.00001601    0.00002478
     atom    2 type  2   force =     0.00000000    0.00003010    0.00038946
     atom    3 type  3   force =     0.00000000   -0.00004610   -0.00041424
     The non-local contrib.  to forces
     atom    1 type  1   force =     0.00000000    0.00102865   -0.02150134
     atom    2 type  2   force =     0.00000000    0.00663433   -1.09969091
     atom    3 type  3   force =     0.00000000    0.00030216    0.22319293
     The ionic contribution  to forces
     atom    1 type  1   force =    -0.00000001    0.05418786   -0.37797921
     atom    2 type  2   force =     0.00000001   -0.03649313   26.84981579
     atom    3 type  3   force =     0.00000000   -0.01769473  -26.47183658
     The local contribution  to forces
     atom    1 type  1   force =    -0.00000000   -0.05515772    0.39574672
     atom    2 type  2   force =     0.00000027    0.02991387  -25.75334226
     atom    3 type  3   force =     0.00000003    0.01730815   26.25547374
     The core correction contribution to forces
     atom    1 type  1   force =    -0.00000000   -0.00003855    0.00369521
     atom    2 type  2   force =     0.00000000   -0.00002088    0.00354352
     atom    3 type  3   force =    -0.00000000    0.00004253   -0.00730638
     The Hubbard contrib.    to forces
     atom    1 type  1   force =     0.00000000    0.00000000    0.00000000
     atom    2 type  2   force =     0.00000000    0.00000000    0.00000000
     atom    3 type  3   force =     0.00000000    0.00000000    0.00000000
     The SCF correction term to forces
     atom    1 type  1   force =    -0.00000000   -0.00000010    0.00000128
     atom    2 type  2   force =     0.00000000    0.00000005    0.00000120
     atom    3 type  3   force =     0.00000000   -0.00000008   -0.00000006

     Total force =     0.000572     Total SCF correction =     0.000002
     Energy error            =      4.6E-06 Ry
     Gradient error          =      4.1E-04 Ry/Bohr

     number of scf cycles    =   4
     number of bfgs steps    =   3

     energy             old  =    -446.2449539496 Ry
     energy             new  =    -446.2449585230 Ry

     CASE: energy            _new < energy            _old

     new trust radius        =       0.0019861231 bohr
     new conv_thr            =            1.0E-10 Ry


ATOMIC_POSITIONS (angstrom)
Zr           -0.0000000000        0.0007426952        9.5701276941
F            -0.0000000020        1.8814478914       10.9082458587
Cl           -0.0000000020        1.8808301220        7.8078013558



     Writing config-only to output data dir ./tmp/ZrFCl.save/
     NEW-OLD atomic charge density approx. for the potential

     Check: negative core charge=   -0.000005

     negative rho (up, down):  8.483E-05 0.000E+00

     total cpu time spent up to now is       44.2 secs

     Self-consistent Calculation

     iteration #  1     ecut=    65.00 Ry     beta= 0.70
     Davidson diagonalization with overlap
     ethr =  1.00E-06,  avg # of iterations =  2.0

     Threshold (ethr) on eigenvalues was too large:
     Diagonalizing with lowered threshold

     Davidson diagonalization with overlap
     ethr =  2.34E-09,  avg # of iterations =  4.0

     negative rho (up, down):  8.469E-05 0.000E+00

     total cpu time spent up to now is       47.2 secs

     total energy              =    -446.24495901 Ry
     estimated scf accuracy    <       0.00000073 Ry

     iteration #  2     ecut=    65.00 Ry     beta= 0.70
     Davidson diagonalization with overlap
     ethr =  2.80E-09,  avg # of iterations =  2.0

     negative rho (up, down):  8.481E-05 0.000E+00

     total cpu time spent up to now is       48.5 secs

     total energy              =    -446.24495902 Ry
     estimated scf accuracy    <       0.00000135 Ry

     iteration #  3     ecut=    65.00 Ry     beta= 0.70
     Davidson diagonalization with overlap
     ethr =  2.80E-09,  avg # of iterations =  2.0

     negative rho (up, down):  8.486E-05 0.000E+00

     total cpu time spent up to now is       49.8 secs

     total energy              =    -446.24495932 Ry
     estimated scf accuracy    <       0.00000006 Ry

     iteration #  4     ecut=    65.00 Ry     beta= 0.70
     Davidson diagonalization with overlap
     ethr =  2.44E-10,  avg # of iterations =  2.0

     negative rho (up, down):  8.487E-05 0.000E+00

     total cpu time spent up to now is       51.0 secs

     total energy              =    -446.24495933 Ry
     estimated scf accuracy    <          7.4E-09 Ry

     iteration #  5     ecut=    65.00 Ry     beta= 0.70
     Davidson diagonalization with overlap
     ethr =  2.83E-11,  avg # of iterations =  2.0

     negative rho (up, down):  8.487E-05 0.000E+00

     total cpu time spent up to now is       52.2 secs

     total energy              =    -446.24495933 Ry
     estimated scf accuracy    <          1.3E-09 Ry

     iteration #  6     ecut=    65.00 Ry     beta= 0.70
     Davidson diagonalization with overlap
     ethr =  5.09E-12,  avg # of iterations =  2.0

     negative rho (up, down):  8.487E-05 0.000E+00

     total cpu time spent up to now is       53.5 secs

     End of self-consistent calculation

          k = 0.0000 0.0000 0.0000 (  5423 PWs)   bands (ev):

   -45.6199 -24.1925 -23.2721 -23.2635 -21.0272 -13.5724  -3.6613  -2.8047
    -2.7926  -1.7074   0.0280   0.0591   3.4429   5.4412   5.5078   5.8282
     6.6914   6.7170   7.7797   8.6745  11.0386  13.7094  14.5432  14.6216
    15.4678  17.1836

          k = 0.0000 0.0718 0.0000 (  5443 PWs)   bands (ev):

   -45.6167 -24.1813 -23.3130 -23.2697 -21.0165 -13.5490  -3.6231  -2.8487
    -2.7931  -1.6949  -0.1315   0.0300   3.4530   5.3990   5.5663   5.9141
     6.6575   6.7641   7.9029   8.8669  11.1652  13.7882  14.2670  14.7234
    15.2732  17.1974

          k = 0.0000 0.1436 0.0000 (  5443 PWs)   bands (ev):

   -45.6076 -24.1498 -23.4243 -23.2873 -20.9904 -13.4812  -3.5213  -2.9594
    -2.7961  -1.6766  -0.5402  -0.0501   3.4556   5.3403   5.7453   6.0235
     6.7579   6.8908   8.2430   9.3080  11.5334  13.6428  13.9478  14.9693
    15.0267  17.1013

          k = 0.0000 0.2154 0.0000 (  5468 PWs)   bands (ev):

   -45.5940 -24.1053 -23.5772 -23.3134 -20.9620 -13.3766  -3.3995  -3.0864
    -2.8047  -1.7057  -1.0369  -0.1627   3.3998   5.3930   6.0484   6.0510
     7.0630   7.1315   8.7299   9.8144  11.9999  13.1841  13.7145  15.1713
    15.5196  16.9407

          k = 0.0000 0.2872 0.0000 (  5484 PWs)   bands (ev):

   -45.5778 -24.0666 -23.7297 -23.3441 -20.9420 -13.2480  -3.3728  -3.1260
    -2.8211  -1.9320  -1.3643  -0.2855   3.2847   5.6011   6.1405   6.4623
     7.2494   7.6335   9.2591  10.2994  12.0311  13.1006  13.7347  15.6923
    16.1301  16.7528

          k = 0.0000 0.3590 0.0000 (  5452 PWs)   bands (ev):

   -45.5616 -24.0806 -23.8165 -23.3745 -20.9343 -13.1130  -3.4730  -3.0683
    -2.8435  -2.3460  -1.4405  -0.3988   3.1651   5.8745   6.3629   6.9257
     7.4519   8.2009   9.7057  10.7086  11.8964  12.8981  14.4485  15.3870
    16.1818  16.3545

          k = 0.0000 0.4308 0.0000 (  5468 PWs)   bands (ev):

   -45.5477 -24.1601 -23.8136 -23.4002 -20.9360 -12.9929  -3.5834  -3.0509
    -2.8669  -2.6849  -1.4491  -0.4883   3.0837   6.1135   6.6571   7.2649
     7.7589   8.8222  10.0056  11.0359  11.9772  12.8183  14.0985  14.9839
    15.7584  15.8508

          k = 0.0000 0.5027 0.0000 (  5478 PWs)   bands (ev):

   -45.5385 -24.2317 -23.7891 -23.4172 -20.9411 -12.9095  -3.6689  -3.1109
    -2.8846  -2.8366  -1.4456  -0.5450   3.0452   6.2940   6.8531   7.3991
     8.1228   9.4560  10.2428  11.2997  12.0432  12.7178  13.3408  14.6885
    15.1313  15.3467

          k = 0.0000-0.5745 0.0000 (  5478 PWs)   bands (ev):

   -45.5352 -24.2583 -23.7782 -23.4232 -20.9436 -12.8796  -3.7028  -3.1538
    -2.8912  -2.8654  -1.4434  -0.5644   3.0352   6.3690   6.9041   7.4337
     8.2813   9.8109  10.3461  11.5324  11.8126  12.4746  13.4010  14.3317
    14.9264  15.1726

          k = 0.0625 0.0359 0.0000 (  5447 PWs)   bands (ev):

   -45.6166 -24.1812 -23.3073 -23.2760 -21.0164 -13.5487  -3.6228  -2.8409
    -2.8016  -1.6944  -0.1109   0.0070   3.4546   5.4351   5.5260   5.9162
     6.6705   6.7472   7.9052   8.8697  11.1669  13.7891  14.3099  14.6678
    15.2818  17.1585

          k = 0.0625 0.1077 0.0000 (  5438 PWs)   bands (ev):

   -45.6105 -24.1597 -23.3859 -23.2853 -20.9981 -13.5030  -3.5524  -2.9220
    -2.7997  -1.6790  -0.4009  -0.0416   3.4623   5.3489   5.6810   6.0140
     6.6923   6.8498   8.1363   9.1806  11.4178  13.7900  13.9712  14.8193
    15.1088  17.0830

          k = 0.0625 0.1795 0.0000 (  5440 PWs)   bands (ev):

   -45.5991 -24.1214 -23.5163 -23.3090 -20.9711 -13.4167  -3.4361  -3.0415
    -2.8084  -1.6803  -0.8462  -0.1493   3.4409   5.3143   5.9536   6.0706
     6.8931   7.0568   8.5505   9.6410  11.8809  13.2998  13.8200  14.8919
    15.4556  16.8992

          k = 0.0625 0.2513 0.0000 (  5481 PWs)   bands (ev):

   -45.5842 -24.0779 -23.6670 -23.3409 -20.9475 -13.2998  -3.3441  -3.1357
    -2.8271  -1.7880  -1.2631  -0.2834   3.3639   5.4233   6.0981   6.3699
     7.1149   7.4552   9.0630  10.1312  12.2166  13.0773  13.5206  15.3215
    16.0042  16.6838

          k = 0.0625 0.3231 0.0000 (  5466 PWs)   bands (ev):

   -45.5680 -24.0602 -23.7875 -23.3754 -20.9343 -13.1673  -3.4015  -3.0974
    -2.8559  -2.1330  -1.4250  -0.4188   3.2592   5.6846   6.2123   6.8259
     7.3211   7.9916   9.5614  10.5912  12.0432  12.9952  13.9469  15.6160
    16.1232  16.4312

          k = 0.0625 0.3949 0.0000 (  5465 PWs)   bands (ev):

   -45.5530 -24.1133 -23.8189 -23.4073 -20.9318 -13.0389  -3.5110  -3.0473
    -2.8965  -2.5043  -1.4525  -0.5363   3.1744   6.0089   6.4105   7.1755
     7.5908   8.6305   9.9420  10.9729  11.9892  12.8450  14.5592  14.8147
    15.6595  16.3622

          k = 0.0625 0.4668 0.0000 (  5460 PWs)   bands (ev):

   -45.5414 -24.1933 -23.7975 -23.4316 -20.9356 -12.9362  -3.6053  -3.0902
    -2.9318  -2.7118  -1.4531  -0.6221   3.1291   6.2628   6.6674   7.3354
     7.8874   9.3531  10.2138  11.2665  12.0863  12.8336  13.6185  14.7747
    15.1297  15.8649

          k = 0.0625 0.5386 0.0000 (  5480 PWs)   bands (ev):

   -45.5352 -24.2425 -23.7780 -23.4448 -20.9396 -12.8788  -3.6630  -3.1742
    -2.9400  -2.7722  -1.4504  -0.6671   3.1138   6.3943   6.8491   7.3886
     8.0738   9.9676  10.4290  11.4980  11.9788  12.5710  13.3455  14.3637
    14.9319  15.3055

          k = 0.1250 0.0718 0.0000 (  5438 PWs)   bands (ev):

   -45.6073 -24.1491 -23.4195 -23.2945 -20.9902 -13.4798  -3.5204  -2.9526
    -2.8054  -1.6747  -0.5223  -0.0766   3.4622   5.3707   5.7008   6.0291
     6.7647   6.8746   8.2502   9.3143  11.5401  13.6589  13.9642  14.9694
    14.9854  17.0652

          k = 0.1250 0.1436 0.0000 (  5454 PWs)   bands (ev):

   -45.5989 -24.1209 -23.5140 -23.3130 -20.9711 -13.4157  -3.4356  -3.0384
    -2.8132  -1.6788  -0.8373  -0.1650   3.4466   5.3204   5.9361   6.0752
     6.8931   7.0519   8.5550   9.6441  11.8856  13.3076  13.8266  14.8924
    15.4383  16.8838

          k = 0.1250 0.2154 0.0000 (  5469 PWs)   bands (ev):

   -45.5863 -24.0824 -23.6375 -23.3478 -20.9495 -13.3168  -3.3317  -3.1336
    -2.8398  -1.7398  -1.1953  -0.3214   3.4132   5.3155   6.1232   6.3607
     7.0197   7.4123   8.9982  10.0772  12.4125  12.9049  13.5035  15.1339
    15.9932  16.6187

          k = 0.1250 0.2872 0.0000 (  5466 PWs)   bands (ev):

   -45.5713 -24.0531 -23.7542 -23.3916 -20.9335 -13.1953  -3.3279  -3.1319
    -2.8833  -1.9743  -1.4065  -0.5043   3.3671   5.4418   6.2325   6.7917
     7.2107   7.9101   9.4931  10.5471  12.4542  13.0344  13.3289  15.4033
    16.0172  16.9281

          k = 0.1250 0.3590 0.0000 (  5452 PWs)   bands (ev):

   -45.5563 -24.0735 -23.8106 -23.4365 -20.9265 -13.0680  -3.4215  -3.0553
    -2.9457  -2.3097  -1.4607  -0.6802   3.3287   5.7221   6.3548   7.0561
     7.5249   8.5658   9.9453  11.0050  12.2424  12.8967  14.0144  14.9635
    15.7544  16.3615

          k = 0.1250 0.4308 0.0000 (  5463 PWs)   bands (ev):

   -45.5435 -24.1416 -23.8007 -23.4750 -20.9269 -12.9551  -3.5090  -3.0829
    -2.9759  -2.5477  -1.4710  -0.8252   3.3136   6.1156   6.4558   7.2127
     7.7614   9.3741  10.2974  11.3865  12.2138  12.8471  14.1023  14.5247
    15.0509  16.2405

          k = 0.1250 0.5027 0.0000 (  5473 PWs)   bands (ev):

   -45.5350 -24.2005 -23.7770 -23.5010 -20.9301 -12.8768  -3.5688  -3.2049
    -2.9602  -2.6445  -1.4719  -0.9203   3.3168   6.4585   6.5752   7.3181
     7.8107  10.1857  10.5868  11.6186  12.2169  12.8270  13.3243  14.3846
    14.8717  15.7751

          k = 0.1250 0.5745 0.0000 (  5484 PWs)   bands (ev):

   -45.5320 -24.2224 -23.7669 -23.5102 -20.9318 -12.8488  -3.5904  -3.2588
    -2.9561  -2.6663  -1.4717  -0.9533   3.3208   6.4984   6.7571   7.3380
     7.7928  10.4598  10.9349  11.8080  11.9099  12.5836  13.3667  14.1811
    15.0044  15.2539

          k = 0.1250 0.0000 0.0000 (  5443 PWs)   bands (ev):

   -45.6103 -24.1593 -23.3819 -23.2911 -20.9980 -13.5020  -3.5518  -2.9157
    -2.8079  -1.6777  -0.3873  -0.0609   3.4661   5.3855   5.6349   6.0184
     6.6875   6.8462   8.1422   9.1857  11.4225  13.8013  13.9902  14.7855
    15.1023  17.0622

          k = 0.1875 0.1077 0.0000 (  5453 PWs)   bands (ev):

   -45.5934 -24.1040 -23.5739 -23.3215 -20.9619 -13.3736  -3.3983  -3.0809
    -2.8147  -1.7014  -1.0245  -0.1925   3.4128   5.4093   6.0075   6.0579
     7.0467   7.1386   8.7417   9.8213  12.0100  13.1991  13.7291  15.1858
    15.4717  16.9049

          k = 0.1875 0.1795 0.0000 (  5466 PWs)   bands (ev):

   -45.5837 -24.0766 -23.6645 -23.3476 -20.9475 -13.2971  -3.3433  -3.1319
    -2.8347  -1.7823  -1.2554  -0.3090   3.3766   5.4248   6.0965   6.3561
     7.1052   7.4583   9.0718  10.1351  12.2204  13.0938  13.5319  15.3310
    15.9758  16.6661

          k = 0.1875 0.2513 0.0000 (  5470 PWs)   bands (ev):

   -45.5710 -24.0523 -23.7531 -23.3953 -20.9335 -13.1936  -3.3272  -3.1307
    -2.8870  -1.9700  -1.4043  -0.5180   3.3745   5.4400   6.2319   6.7882
     7.2046   7.9123   9.4972  10.5480  12.4508  13.0416  13.3427  15.4077
    16.0134  16.9565

          k = 0.1875 0.3231 0.0000 (  5471 PWs)   bands (ev):

   -45.5573 -24.0581 -23.8021 -23.4558 -20.9242 -13.0768  -3.3750  -3.0669
    -2.9685  -2.2158  -1.4673  -0.7672   3.4148   5.5466   6.4182   6.9547
     7.5202   8.5499   9.9556  11.0193  12.5637  12.8836  13.5699  14.9087
    16.1645  16.2647

          k = 0.1875 0.3949 0.0000 (  5465 PWs)   bands (ev):

   -45.5445 -24.1022 -23.7986 -23.5167 -20.9206 -12.9640  -3.4378  -3.0795
    -3.0010  -2.4143  -1.4965  -1.0027   3.4837   5.7873   6.5590   7.0362
     7.7632   9.3815  10.3866  11.4899  12.5342  12.7994  14.0690  14.3385
    15.2100  16.1072

          k = 0.1875 0.4668 0.0000 (  5469 PWs)   bands (ev):

   -45.5347 -24.1512 -23.7751 -23.5659 -20.9209 -12.8742  -3.4918  -3.1969
    -2.9629  -2.5180  -1.5159  -1.1820   3.5550   6.1443   6.5800   7.1991
     7.7595  10.2817  10.7327  11.8378  12.4463  12.9190  13.7069  14.3549
    14.7000  15.9502

          k = 0.1875 0.5386 0.0000 (  5480 PWs)   bands (ev):

   -45.5294 -24.1800 -23.7579 -23.5934 -20.9222 -12.8243  -3.5244  -3.2728
    -2.9484  -2.5518  -1.5298  -1.2761   3.6002   6.4822   6.5663   7.3335
     7.5936  10.6948  11.3643  11.9714  12.2890  12.7842  13.3814  14.2782
    14.8641  15.5890

          k = 0.1875-0.0359 0.0000 (  5443 PWs)   bands (ev):

   -45.5986 -24.1203 -23.5137 -23.3156 -20.9711 -13.4141  -3.4349  -3.0365
    -2.8176  -1.6772  -0.8370  -0.1714   3.4494   5.3393   5.9104   6.0742
     6.8758   7.0643   8.5621   9.6482  11.8910  13.3103  13.8325  14.8849
    15.4260  16.8810

          k = 0.2500 0.1436 0.0000 (  5476 PWs)   bands (ev):

   -45.5769 -24.0645 -23.7278 -23.3532 -20.9422 -13.2430  -3.3714  -3.1223
    -2.8321  -1.9241  -1.3584  -0.3187   3.3017   5.6050   6.1457   6.4322
     7.2337   7.6420   9.2735  10.3050  12.0356  13.1179  13.7587  15.7124
    16.0907  16.7157

          k = 0.2500 0.2154 0.0000 (  5460 PWs)   bands (ev):

   -45.5672 -24.0582 -23.7856 -23.3841 -20.9345 -13.1626  -3.3999  -3.0952
    -2.8654  -2.1245  -1.4204  -0.4508   3.2761   5.6827   6.2127   6.8119
     7.3075   7.9985   9.5724  10.5932  12.0463  13.0093  13.9783  15.6366
    16.1208  16.4467

          k = 0.2500 0.2872 0.0000 (  5467 PWs)   bands (ev):

   -45.5557 -24.0721 -23.8092 -23.4429 -20.9268 -13.0643  -3.4201  -3.0556
    -2.9506  -2.3041  -1.4579  -0.7033   3.3411   5.7202   6.3533   7.0509
     7.5168   8.5697   9.9513  11.0037  12.2423  12.9038  14.0461  14.9754
    15.7857  16.3644

          k = 0.2500 0.3590 0.0000 (  5464 PWs)   bands (ev):

   -45.5441 -24.1016 -23.7978 -23.5199 -20.9208 -12.9619  -3.4373  -3.0830
    -2.9995  -2.4124  -1.4957  -1.0134   3.4895   5.7879   6.5565   7.0350
     7.7606   9.3833  10.3888  11.4871  12.5298  12.8017  14.0876  14.3530
    15.2361  16.0937

          k = 0.2500 0.4308 0.0000 (  5470 PWs)   bands (ev):

   -45.5343 -24.1273 -23.7731 -23.5983 -20.9174 -12.8718  -3.4716  -3.1772
    -2.9615  -2.4524  -1.5623  -1.2860   3.6747   5.9497   6.6412   7.1150
     7.7743  10.3010  10.8041  11.8840  12.6335  12.9407  13.9984  14.3334
    14.5899  15.5196

          k = 0.2500 0.5027 0.0000 (  5483 PWs)   bands (ev):

   -45.5278 -24.1407 -23.7523 -23.6581 -20.9160 -12.8097  -3.5257  -3.2079
    -2.9343  -2.4530  -1.6878  -1.4168   3.8271   6.2077   6.5936   7.2582
     7.6145  10.8253  11.3915  11.9900  12.8381  13.2034  13.5698  14.2472
    14.6074  15.3251

          k = 0.2500 0.5745 0.0000 (  5494 PWs)   bands (ev):

   -45.5255 -24.1443 -23.7443 -23.6808 -20.9157 -12.7875  -3.5523  -3.2089
    -2.9247  -2.4468  -1.7584  -1.4445   3.8855   6.3835   6.5608   7.2373
     7.5554  10.8362  12.0010  12.3296  12.3468  13.0980  13.6374  14.1783
    14.8028  15.5250

          k = 0.2500-0.0718 0.0000 (  5467 PWs)   bands (ev):

   -45.5834 -24.0761 -23.6661 -23.3482 -20.9478 -13.2952  -3.3431  -3.1322
    -2.8370  -1.7830  -1.2592  -0.3076   3.3760   5.4346   6.0936   6.3427
     7.0994   7.4642   9.0782  10.1381  12.2217  13.0906  13.5310  15.3245
    15.9843  16.6730

          k = 0.2500 0.0000 0.0000 (  5464 PWs)   bands (ev):

   -45.5856 -24.0812 -23.6386 -23.3513 -20.9498 -13.3133  -3.3309  -3.1323
    -2.8459  -1.7379  -1.1980  -0.3295   3.4174   5.3293   6.1145   6.3409
     7.0079   7.4209   9.0105  10.0829  12.4207  12.9012  13.5074  15.1330
    15.9878  16.6198

          k = 0.3125 0.1795 0.0000 (  5458 PWs)   bands (ev):

   -45.5603 -24.0789 -23.8147 -23.3847 -20.9349 -13.1058  -3.4714  -3.0669
    -2.8558  -2.3403  -1.4351  -0.4350   3.1835   5.8703   6.3688   6.9072
     7.4359   8.2121   9.7201  10.7111  11.9042  12.9148  14.4889  15.4314
    16.1433  16.3833

          k = 0.3125 0.2513 0.0000 (  5465 PWs)   bands (ev):

   -45.5518 -24.1118 -23.8167 -23.4173 -20.9325 -13.0320  -3.5089  -3.0479
    -2.9061  -2.4992  -1.4471  -0.5722   3.1929   6.0044   6.4141   7.1633
     7.5786   8.6393   9.9520  10.9717  11.9992  12.8615  14.6123  14.8487
    15.6471  16.3857

          k = 0.3125 0.3231 0.0000 (  5460 PWs)   bands (ev):

   -45.5425 -24.1405 -23.7986 -23.4831 -20.9276 -12.9492  -3.5072  -3.0892
    -2.9760  -2.5462  -1.4669  -0.8532   3.3280   6.1158   6.4544   7.2057
     7.7557   9.3796  10.3027  11.3800  12.2209  12.8588  14.1398  14.5589
    15.0656  16.2629

          k = 0.3125 0.3949 0.0000 (  5459 PWs)   bands (ev):

   -45.5340 -24.1508 -23.7735 -23.5711 -20.9216 -12.8700  -3.4918  -3.2001
    -2.9624  -2.5183  -1.5154  -1.1973   3.5629   6.1504   6.5747   7.1962
     7.7561  10.2891  10.7348  11.8265  12.4416  12.9271  13.7472  14.3686
    14.7289  15.9384

          k = 0.3125 0.4668 0.0000 (  5475 PWs)   bands (ev):

   -45.5274 -24.1410 -23.7514 -23.6602 -20.9165 -12.8075  -3.5268  -3.2086
    -2.9342  -2.4535  -1.6933  -1.4172   3.8290   6.2140   6.5905   7.2568
     7.6120  10.8333  11.3924  11.9827  12.8257  13.2116  13.6044  14.2355
    14.6225  15.3174

          k = 0.3125 0.5386 0.0000 (  5496 PWs)   bands (ev):

   -45.5239 -24.1248 -23.7389 -23.7203 -20.9135 -12.7731  -3.5759  -3.1606
    -2.9081  -2.3746  -1.9361  -1.4675   4.0153   6.3232   6.5566   7.1309
     7.6124  10.8623  11.9723  12.3125  13.2065  13.2796  13.5226  13.8842
    14.8137  15.5179

          k = 0.3125-0.1077 0.0000 (  5461 PWs)   bands (ev):

   -45.5668 -24.0586 -23.7871 -23.3836 -20.9350 -13.1606  -3.4010  -3.0953
    -2.8669  -2.1303  -1.4213  -0.4457   3.2727   5.6851   6.2095   6.8105
     7.3074   8.0018   9.5779  10.5962  12.0440  13.0077  13.9678  15.6349
    16.1340  16.4442

          k = 0.3125-0.0359 0.0000 (  5466 PWs)   bands (ev):

   -45.5703 -24.0521 -23.7557 -23.3959 -20.9343 -13.1897  -3.3285  -3.1306
    -2.8910  -1.9767  -1.4068  -0.5146   3.3720   5.4476   6.2228   6.7813
     7.2028   7.9184   9.5085  10.5530  12.4456  13.0390  13.3366  15.4122
    16.0343  16.9539

          k = 0.3750 0.2154 0.0000 (  5465 PWs)   bands (ev):

   -45.5462 -24.1598 -23.8108 -23.4111 -20.9372 -12.9838  -3.5814  -3.0525
    -2.8804  -2.6822  -1.4424  -0.5267   3.1024   6.1065   6.6601   7.2525
     7.7497   8.8362  10.0185  11.0379  11.9936  12.8403  14.1460  15.0213
    15.7142  15.8981

          k = 0.3750 0.2872 0.0000 (  5455 PWs)   bands (ev):

   -45.5399 -24.1930 -23.7944 -23.4424 -20.9368 -12.9273  -3.6025  -3.0955
    -2.9378  -2.7131  -1.4465  -0.6596   3.1476   6.2552   6.6739   7.3217
     7.8846   9.3627  10.2223  11.2661  12.1062  12.8579  13.6587  14.8031
    15.1367  15.8763

          k = 0.3750 0.3590 0.0000 (  5470 PWs)   bands (ev):

   -45.5337 -24.2006 -23.7742 -23.5098 -20.9314 -12.8690  -3.5669  -3.2115
    -2.9614  -2.6483  -1.4667  -0.9495   3.3306   6.4492   6.5860   7.3075
     7.8104  10.1980  10.5880  11.6103  12.2376  12.8531  13.3496  14.4008
    14.8998  15.7902

          k = 0.3750 0.4308 0.0000 (  5478 PWs)   bands (ev):

   -45.5284 -24.1809 -23.7556 -23.5993 -20.9234 -12.8182  -3.5256  -3.2765
    -2.9489  -2.5558  -1.5311  -1.2893   3.6069   6.4966   6.5577   7.3255
     7.5926  10.7133  11.3641  11.9516  12.3117  12.7986  13.4012  14.3015
    14.8784  15.6077

          k = 0.3750 0.5027 0.0000 (  5498 PWs)   bands (ev):

   -45.5248 -24.1460 -23.7428 -23.6832 -20.9167 -12.7835  -3.5547  -3.2113
    -2.9253  -2.4510  -1.7657  -1.4418   3.8854   6.3935   6.5584   7.2371
     7.5497  10.8533  11.9870  12.3436  12.3778  13.0673  13.6564  14.1862
    14.8021  15.5458

          k = 0.3750 0.5745 0.0000 (  5494 PWs)   bands (ev):

   -45.5236 -24.1264 -23.7385 -23.7202 -20.9140 -12.7712  -3.5771  -3.1626
    -2.9087  -2.3798  -1.9351  -1.4654   4.0127   6.3239   6.5592   7.1337
     7.6093  10.8717  11.9663  12.3529  13.1871  13.2864  13.4793  13.9096
    14.8216  15.5300

          k = 0.3750-0.1436 0.0000 (  5454 PWs)   bands (ev):

   -45.5515 -24.1135 -23.8169 -23.4164 -20.9330 -13.0302  -3.5105  -3.0479
    -2.9072  -2.5056  -1.4469  -0.5663   3.1885   6.0023   6.4092   7.1665
     7.5833   8.6446   9.9584  10.9750  11.9972  12.8610  14.6020  14.8376
    15.6659  16.3738

          k = 0.3750-0.0718 0.0000 (  5457 PWs)   bands (ev):

   -45.5550 -24.0746 -23.8102 -23.4418 -20.9278 -13.0605  -3.4228  -3.0553
    -2.9541  -2.3159  -1.4579  -0.6942   3.3342   5.7217   6.3471   7.0472
     7.5257   8.5778   9.9629  11.0094  12.2359  12.9020  14.0277  14.9839
    15.7810  16.3791

          k = 0.3750 0.0000 0.0000 (  5470 PWs)   bands (ev):

   -45.5562 -24.0600 -23.8033 -23.4569 -20.9255 -13.0710  -3.3777  -3.0666
    -2.9743  -2.2278  -1.4668  -0.7644   3.4113   5.5504   6.4084   6.9488
     7.5268   8.5601   9.9714  11.0255  12.5486  12.8803  13.5723  14.9217
    16.1970  16.2662

          k = 0.4375 0.2513 0.0000 (  5469 PWs)   bands (ev):

   -45.5367 -24.2324 -23.7854 -23.4287 -20.9426 -12.8990  -3.6660  -3.1159
    -2.8991  -2.8354  -1.4379  -0.5848   3.0641   6.2873   6.8504   7.3856
     8.1267   9.4727  10.2550  11.3066  12.0711  12.7538  13.3665  14.7207
    15.1751  15.2964

          k = 0.4375 0.3231 0.0000 (  5470 PWs)   bands (ev):

   -45.5335 -24.2432 -23.7744 -23.4558 -20.9412 -12.8686  -3.6599  -3.1814
    -2.9451  -2.7781  -1.4430  -0.7044   3.1314   6.3871   6.8497   7.3747
     8.0812   9.9825  10.4342  11.5052  12.0156  12.6027  13.3628  14.3871
    14.9627  15.2838

          k = 0.4375 0.3949 0.0000 (  5480 PWs)   bands (ev):

   -45.5305 -24.2237 -23.7637 -23.5189 -20.9335 -12.8397  -3.5891  -3.2666
    -2.9581  -2.6733  -1.4661  -0.9806   3.3328   6.4928   6.7594   7.3260
     7.7999  10.4841  10.9333  11.8030  11.9492  12.6044  13.3808  14.2038
    15.0332  15.2478

          k = 0.4375 0.4668 0.0000 (  5486 PWs)   bands (ev):

   -45.5282 -24.1826 -23.7553 -23.5985 -20.9238 -12.8169  -3.5263  -3.2789
    -2.9494  -2.5594  -1.5310  -1.2851   3.6039   6.4853   6.5657   7.3195
     7.6032  10.7202  11.3954  11.9559  12.2887  12.7950  13.4026  14.2961
    14.8748  15.5987

          k = 0.4375 0.5386 0.0000 (  5477 PWs)   bands (ev):

   -45.5269 -24.1445 -23.7507 -23.6591 -20.9174 -12.8044  -3.5284  -3.2135
    -2.9352  -2.4628  -1.6907  -1.4114   3.8230   6.2100   6.5972   7.2492
     7.6220  10.8464  11.4355  11.9754  12.8387  13.1875  13.5845  14.2441
    14.6207  15.3124

          k = 0.4375-0.1795 0.0000 (  5461 PWs)   bands (ev):

   -45.5397 -24.1946 -23.7942 -23.4416 -20.9372 -12.9261  -3.6040  -3.0959
    -2.9383  -2.7173  -1.4462  -0.6552   3.1441   6.2557   6.6629   7.3248
     7.8902   9.3734  10.2304  11.2683  12.1039  12.8601  13.6532  14.7882
    15.1498  15.8663

          k = 0.4375-0.1077 0.0000 (  5471 PWs)   bands (ev):

   -45.5420 -24.1440 -23.7983 -23.4816 -20.9285 -12.9462  -3.5100  -3.0910
    -2.9777  -2.5559  -1.4664  -0.8437   3.3207   6.1112   6.4518   7.1997
     7.7704   9.3939  10.3186  11.3859  12.2156  12.8615  14.1309  14.5416
    15.0635  16.2559

          k = 0.4375-0.0359 0.0000 (  5461 PWs)   bands (ev):

   -45.5433 -24.1061 -23.7975 -23.5188 -20.9222 -12.9568  -3.4405  -3.0876
    -3.0010  -2.4270  -1.4948  -1.0032   3.4811   5.7883   6.5556   7.0225
     7.7768   9.3996  10.4095  11.4944  12.5191  12.8013  14.0794  14.3508
    15.2239  16.1127

          k =-0.5000-0.2872 0.0000 (  5470 PWs)   bands (ev):

   -45.5334 -24.2593 -23.7743 -23.4349 -20.9453 -12.8686  -3.6996  -3.1600
    -2.9060  -2.8648  -1.4353  -0.6046   3.0541   6.3631   6.8982   7.4195
     8.2912   9.8307  10.3531  11.5444  11.8534  12.5054  13.4224  14.3585
    14.9718  15.1178

          k =-0.5000-0.2154 0.0000 (  5471 PWs)   bands (ev):

   -45.5334 -24.2438 -23.7742 -23.4555 -20.9413 -12.8682  -3.6606  -3.1817
    -2.9452  -2.7794  -1.4429  -0.7028   3.1301   6.3886   6.8422   7.3771
     8.0826   9.9922  10.4372  11.5075  12.0092  12.6030  13.3651  14.3831
    14.9531  15.2897

          k =-0.5000-0.1436 0.0000 (  5470 PWs)   bands (ev):

   -45.5334 -24.2028 -23.7738 -23.5088 -20.9319 -12.8673  -3.5687  -3.2135
    -2.9620  -2.6530  -1.4664  -0.9436   3.3262   6.4540   6.5713   7.3050
     7.8219  10.2132  10.6072  11.6141  12.2275  12.8551  13.3448  14.3924
    14.8910  15.7855

          k =-0.5000-0.0718 0.0000 (  5474 PWs)   bands (ev):

   -45.5334 -24.1550 -23.7728 -23.5695 -20.9227 -12.8665  -3.4941  -3.2054
    -2.9635  -2.5286  -1.5150  -1.1870   3.5551   6.1443   6.5802   7.1818
     7.7748  10.3053  10.7668  11.8314  12.4380  12.9260  13.7304  14.3615
    14.7130  15.9382

          k =-0.5000-0.0000 0.0000 (  5458 PWs)   bands (ev):

   -45.5334 -24.1323 -23.7719 -23.5979 -20.9189 -12.8661  -3.4742  -3.1847
    -2.9623  -2.4662  -1.5619  -1.2778   3.6674   5.9500   6.6475   7.0957
     7.7919  10.3207  10.8407  11.8827  12.6472  12.9149  13.9992  14.3354
    14.5835  15.5159

     highest occupied, lowest unoccupied level (ev):     4.0153    5.3143

!    total energy              =    -446.24495933 Ry
     total all-electron energy =     -8320.715239 Ry
     estimated scf accuracy    <          6.4E-11 Ry

     The total energy is the sum of the following terms:
     one-electron contribution =    -303.94536096 Ry
     hartree contribution      =     160.15952623 Ry
     xc contribution           =     -38.51815447 Ry
     ewald contribution        =       2.68421867 Ry
     one-center paw contrib.   =    -266.62518880 Ry

     convergence has been achieved in   6 iterations

     negative rho (up, down):  8.487E-05 0.000E+00

     Forces acting on atoms (cartesian axes, Ry/au):

     atom    1 type  1   force =     0.00000000   -0.00005042    0.00003118
     atom    2 type  2   force =     0.00000000    0.00004451   -0.00000870
     atom    3 type  3   force =     0.00000000    0.00000591   -0.00002249
     The non-local contrib.  to forces
     atom    1 type  1   force =     0.00000000    0.00098566   -0.02149411
     atom    2 type  2   force =     0.00000000    0.00657508   -1.10089868
     atom    3 type  3   force =     0.00000000    0.00032719    0.22341884
     The ionic contribution  to forces
     atom    1 type  1   force =    -0.00000001    0.05319859   -0.38258041
     atom    2 type  2   force =     0.00000001   -0.03598706   26.84305942
     atom    3 type  3   force =     0.00000000   -0.01721153  -26.46047901
     The local contribution  to forces
     atom    1 type  1   force =    -0.00000000   -0.05419280    0.40034831
     atom    2 type  2   force =     0.00000027    0.02948127  -25.74576723
     atom    3 type  3   force =     0.00000003    0.01685323   26.24429274
     The core correction contribution to forces
     atom    1 type  1   force =    -0.00000000   -0.00003826    0.00369021
     atom    2 type  2   force =     0.00000000   -0.00002070    0.00354924
     atom    3 type  3   force =    -0.00000000    0.00004071   -0.00730819
     The Hubbard contrib.    to forces
     atom    1 type  1   force =     0.00000000    0.00000000    0.00000000
     atom    2 type  2   force =     0.00000000    0.00000000    0.00000000
     atom    3 type  3   force =     0.00000000    0.00000000    0.00000000
     The SCF correction term to forces
     atom    1 type  1   force =    -0.00000000    0.00000065    0.00001005
     atom    2 type  2   force =    -0.00000000    0.00000018   -0.00000859
     atom    3 type  3   force =     0.00000000    0.00000059   -0.00000402

     Total force =     0.000078     Total SCF correction =     0.000014
     SCF correction compared to forces is large: reduce conv_thr to get better values
     Energy error            =      8.1E-07 Ry
     Gradient error          =      5.0E-05 Ry/Bohr

     bfgs converged in   5 scf cycles and   4 bfgs steps
     (criteria: energy <  1.0E-05 Ry, force <  1.0E-04 Ry/Bohr)

     End of BFGS Geometry Optimization

     Final energy             =    -446.2449593299 Ry

     File ./tmp/ZrFCl.bfgs deleted, as requested
Begin final coordinates

ATOMIC_POSITIONS (angstrom)
Zr           -0.0000000000        0.0007426952        9.5701276941
F            -0.0000000020        1.8814478914       10.9082458587
Cl           -0.0000000020        1.8808301220        7.8078013558
End final coordinates



     Writing all to output data dir ./tmp/ZrFCl.save/

     init_run     :      0.54s CPU      0.58s WALL (       1 calls)
     electrons    :     49.52s CPU     50.85s WALL (       5 calls)
     update_pot   :      0.44s CPU      0.48s WALL (       4 calls)
     forces       :      1.06s CPU      1.07s WALL (       5 calls)

     Called by init_run:
     wfcinit      :      0.38s CPU      0.40s WALL (       1 calls)
     potinit      :      0.07s CPU      0.08s WALL (       1 calls)
     hinit0       :      0.07s CPU      0.07s WALL (       1 calls)

     Called by electrons:
     c_bands      :     42.25s CPU     43.06s WALL (      37 calls)
     sum_band     :      5.59s CPU      5.75s WALL (      37 calls)
     v_of_rho     :      0.10s CPU      0.10s WALL (      37 calls)
     newd         :      0.30s CPU      0.33s WALL (      37 calls)
     PAW_pot      :      1.67s CPU      2.07s WALL (      41 calls)
     mix_rho      :      0.01s CPU      0.01s WALL (      37 calls)

     Called by c_bands:
     init_us_2    :      0.35s CPU      0.36s WALL (    6132 calls)
     init_us_2:cp :      0.35s CPU      0.35s WALL (    6132 calls)
     cegterg      :     41.34s CPU     42.13s WALL (    2701 calls)

     Called by *egterg:
     cdiaghg      :      7.08s CPU      7.15s WALL (    8734 calls)
     h_psi        :     23.01s CPU     23.66s WALL (    9464 calls)
     s_psi        :      1.66s CPU      1.69s WALL (    9464 calls)
     g_psi        :      0.06s CPU      0.06s WALL (    6690 calls)

     Called by h_psi:
     h_psi:calbec :      2.80s CPU      2.88s WALL (    9464 calls)
     vloc_psi     :     18.48s CPU     19.03s WALL (    9464 calls)
     add_vuspsi   :      1.66s CPU      1.69s WALL (    9464 calls)

     General routines
     calbec       :      4.75s CPU      4.86s WALL (   13917 calls)
     fft          :      0.06s CPU      0.06s WALL (     471 calls)
     ffts         :      0.00s CPU      0.00s WALL (      37 calls)
     fftw         :     20.76s CPU     21.37s WALL (  398960 calls)

     Parallel routines

     PWSCF        :     52.55s CPU     54.24s WALL


   This run was terminated on:   9: 9: 3  18Sep2026            

=------------------------------------------------------------------------------=
   JOB DONE.
=------------------------------------------------------------------------------=
Note: The following floating-point exceptions are signalling: IEEE_INVALID_FLAG
