
     Program PWSCF v.7.2 starts on 18Aug2026 at  7:37:13 

     This program is part of the open-source Quantum ESPRESSO suite
     for quantum simulation of materials; please cite
         "P. Giannozzi et al., J. Phys.:Condens. Matter 21 395502 (2009);
         "P. Giannozzi et al., J. Phys.:Condens. Matter 29 465901 (2017);
         "P. Giannozzi et al., J. Chem. Phys. 152 154105 (2020);
          URL http://www.quantum-espresso.org", 
     in publications or presentations arising from this work. More details at
     http://www.quantum-espresso.org/quote

     Parallel version (MPI), running on    32 processors

     MPI processes distributed on     1 nodes
     224062 MiB available memory on the printing compute node when the environment starts

     Waiting for input...
     Reading input from standard input

     Current dimensions of program PWSCF are:
     Max number of different atomic species (ntypx) = 10
     Max number of k-points (npk) =  40000
     Max angular momentum in pseudopotentials (lmaxx) =  4
     file Zr.pbe-spn-kjpaw_psl.1.0.0.UPF: wavefunction(s)  4S 4P renormalized
     file F.pbe-n-kjpaw_psl.1.0.0.UPF: wavefunction(s)  2S 2P renormalized
     file Cl.pbe-n-kjpaw_psl.1.0.0.UPF: wavefunction(s)  3S 3P renormalized
     Message from routine setup:
     using ibrav=0 with symmetry is DISCOURAGED, use correct ibrav instead

     R & G space division:  proc/nbgrp/npool/nimage =      32
     Subspace diagonalization in iterative solution of the eigenvalue problem:
     a serial algorithm will be used


     Parallelization info
     --------------------
     sticks:   dense  smooth     PW     G-vecs:    dense   smooth      PW
     Min          21      21      6                 1369     1369     212
     Max          22      22      7                 1384     1384     223
     Sum         673     673    199                43897    43897    6923

     Using Slab Decomposition



     bravais-lattice index     =            0
     lattice parameter (alat)  =       6.1584  a.u.
     unit-cell volume          =     620.6714 (a.u.)^3
     number of atoms/cell      =            3
     number of atomic types    =            3
     number of electrons       =        26.00
     number of Kohn-Sham states=           26
     kinetic-energy cutoff     =      65.0000  Ry
     charge density cutoff     =     260.0000  Ry
     scf convergence threshold =      1.0E-06
     mixing beta               =       0.7000
     number of iterations used =            8  plain     mixing
     Exchange-correlation= SLA  PW   PBX  PBC
                           (   1   4   3   4   0   0   0)

     celldm(1)=   6.158375  celldm(2)=   0.000000  celldm(3)=   0.000000
     celldm(4)=   0.000000  celldm(5)=   0.000000  celldm(6)=   0.000000

     crystal axes: (cart. coord. in units of alat)
               a(1) = (   1.000000  -0.000000   0.000000 )  
               a(2) = (  -0.500000   0.866025  -0.000000 )  
               a(3) = (  -0.000000  -0.000000   3.068547 )  

     reciprocal axes: (cart. coord. in units 2 pi/alat)
               b(1) = (  1.000000  0.577350  0.000000 )  
               b(2) = (  0.000000  1.154701  0.000000 )  
               b(3) = (  0.000000  0.000000  0.325887 )  


     PseudoPot. # 1 for Zr read from file:
     /mgpfs/home/rabdillah/repo/qe/pseudo/Zr.pbe-spn-kjpaw_psl.1.0.0.UPF
     MD5 check sum: 02112c41713a0468aff2bb39ef194e36
     Pseudo is Projector augmented-wave + core cor, Zval = 12.0
     Generated using &quot;atomic&quot; code by A. Dal Corso  v.6.2.2
     Shape of augmentation charge: PSQ
     Using radial grid of 1225 points,  6 beta functions with: 
                l(1) =   0
                l(2) =   0
                l(3) =   1
                l(4) =   1
                l(5) =   2
                l(6) =   2
     Q(r) pseudized with 0 coefficients 


     PseudoPot. # 2 for F  read from file:
     /mgpfs/home/rabdillah/repo/qe/pseudo/F.pbe-n-kjpaw_psl.1.0.0.UPF
     MD5 check sum: 66d718ea72839a4268ab2a9540e8cdd4
     Pseudo is Projector augmented-wave + core cor, Zval =  7.0
     Generated using &quot;atomic&quot; code by A. Dal Corso  v.6.3
     Shape of augmentation charge: PSQ
     Using radial grid of 1105 points,  4 beta functions with: 
                l(1) =   0
                l(2) =   0
                l(3) =   1
                l(4) =   1
     Q(r) pseudized with 0 coefficients 


     PseudoPot. # 3 for Cl read from file:
     /mgpfs/home/rabdillah/repo/qe/pseudo/Cl.pbe-n-kjpaw_psl.1.0.0.UPF
     MD5 check sum: 530da96d25dcb7781b0586ca00827062
     Pseudo is Projector augmented-wave + core cor, Zval =  7.0
     Generated using &quot;atomic&quot; code by A. Dal Corso  v.6.3
     Shape of augmentation charge: PSQ
     Using radial grid of 1157 points,  6 beta functions with: 
                l(1) =   0
                l(2) =   0
                l(3) =   1
                l(4) =   1
                l(5) =   2
                l(6) =   2
     Q(r) pseudized with 0 coefficients 


     atomic species   valence    mass     pseudopotential
        Zr            12.00    91.22400     Zr( 1.00)
        F              7.00    18.99800     F ( 1.00)
        Cl             7.00    35.45300     Cl( 1.00)

      6 Sym. Ops. (no inversion) found



   Cartesian axes

     site n.     atom                  positions (alat units)
         1           Zr  tau(   1) = (   0.0000000   0.0000000   2.9367110  )
         2           F   tau(   2) = (  -0.0000000   0.5773503   3.3457383  )
         3           Cl  tau(   3) = (  -0.0000000   0.5773503   2.3972960  )

     number of k points=    14
                       cart. coord. in units 2pi/alat
        k(    1) = (   0.0000000   0.0000000   0.0000000), wk =   0.0200000
        k(    2) = (   0.0000000   0.1154701   0.0000000), wk =   0.1200000
        k(    3) = (   0.0000000   0.2309401   0.0000000), wk =   0.1200000
        k(    4) = (   0.0000000   0.3464102   0.0000000), wk =   0.1200000
        k(    5) = (   0.0000000   0.4618802   0.0000000), wk =   0.1200000
        k(    6) = (   0.0000000  -0.5773503   0.0000000), wk =   0.0600000
        k(    7) = (   0.1000000   0.1732051   0.0000000), wk =   0.1200000
        k(    8) = (   0.1000000   0.2886751   0.0000000), wk =   0.2400000
        k(    9) = (   0.1000000   0.4041452   0.0000000), wk =   0.2400000
        k(   10) = (   0.1000000   0.5196152   0.0000000), wk =   0.2400000
        k(   11) = (   0.2000000   0.3464102   0.0000000), wk =   0.1200000
        k(   12) = (   0.2000000   0.4618802   0.0000000), wk =   0.2400000
        k(   13) = (   0.2000000   0.5773503   0.0000000), wk =   0.1200000
        k(   14) = (   0.3000000   0.5196152   0.0000000), wk =   0.1200000

     Dense  grid:    43897 G-vectors     FFT dimensions: (  32,  32, 100)

     Estimated max dynamical RAM per process >       9.86 MB

     Estimated total dynamical RAM >     315.62 MB

     Check: negative core charge=   -0.000005

     Initial potential from superposition of free atoms

     starting charge      25.9978, renormalised to      26.0000

     negative rho (up, down):  6.270E-06 0.000E+00
     Starting wfcs are   21 randomized atomic wfcs +    5 random wfcs
     Checking if some PAW data can be deallocated... 

     total cpu time spent up to now is        0.7 secs

     Self-consistent Calculation

     iteration #  1     ecut=    65.00 Ry     beta= 0.70
     Davidson diagonalization with overlap
     ethr =  1.00E-02,  avg # of iterations =  6.6

     Threshold (ethr) on eigenvalues was too large:
     Diagonalizing with lowered threshold

     Davidson diagonalization with overlap
     ethr =  7.99E-04,  avg # of iterations =  1.1

     negative rho (up, down):  6.222E-05 0.000E+00

     total cpu time spent up to now is        1.5 secs

     total energy              =    -446.15598951 Ry
     estimated scf accuracy    <       0.20966635 Ry

     iteration #  2     ecut=    65.00 Ry     beta= 0.70
     Davidson diagonalization with overlap
     ethr =  8.06E-04,  avg # of iterations =  3.9

     negative rho (up, down):  3.889E-05 0.000E+00

     total cpu time spent up to now is        1.8 secs

     total energy              =    -446.16105682 Ry
     estimated scf accuracy    <       0.34888565 Ry

     iteration #  3     ecut=    65.00 Ry     beta= 0.70
     Davidson diagonalization with overlap
     ethr =  8.06E-04,  avg # of iterations =  2.3

     negative rho (up, down):  4.969E-05 0.000E+00

     total cpu time spent up to now is        2.2 secs

     total energy              =    -446.24004540 Ry
     estimated scf accuracy    <       0.02378654 Ry

     iteration #  4     ecut=    65.00 Ry     beta= 0.70
     Davidson diagonalization with overlap
     ethr =  9.15E-05,  avg # of iterations =  2.2

     negative rho (up, down):  7.140E-05 0.000E+00

     total cpu time spent up to now is        2.5 secs

     total energy              =    -446.24451502 Ry
     estimated scf accuracy    <       0.00164933 Ry

     iteration #  5     ecut=    65.00 Ry     beta= 0.70
     Davidson diagonalization with overlap
     ethr =  6.34E-06,  avg # of iterations =  5.7

     negative rho (up, down):  8.205E-05 0.000E+00

     total cpu time spent up to now is        2.9 secs

     total energy              =    -446.24479404 Ry
     estimated scf accuracy    <       0.00109321 Ry

     iteration #  6     ecut=    65.00 Ry     beta= 0.70
     Davidson diagonalization with overlap
     ethr =  4.20E-06,  avg # of iterations =  2.0

     negative rho (up, down):  8.528E-05 0.000E+00

     total cpu time spent up to now is        3.2 secs

     total energy              =    -446.24502351 Ry
     estimated scf accuracy    <       0.00001954 Ry

     iteration #  7     ecut=    65.00 Ry     beta= 0.70
     Davidson diagonalization with overlap
     ethr =  7.52E-08,  avg # of iterations =  2.9

     negative rho (up, down):  8.608E-05 0.000E+00

     total cpu time spent up to now is        3.5 secs

     End of self-consistent calculation

          k = 0.0000 0.0000 0.0000 (  5455 PWs)   bands (ev):

   -45.6592 -24.2250 -23.3138 -23.3138 -21.0615 -13.5962  -3.6894  -2.8400
    -2.8400  -1.7251  -0.0176  -0.0176   3.4450   5.4495   5.4495   5.7685
     6.6503   6.6503   7.7347   8.6125  10.9931  13.6494  14.5315  14.5315
    15.4429  17.1487

          k = 0.0000 0.1155 0.0000 (  5459 PWs)   bands (ev):

   -45.6513 -24.1972 -23.4134 -23.3293 -21.0363 -13.5375  -3.5966  -2.9439
    -2.8415  -1.7000  -0.3976  -0.0900   3.4589   5.3625   5.5997   5.9392
     6.6325   6.7676   8.0404   9.0570  11.3143  13.7604  13.9654  14.7911
    15.0380  17.0643

          k = 0.0000 0.2309 0.0000 (  5488 PWs)   bands (ev):

   -45.6306 -24.1295 -23.6474 -23.3697 -20.9914 -13.3778  -3.4117  -3.1377
    -2.8540  -1.7473  -1.1580  -0.2649   3.3768   5.4178   6.0156   6.0626
     7.0387   7.1705   8.7942   9.8592  12.0145  13.1054  13.6206  15.2227
    15.5464  16.8122

          k = 0.0000 0.3464 0.0000 (  5486 PWs)   bands (ev):

   -45.6048 -24.1040 -23.8442 -23.4190 -20.9687 -13.1669  -3.4796  -3.1097
    -2.8851  -2.2866  -1.4535  -0.4556   3.1835   5.7900   6.2725   6.7740
     7.3493   8.0340   9.5936  10.5805  11.8632  12.9037  14.2517  15.5398
    16.1472  16.2727

          k = 0.0000 0.4619 0.0000 (  5502 PWs)   bands (ev):

   -45.5839 -24.2242 -23.8405 -23.4586 -20.9711 -12.9833  -3.6478  -3.0945
    -2.9215  -2.7931  -1.4654  -0.5929   3.0621   6.1539   6.7087   7.2802
     7.8527   9.0473  10.0660  11.0970  11.9904  12.7841  13.6418  14.8698
    15.4752  15.4777

          k = 0.0000-0.5774 0.0000 (  5494 PWs)   bands (ev):

   -45.5758 -24.2890 -23.8157 -23.4735 -20.9764 -12.9096  -3.7260  -3.1769
    -2.9378  -2.8935  -1.4605  -0.6418   3.0342   6.3325   6.8470   7.3796
     8.2204   9.7908  10.2903  11.5016  11.7610  12.4401  13.3448  14.2932
    14.8788  15.0651

          k = 0.1000 0.1732 0.0000 (  5474 PWs)   bands (ev):

   -45.6370 -24.1488 -23.5738 -23.3638 -21.0019 -13.4281  -3.4479  -3.0909
    -2.8582  -1.7019  -0.9401  -0.2497   3.4342   5.2920   5.9577   6.0474
     6.8364   7.0581   8.5718   9.6512  11.9205  13.1856  13.7336  14.8275
    15.5014  16.7529

          k = 0.1000 0.2887 0.0000 (  5492 PWs)   bands (ev):

   -45.6138 -24.0911 -23.7827 -23.4244 -20.9702 -13.2414  -3.3683  -3.1655
    -2.9076  -1.9790  -1.4172  -0.5046   3.3334   5.4605   6.1405   6.6683
     7.1460   7.7644   9.3721  10.4096  12.2687  13.0243  13.3920  15.4055
    15.9862  16.8153

          k = 0.1000 0.4041 0.0000 (  5487 PWs)   bands (ev):

   -45.5903 -24.1493 -23.8503 -23.4855 -20.9621 -13.0408  -3.5243  -3.0769
    -2.9887  -2.5225  -1.4807  -0.7379   3.2396   5.9762   6.3510   7.1335
     7.5997   8.8372  10.0434  11.0808  12.0570  12.8105  14.4440  14.5124
    15.3040  16.2734

          k = 0.1000 0.5196 0.0000 (  5503 PWs)   bands (ev):

   -45.5758 -24.2511 -23.8153 -23.5234 -20.9672 -12.9088  -3.6347  -3.2246
    -2.9887  -2.7302  -1.4800  -0.8748   3.2170   6.3931   6.6639   7.2936
     7.8472  10.0714  10.4708  11.4882  12.0878  12.6777  13.2462  14.3365
    14.8325  15.4923

          k = 0.2000 0.3464 0.0000 (  5486 PWs)   bands (ev):

   -45.5928 -24.1068 -23.8437 -23.5240 -20.9556 -13.0621  -3.4289  -3.0756
    -3.0443  -2.3316  -1.5059  -0.9135   3.4191   5.6030   6.4439   6.9252
     7.5923   8.8104  10.0951  11.1551  12.5316  12.7651  13.6889  14.5844
    15.8017  16.1074

          k = 0.2000 0.4619 0.0000 (  5489 PWs)   bands (ev):

   -45.5758 -24.1769 -23.8134 -23.6180 -20.9527 -12.9075  -3.5129  -3.2245
    -2.9947  -2.5262  -1.5551  -1.2579   3.5692   6.0480   6.5645   7.1185
     7.7177  10.2377  10.7117  11.7945  12.4375  12.8687  13.7442  14.2995
    14.5768  15.7433

          k = 0.2000 0.5774 0.0000 (  5526 PWs)   bands (ev):

   -45.5693 -24.2086 -23.7922 -23.6567 -20.9536 -12.8459  -3.5571  -3.3033
    -2.9744  -2.5639  -1.5912  -1.3759   3.6426   6.4544   6.5386   7.2945
     7.4956  10.7090  11.7264  11.9382  12.0800  12.6902  13.4246  14.1934
    14.9013  15.3653

          k = 0.3000 0.5196 0.0000 (  5514 PWs)   bands (ev):

   -45.5669 -24.1634 -23.7831 -23.7396 -20.9464 -12.8213  -3.5885  -3.2063
    -2.9484  -2.4301  -1.8879  -1.4799   3.9298   6.2239   6.5457   7.1569
     7.5547  10.8266  11.8602  11.9261  13.1434  13.3193  13.3472  13.9018
    14.6509  15.2501

     highest occupied, lowest unoccupied level (ev):     3.9298    5.2920

!    total energy              =    -446.24502898 Ry
     total all-electron energy =     -8320.715309 Ry
     estimated scf accuracy    <       0.00000043 Ry

     The total energy is the sum of the following terms:
     one-electron contribution =    -303.88583633 Ry
     hartree contribution      =     160.09415458 Ry
     xc contribution           =     -38.51413970 Ry
     ewald contribution        =       2.68574616 Ry
     one-center paw contrib.   =    -266.62495370 Ry

     convergence has been achieved in   7 iterations

     Writing all to output data dir ./out/ZrFCl.save/

     init_run     :      0.27s CPU      0.31s WALL (       1 calls)
     electrons    :      2.68s CPU      2.87s WALL (       1 calls)

     Called by init_run:
     wfcinit      :      0.11s CPU      0.11s WALL (       1 calls)
     potinit      :      0.07s CPU      0.10s WALL (       1 calls)
     hinit0       :      0.07s CPU      0.07s WALL (       1 calls)

     Called by electrons:
     c_bands      :      2.02s CPU      2.06s WALL (       8 calls)
     sum_band     :      0.29s CPU      0.30s WALL (       8 calls)
     v_of_rho     :      0.02s CPU      0.02s WALL (       8 calls)
     newd         :      0.07s CPU      0.07s WALL (       8 calls)
     PAW_pot      :      0.33s CPU      0.41s WALL (       8 calls)
     mix_rho      :      0.00s CPU      0.00s WALL (       8 calls)

     Called by c_bands:
     init_us_2    :      0.01s CPU      0.02s WALL (     238 calls)
     init_us_2:cp :      0.01s CPU      0.01s WALL (     238 calls)
     cegterg      :      1.98s CPU      2.02s WALL (     112 calls)

     Called by *egterg:
     cdiaghg      :      0.41s CPU      0.42s WALL (     474 calls)
     h_psi        :      1.11s CPU      1.14s WALL (     502 calls)
     s_psi        :      0.08s CPU      0.09s WALL (     502 calls)
     g_psi        :      0.00s CPU      0.00s WALL (     376 calls)

     Called by h_psi:
     h_psi:calbec :      0.14s CPU      0.14s WALL (     502 calls)
     vloc_psi     :      0.88s CPU      0.91s WALL (     502 calls)
     add_vuspsi   :      0.08s CPU      0.09s WALL (     502 calls)

     General routines
     calbec       :      0.18s CPU      0.19s WALL (     614 calls)
     fft          :      0.01s CPU      0.01s WALL (      89 calls)
     ffts         :      0.00s CPU      0.00s WALL (       8 calls)
     fftw         :      0.97s CPU      1.00s WALL (   17938 calls)

     Parallel routines

     PWSCF        :      3.32s CPU      4.13s WALL


   This run was terminated on:   7:37:17  18Aug2026            

=------------------------------------------------------------------------------=
   JOB DONE.
=------------------------------------------------------------------------------=
