
     Program PWSCF v.7.2 starts on 10Sep2026 at 15:36:23 

     This program is part of the open-source Quantum ESPRESSO suite
     for quantum simulation of materials; please cite
         "P. Giannozzi et al., J. Phys.:Condens. Matter 21 395502 (2009);
         "P. Giannozzi et al., J. Phys.:Condens. Matter 29 465901 (2017);
         "P. Giannozzi et al., J. Chem. Phys. 152 154105 (2020);
          URL http://www.quantum-espresso.org", 
     in publications or presentations arising from this work. More details at
     http://www.quantum-espresso.org/quote

     Parallel version (MPI), running on    32 processors

     MPI processes distributed on     1 nodes
     227151 MiB available memory on the printing compute node when the environment starts

     Reading input from nscfbands.in

     Current dimensions of program PWSCF are:
     Max number of different atomic species (ntypx) = 10
     Max number of k-points (npk) =  40000
     Max angular momentum in pseudopotentials (lmaxx) =  4

     Atomic positions and unit cell read from directory:
     ./tmp/ZrFBr.save/
     Atomic positions from file used, from input discarded

     file Zr.pbe-spn-kjpaw_psl.1.0.0.UPF: wavefunction(s)  4S 4P renormalized
     file F.pbe-n-kjpaw_psl.1.0.0.UPF: wavefunction(s)  2S 2P renormalized
     file Br.pbe-n-kjpaw_psl.1.0.0.UPF: wavefunction(s)  4S 4P renormalized
     Message from routine setup:
     using ibrav=0 with symmetry is DISCOURAGED, use correct ibrav instead

     K-points division:     npool     =       4
     R & G space division:  proc/nbgrp/npool/nimage =       8
     Subspace diagonalization in iterative solution of the eigenvalue problem:
     a serial algorithm will be used


     Parallelization info
     --------------------
     sticks:   dense  smooth     PW     G-vecs:    dense   smooth      PW
     Min          90      90     26                 5780     5780     914
     Max          91      91     28                 5785     5785     918
     Sum         721     721    211                46261    46261    7331

     Using Slab Decomposition



     bravais-lattice index     =            0
     lattice parameter (alat)  =       6.3191  a.u.
     unit-cell volume          =     653.4990 (a.u.)^3
     number of atoms/cell      =            3
     number of atomic types    =            3
     number of electrons       =        26.00
     number of Kohn-Sham states=           36
     kinetic-energy cutoff     =      65.0000  Ry
     charge density cutoff     =     260.0000  Ry
     Exchange-correlation= SLA  PW   PBX  PBC
                           (   1   4   3   4   0   0   0)

     celldm(1)=   6.319136  celldm(2)=   0.000000  celldm(3)=   0.000000
     celldm(4)=   0.000000  celldm(5)=   0.000000  celldm(6)=   0.000000

     crystal axes: (cart. coord. in units of alat)
               a(1) = (   1.000000  -0.000000   0.000000 )  
               a(2) = (   0.500000   0.866025   0.000000 )  
               a(3) = (   0.000000   0.000000   2.990482 )  

     reciprocal axes: (cart. coord. in units 2 pi/alat)
               b(1) = (  1.000000 -0.577350  0.000000 )  
               b(2) = (  0.000000  1.154701 -0.000000 )  
               b(3) = ( -0.000000  0.000000  0.334394 )  


     PseudoPot. # 1 for Zr read from file:
     ../pseudo/Zr.pbe-spn-kjpaw_psl.1.0.0.UPF
     MD5 check sum: 02112c41713a0468aff2bb39ef194e36
     Pseudo is Projector augmented-wave + core cor, Zval = 12.0
     Generated using &quot;atomic&quot; code by A. Dal Corso  v.6.2.2
     Shape of augmentation charge: PSQ
     Using radial grid of 1225 points,  6 beta functions with: 
                l(1) =   0
                l(2) =   0
                l(3) =   1
                l(4) =   1
                l(5) =   2
                l(6) =   2
     Q(r) pseudized with 0 coefficients 


     PseudoPot. # 2 for F  read from file:
     ../pseudo/F.pbe-n-kjpaw_psl.1.0.0.UPF
     MD5 check sum: 66d718ea72839a4268ab2a9540e8cdd4
     Pseudo is Projector augmented-wave + core cor, Zval =  7.0
     Generated using &quot;atomic&quot; code by A. Dal Corso  v.6.3
     Shape of augmentation charge: PSQ
     Using radial grid of 1105 points,  4 beta functions with: 
                l(1) =   0
                l(2) =   0
                l(3) =   1
                l(4) =   1
     Q(r) pseudized with 0 coefficients 


     PseudoPot. # 3 for Br read from file:
     ../pseudo/Br.pbe-n-kjpaw_psl.1.0.0.UPF
     MD5 check sum: b00de77caabc69c0a6b76eb37264f235
     Pseudo is Projector augmented-wave + core cor, Zval =  7.0
     Generated using &quot;atomic&quot; code by A. Dal Corso  v.6.3
     Shape of augmentation charge: PSQ
     Using radial grid of 1213 points,  4 beta functions with: 
                l(1) =   0
                l(2) =   0
                l(3) =   1
                l(4) =   1
     Q(r) pseudized with 0 coefficients 


     atomic species   valence    mass     pseudopotential
        Zr            12.00    91.22400     Zr( 1.00)
        F              7.00    18.99800     F ( 1.00)
        Br             7.00    79.90400     Br( 1.00)

      6 Sym. Ops. (no inversion) found



   Cartesian axes

     site n.     atom                  positions (alat units)
         1           Zr  tau(   1) = (   0.5000000   0.2886751   3.0495650  )
         2           F   tau(   2) = (   1.0000000   0.5773503   3.4397608  )
         3           Br  tau(   3) = (   1.0000000   0.5773503   2.4821196  )

     number of k points=   361

     Number of k-points >= 100: set verbosity='high' to print them.

     Dense  grid:    46261 G-vectors     FFT dimensions: (  36,  36, 100)

     Estimated max dynamical RAM per process >      11.13 MB

     Estimated total dynamical RAM >     356.26 MB

     Check: negative core charge=   -0.000002

     The potential is recalculated from file :
     ./tmp/ZrFBr.save/charge-density


     negative rho (up, down):  2.941E-05 0.000E+00
     Starting wfcs are   21 randomized atomic wfcs +   15 random wfcs
     Checking if some PAW data can be deallocated... 

     Band Structure Calculation
     Davidson diagonalization with overlap

     ethr =  3.85E-09,  avg # of iterations = 30.7

     total cpu time spent up to now is       53.5 secs

     End of band structure calculation

     Number of k-points >= 100: set verbosity='high' to print the bands.

     Writing all to output data dir ./tmp/ZrFBr.save/

     init_run     :      0.32s CPU      0.35s WALL (       1 calls)
     electrons    :     52.37s CPU     52.80s WALL (       1 calls)

     Called by init_run:
     wfcinit      :      0.00s CPU      0.00s WALL (       1 calls)
     potinit      :      0.05s CPU      0.07s WALL (       1 calls)
     hinit0       :      0.22s CPU      0.23s WALL (       1 calls)

     Called by electrons:
     c_bands      :     52.37s CPU     52.80s WALL (       1 calls)
     v_of_rho     :      0.01s CPU      0.01s WALL (       1 calls)
     newd         :      0.01s CPU      0.01s WALL (       1 calls)
     PAW_pot      :      0.04s CPU      0.05s WALL (       1 calls)

     Called by c_bands:
     init_us_2    :      0.02s CPU      0.02s WALL (      91 calls)
     init_us_2:cp :      0.02s CPU      0.02s WALL (      91 calls)
     cegterg      :     48.46s CPU     48.82s WALL (     195 calls)

     Called by *egterg:
     cdiaghg      :      6.27s CPU      6.30s WALL (    3202 calls)
     h_psi        :     21.89s CPU     22.15s WALL (    3397 calls)
     s_psi        :      1.56s CPU      1.57s WALL (    3397 calls)
     g_psi        :      0.11s CPU      0.11s WALL (    3111 calls)

     Called by h_psi:
     h_psi:calbec :      2.58s CPU      2.60s WALL (    3397 calls)
     vloc_psi     :     17.68s CPU     17.91s WALL (    3397 calls)
     add_vuspsi   :      1.56s CPU      1.57s WALL (    3397 calls)

     General routines
     calbec       :      2.58s CPU      2.60s WALL (    3397 calls)
     fft          :      0.01s CPU      0.01s WALL (      12 calls)
     fftw         :     16.33s CPU     16.55s WALL (  105682 calls)
     davcio       :      0.02s CPU      0.06s WALL (     182 calls)

     Parallel routines

     PWSCF        :     53.29s CPU     54.63s WALL


   This run was terminated on:  15:37:18  10Sep2026            

=------------------------------------------------------------------------------=
   JOB DONE.
=------------------------------------------------------------------------------=
