
     Program PWSCF v.7.2 starts on 10Sep2026 at 15:36: 0 

     This program is part of the open-source Quantum ESPRESSO suite
     for quantum simulation of materials; please cite
         "P. Giannozzi et al., J. Phys.:Condens. Matter 21 395502 (2009);
         "P. Giannozzi et al., J. Phys.:Condens. Matter 29 465901 (2017);
         "P. Giannozzi et al., J. Chem. Phys. 152 154105 (2020);
          URL http://www.quantum-espresso.org", 
     in publications or presentations arising from this work. More details at
     http://www.quantum-espresso.org/quote

     Parallel version (MPI), running on    32 processors

     MPI processes distributed on     1 nodes
     227217 MiB available memory on the printing compute node when the environment starts

     Reading input from scf.in

     Current dimensions of program PWSCF are:
     Max number of different atomic species (ntypx) = 10
     Max number of k-points (npk) =  40000
     Max angular momentum in pseudopotentials (lmaxx) =  4
     file Zr.pbe-spn-kjpaw_psl.1.0.0.UPF: wavefunction(s)  4S 4P renormalized
     file F.pbe-n-kjpaw_psl.1.0.0.UPF: wavefunction(s)  2S 2P renormalized
     file Br.pbe-n-kjpaw_psl.1.0.0.UPF: wavefunction(s)  4S 4P renormalized
     Message from routine setup:
     using ibrav=0 with symmetry is DISCOURAGED, use correct ibrav instead

     R & G space division:  proc/nbgrp/npool/nimage =      32
     Subspace diagonalization in iterative solution of the eigenvalue problem:
     a serial algorithm will be used


     Parallelization info
     --------------------
     sticks:   dense  smooth     PW     G-vecs:    dense   smooth      PW
     Min          22      22      6                 1442     1442     228
     Max          23      23      7                 1450     1450     247
     Sum         721     721    211                46261    46261    7547

     Using Slab Decomposition



     bravais-lattice index     =            0
     lattice parameter (alat)  =       6.3191  a.u.
     unit-cell volume          =     653.4990 (a.u.)^3
     number of atoms/cell      =            3
     number of atomic types    =            3
     number of electrons       =        26.00
     number of Kohn-Sham states=           36
     kinetic-energy cutoff     =      65.0000  Ry
     charge density cutoff     =     260.0000  Ry
     scf convergence threshold =      1.0E-08
     mixing beta               =       0.7000
     number of iterations used =            8  plain     mixing
     Exchange-correlation= SLA  PW   PBX  PBC
                           (   1   4   3   4   0   0   0)

     celldm(1)=   6.319136  celldm(2)=   0.000000  celldm(3)=   0.000000
     celldm(4)=   0.000000  celldm(5)=   0.000000  celldm(6)=   0.000000

     crystal axes: (cart. coord. in units of alat)
               a(1) = (   1.000000  -0.000000   0.000000 )  
               a(2) = (   0.500000   0.866025   0.000000 )  
               a(3) = (   0.000000   0.000000   2.990482 )  

     reciprocal axes: (cart. coord. in units 2 pi/alat)
               b(1) = (  1.000000 -0.577350  0.000000 )  
               b(2) = (  0.000000  1.154701 -0.000000 )  
               b(3) = ( -0.000000  0.000000  0.334394 )  


     PseudoPot. # 1 for Zr read from file:
     ../pseudo/Zr.pbe-spn-kjpaw_psl.1.0.0.UPF
     MD5 check sum: 02112c41713a0468aff2bb39ef194e36
     Pseudo is Projector augmented-wave + core cor, Zval = 12.0
     Generated using &quot;atomic&quot; code by A. Dal Corso  v.6.2.2
     Shape of augmentation charge: PSQ
     Using radial grid of 1225 points,  6 beta functions with: 
                l(1) =   0
                l(2) =   0
                l(3) =   1
                l(4) =   1
                l(5) =   2
                l(6) =   2
     Q(r) pseudized with 0 coefficients 


     PseudoPot. # 2 for F  read from file:
     ../pseudo/F.pbe-n-kjpaw_psl.1.0.0.UPF
     MD5 check sum: 66d718ea72839a4268ab2a9540e8cdd4
     Pseudo is Projector augmented-wave + core cor, Zval =  7.0
     Generated using &quot;atomic&quot; code by A. Dal Corso  v.6.3
     Shape of augmentation charge: PSQ
     Using radial grid of 1105 points,  4 beta functions with: 
                l(1) =   0
                l(2) =   0
                l(3) =   1
                l(4) =   1
     Q(r) pseudized with 0 coefficients 


     PseudoPot. # 3 for Br read from file:
     ../pseudo/Br.pbe-n-kjpaw_psl.1.0.0.UPF
     MD5 check sum: b00de77caabc69c0a6b76eb37264f235
     Pseudo is Projector augmented-wave + core cor, Zval =  7.0
     Generated using &quot;atomic&quot; code by A. Dal Corso  v.6.3
     Shape of augmentation charge: PSQ
     Using radial grid of 1213 points,  4 beta functions with: 
                l(1) =   0
                l(2) =   0
                l(3) =   1
                l(4) =   1
     Q(r) pseudized with 0 coefficients 


     atomic species   valence    mass     pseudopotential
        Zr            12.00    91.22400     Zr( 1.00)
        F              7.00    18.99800     F ( 1.00)
        Br             7.00    79.90400     Br( 1.00)

      6 Sym. Ops. (no inversion) found



   Cartesian axes

     site n.     atom                  positions (alat units)
         1           Zr  tau(   1) = (   0.5000000   0.2886751   3.0495650  )
         2           F   tau(   2) = (   1.0000000   0.5773503   3.4397608  )
         3           Br  tau(   3) = (   1.0000000   0.5773503   2.4821196  )

     number of k points=    61
                       cart. coord. in units 2pi/alat
        k(    1) = (   0.0000000   0.0000000   0.0000000), wk =   0.0034722
        k(    2) = (   0.0000000   0.0481125   0.0000000), wk =   0.0208333
        k(    3) = (   0.0000000   0.0962250   0.0000000), wk =   0.0208333
        k(    4) = (   0.0000000   0.1443376   0.0000000), wk =   0.0208333
        k(    5) = (   0.0000000   0.1924501   0.0000000), wk =   0.0208333
        k(    6) = (   0.0000000   0.2405626   0.0000000), wk =   0.0208333
        k(    7) = (   0.0000000   0.2886751   0.0000000), wk =   0.0208333
        k(    8) = (   0.0000000   0.3367877   0.0000000), wk =   0.0208333
        k(    9) = (   0.0000000   0.3849002   0.0000000), wk =   0.0208333
        k(   10) = (   0.0000000   0.4330127   0.0000000), wk =   0.0208333
        k(   11) = (   0.0000000   0.4811252   0.0000000), wk =   0.0208333
        k(   12) = (   0.0000000   0.5292377   0.0000000), wk =   0.0208333
        k(   13) = (   0.0000000  -0.5773503   0.0000000), wk =   0.0104167
        k(   14) = (   0.0416667   0.0721688   0.0000000), wk =   0.0208333
        k(   15) = (   0.0416667   0.1202813   0.0000000), wk =   0.0416667
        k(   16) = (   0.0416667   0.1683938   0.0000000), wk =   0.0416667
        k(   17) = (   0.0416667   0.2165064   0.0000000), wk =   0.0416667
        k(   18) = (   0.0416667   0.2646189   0.0000000), wk =   0.0416667
        k(   19) = (   0.0416667   0.3127314   0.0000000), wk =   0.0416667
        k(   20) = (   0.0416667   0.3608439   0.0000000), wk =   0.0416667
        k(   21) = (   0.0416667   0.4089564   0.0000000), wk =   0.0416667
        k(   22) = (   0.0416667   0.4570690   0.0000000), wk =   0.0416667
        k(   23) = (   0.0416667   0.5051815   0.0000000), wk =   0.0416667
        k(   24) = (   0.0416667  -0.6014065   0.0000000), wk =   0.0416667
        k(   25) = (   0.0833333   0.1443376   0.0000000), wk =   0.0208333
        k(   26) = (   0.0833333   0.1924501   0.0000000), wk =   0.0416667
        k(   27) = (   0.0833333   0.2405626   0.0000000), wk =   0.0416667
        k(   28) = (   0.0833333   0.2886751   0.0000000), wk =   0.0416667
        k(   29) = (   0.0833333   0.3367877   0.0000000), wk =   0.0416667
        k(   30) = (   0.0833333   0.3849002   0.0000000), wk =   0.0416667
        k(   31) = (   0.0833333   0.4330127   0.0000000), wk =   0.0416667
        k(   32) = (   0.0833333   0.4811252   0.0000000), wk =   0.0416667
        k(   33) = (   0.0833333  -0.6254628   0.0000000), wk =   0.0416667
        k(   34) = (   0.0833333  -0.5773503   0.0000000), wk =   0.0208333
        k(   35) = (   0.1250000   0.2165064   0.0000000), wk =   0.0208333
        k(   36) = (   0.1250000   0.2646189   0.0000000), wk =   0.0416667
        k(   37) = (   0.1250000   0.3127314   0.0000000), wk =   0.0416667
        k(   38) = (   0.1250000   0.3608439   0.0000000), wk =   0.0416667
        k(   39) = (   0.1250000   0.4089564   0.0000000), wk =   0.0416667
        k(   40) = (   0.1250000   0.4570690   0.0000000), wk =   0.0416667
        k(   41) = (   0.1250000  -0.6495191   0.0000000), wk =   0.0416667
        k(   42) = (   0.1250000  -0.6014065   0.0000000), wk =   0.0416667
        k(   43) = (   0.1666667   0.2886751   0.0000000), wk =   0.0208333
        k(   44) = (   0.1666667   0.3367877   0.0000000), wk =   0.0416667
        k(   45) = (   0.1666667   0.3849002   0.0000000), wk =   0.0416667
        k(   46) = (   0.1666667   0.4330127   0.0000000), wk =   0.0416667
        k(   47) = (   0.1666667  -0.6735753   0.0000000), wk =   0.0416667
        k(   48) = (   0.1666667  -0.6254628   0.0000000), wk =   0.0416667
        k(   49) = (   0.1666667  -0.5773503   0.0000000), wk =   0.0208333
        k(   50) = (   0.2083333   0.3608439   0.0000000), wk =   0.0208333
        k(   51) = (   0.2083333   0.4089564   0.0000000), wk =   0.0416667
        k(   52) = (   0.2083333  -0.6976316   0.0000000), wk =   0.0416667
        k(   53) = (   0.2083333  -0.6495191   0.0000000), wk =   0.0416667
        k(   54) = (   0.2083333  -0.6014065   0.0000000), wk =   0.0416667
        k(   55) = (   0.2500000  -0.7216878   0.0000000), wk =   0.0208333
        k(   56) = (   0.2500000  -0.6735753   0.0000000), wk =   0.0416667
        k(   57) = (   0.2500000  -0.6254628   0.0000000), wk =   0.0416667
        k(   58) = (   0.2500000  -0.5773503   0.0000000), wk =   0.0208333
        k(   59) = (   0.2916667  -0.6495191   0.0000000), wk =   0.0208333
        k(   60) = (   0.2916667  -0.6014065   0.0000000), wk =   0.0416667
        k(   61) = (   0.3333333  -0.5773503   0.0000000), wk =   0.0069444

     Dense  grid:    46261 G-vectors     FFT dimensions: (  36,  36, 100)

     Estimated max dynamical RAM per process >      15.27 MB

     Estimated total dynamical RAM >     488.71 MB

     Check: negative core charge=   -0.000002

     Initial potential from superposition of free atoms

     starting charge      25.9978, renormalised to      26.0000

     negative rho (up, down):  4.294E-07 0.000E+00
     Starting wfcs are   21 randomized atomic wfcs +   15 random wfcs
     Checking if some PAW data can be deallocated... 

     total cpu time spent up to now is        1.1 secs

     Self-consistent Calculation

     iteration #  1     ecut=    65.00 Ry     beta= 0.70
     Davidson diagonalization with overlap
     ethr =  1.00E-02,  avg # of iterations =  6.9

     Threshold (ethr) on eigenvalues was too large:
     Diagonalizing with lowered threshold

     Davidson diagonalization with overlap
     ethr =  9.57E-04,  avg # of iterations =  1.0

     negative rho (up, down):  2.431E-05 0.000E+00

     total cpu time spent up to now is        6.2 secs

     total energy              =    -571.11607139 Ry
     estimated scf accuracy    <       0.25012416 Ry

     iteration #  2     ecut=    65.00 Ry     beta= 0.70
     Davidson diagonalization with overlap
     ethr =  9.62E-04,  avg # of iterations =  3.0

     negative rho (up, down):  1.593E-06 0.000E+00

     total cpu time spent up to now is        8.3 secs

     total energy              =    -571.10518521 Ry
     estimated scf accuracy    <       0.60354656 Ry

     iteration #  3     ecut=    65.00 Ry     beta= 0.70
     Davidson diagonalization with overlap
     ethr =  9.62E-04,  avg # of iterations =  2.1

     negative rho (up, down):  4.480E-06 0.000E+00

     total cpu time spent up to now is       10.2 secs

     total energy              =    -571.22896518 Ry
     estimated scf accuracy    <       0.02442232 Ry

     iteration #  4     ecut=    65.00 Ry     beta= 0.70
     Davidson diagonalization with overlap
     ethr =  9.39E-05,  avg # of iterations =  2.3

     negative rho (up, down):  1.322E-05 0.000E+00

     total cpu time spent up to now is       12.0 secs

     total energy              =    -571.23367711 Ry
     estimated scf accuracy    <       0.00349288 Ry

     iteration #  5     ecut=    65.00 Ry     beta= 0.70
     Davidson diagonalization with overlap
     ethr =  1.34E-05,  avg # of iterations =  4.9

     negative rho (up, down):  2.363E-05 0.000E+00

     total cpu time spent up to now is       14.1 secs

     total energy              =    -571.23434932 Ry
     estimated scf accuracy    <       0.00124173 Ry

     iteration #  6     ecut=    65.00 Ry     beta= 0.70
     Davidson diagonalization with overlap
     ethr =  4.78E-06,  avg # of iterations =  2.6

     negative rho (up, down):  2.799E-05 0.000E+00

     total cpu time spent up to now is       15.8 secs

     total energy              =    -571.23459912 Ry
     estimated scf accuracy    <       0.00002064 Ry

     iteration #  7     ecut=    65.00 Ry     beta= 0.70
     Davidson diagonalization with overlap
     ethr =  7.94E-08,  avg # of iterations =  2.2

     negative rho (up, down):  2.911E-05 0.000E+00

     total cpu time spent up to now is       17.6 secs

     total energy              =    -571.23460395 Ry
     estimated scf accuracy    <       0.00000076 Ry

     iteration #  8     ecut=    65.00 Ry     beta= 0.70
     Davidson diagonalization with overlap
     ethr =  2.94E-09,  avg # of iterations =  3.3

     negative rho (up, down):  2.938E-05 0.000E+00

     total cpu time spent up to now is       19.5 secs

     total energy              =    -571.23460417 Ry
     estimated scf accuracy    <       0.00000005 Ry

     iteration #  9     ecut=    65.00 Ry     beta= 0.70
     Davidson diagonalization with overlap
     ethr =  1.88E-10,  avg # of iterations =  2.0

     negative rho (up, down):  2.941E-05 0.000E+00

     total cpu time spent up to now is       21.2 secs

     End of self-consistent calculation

          k = 0.0000 0.0000 0.0000 (  5755 PWs)   bands (ev):

   -45.3813 -23.8614 -23.0903 -23.0903 -20.6684 -12.9851  -3.1540  -2.4634
    -2.4634  -1.1372   1.4031   1.4031   3.7778   5.8310   5.8310   5.9239
     6.8122   6.8122   7.9472   8.8041  11.1575  14.0189  14.7207  14.7207
    15.3172  17.2528  17.9595  17.9595  19.7730  20.6070  21.6581  21.6581
    23.0747  23.8379  23.8380  24.3805

          k = 0.0000 0.0481 0.0000 (  5742 PWs)   bands (ev):

   -45.3803 -23.8575 -23.1045 -23.0925 -20.6645 -12.9724  -3.1385  -2.4802
    -2.4633  -1.1268   1.2994   1.3846   3.7860   5.7972   5.8506   5.9743
     6.7836   6.8353   8.0048   8.9085  11.2186  14.0519  14.5229  14.7809
    15.2673  17.3714  17.9221  18.0387  19.7507  20.7163  21.5408  21.6574
    22.6734  23.6864  23.7253  24.3016

          k = 0.0000 0.0962 0.0000 (  5754 PWs)   bands (ev):

   -45.3773 -23.8462 -23.1452 -23.0989 -20.6537 -12.9349  -3.0943  -2.5269
    -2.4632  -1.0987   1.0145   1.3312   3.8042   5.7298   5.9112   6.0648
     6.7590   6.9003   8.1681   9.1724  11.4021  14.0429  14.1811  14.9605
    15.1068  17.5551  17.8149  18.3268  19.6071  20.9642  21.2508  21.6327
    22.1899  23.0084  23.4390  24.0865

          k = 0.0000 0.1443 0.0000 (  5750 PWs)   bands (ev):

   -45.3725 -23.8284 -23.2080 -23.1090 -20.6382 -12.8742  -3.0280  -2.5939
    -2.4638  -1.0602   0.6064   1.2490   3.8162   5.6626   6.0169   6.1207
     6.8398   6.9964   8.4157   9.5040  11.6923  13.6514  14.0805  15.0422
    15.2573  17.5895  17.6504  18.7804  19.2143  20.7441  21.2663  21.5365
    22.0175  22.5090  23.2783  23.4211

          k = 0.0000 0.1925 0.0000 (  5782 PWs)   bands (ev):

   -45.3663 -23.8058 -23.2863 -23.1222 -20.6209 -12.7929  -2.9521  -2.6672
    -2.4659  -1.0213   0.1363   1.1463   3.8028   5.6299   6.1488   6.1706
     7.0331   7.1108   8.7211   9.8361  11.9923  13.3516  13.8206  15.2458
    15.6662  17.4414  17.4558  18.4494  19.3033  20.2772  21.3486  21.3528
    21.6811  22.3673  23.2200  23.2378

          k = 0.0000 0.2406 0.0000 (  5774 PWs)   bands (ev):

   -45.3591 -23.7814 -23.3719 -23.1374 -20.6045 -12.6949  -2.8970  -2.7185
    -2.4700  -1.0021  -0.3347   1.0327   3.7547   5.6525   6.2071   6.3711
     7.2324   7.2877   9.0514  10.1370  12.0643  13.2122  13.7390  15.5975
    16.1764  17.0876  17.1997  17.7820  19.1088  20.2617  20.9335  21.1168
    21.2370  22.4798  23.1281  23.3021

          k = 0.0000 0.2887 0.0000 (  5776 PWs)   bands (ev):

   -45.3513 -23.7600 -23.4549 -23.1537 -20.5909 -12.5856  -2.9155  -2.6994
    -2.4766  -1.1003  -0.6767   0.9172   3.6802   5.7258   6.3249   6.6105
     7.3553   7.5777   9.3686  10.3925  11.9225  12.9499  14.1955  15.9222
    16.4868  16.7054  16.9998  17.2890  18.5248  20.1173  20.2013  20.8726
    21.4561  22.3229  22.3576  23.2267

          k = 0.0000 0.3368 0.0000 (  5790 PWs)   bands (ev):

   -45.3434 -23.7508 -23.5218 -23.1699 -20.5811 -12.4714  -2.9776  -2.6455
    -2.4853  -1.4357  -0.7444   0.8077   3.5983   5.8338   6.4939   6.8704
     7.4814   7.8995   9.6277  10.5915  11.8091  12.7136  14.7539  15.4980
    16.4828  16.5542  16.9268  17.5229  17.9258  19.4261  19.9401  20.6490
    21.6673  21.7028  22.1837  23.1597

          k = 0.0000 0.3849 0.0000 (  5808 PWs)   bands (ev):

   -45.3362 -23.7657 -23.5574 -23.1850 -20.5749 -12.3601  -3.0438  -2.6006
    -2.4951  -1.8039  -0.7215   0.7105   3.5264   5.9640   6.6747   7.1150
     7.6260   8.2592   9.7907  10.7453  11.8190  12.5811  14.5268  15.2977
    16.2209  16.2636  17.0262  17.6534  18.2384  18.8073  19.8036  20.4627
    21.1298  21.5256  22.2119  23.3089

          k = 0.0000 0.4330 0.0000 (  5800 PWs)   bands (ev):

   -45.3299 -23.8013 -23.5630 -23.1979 -20.5719 -12.2605  -3.1048  -2.5775
    -2.5048  -2.1075  -0.6866   0.6305   3.4738   6.1081   6.8136   7.2968
     7.8094   8.6625   9.8728  10.8781  11.9111  12.5650  13.7963  15.1882
    15.6914  15.8770  17.3836  17.8149  18.4809  18.8920  19.7342  20.3228
    20.8537  21.2958  22.1556  23.1203

          k = 0.0000 0.4811 0.0000 (  5782 PWs)   bands (ev):

   -45.3250 -23.8385 -23.5560 -23.2077 -20.5708 -12.1812  -3.1575  -2.5846
    -2.5131  -2.3111  -0.6557   0.5711   3.4413   6.2556   6.8726   7.4024
     8.0102   9.0959   9.9332  10.9876  11.9805  12.5724  13.2484  14.8531
    15.1512  15.5693  17.3146  18.2404  18.7149  19.2646  19.7049  20.2149
    21.0388  21.0906  22.0697  22.8526

          k = 0.0000 0.5292 0.0000 (  5798 PWs)   bands (ev):

   -45.3220 -23.8645 -23.5485 -23.2139 -20.5707 -12.1299  -3.1958  -2.6208
    -2.5186  -2.4027  -0.6352   0.5346   3.4250   6.3850   6.8592   7.4544
     8.1658   9.4881   9.9912  11.0922  11.8352  12.4497  13.2145  14.4005
    14.8756  15.3523  17.0792  18.6215  19.1144  19.3416  19.7156  20.1421
    20.9506  21.5894  21.9407  22.7848

          k = 0.0000-0.5774 0.0000 (  5798 PWs)   bands (ev):

   -45.3210 -23.8737 -23.5455 -23.2160 -20.5708 -12.1122  -3.2103  -2.6424
    -2.5206  -2.4234  -0.6280   0.5223   3.4203   6.4441   6.8361   7.4702
     8.2241   9.6650  10.0166  11.1881  11.6191  12.4176  13.3353  14.1505
    14.7979  15.2736  16.9822  18.7777  19.2481  19.3411  19.7542  20.1174
    20.9150  21.8576  21.9316  22.8211

          k = 0.0417 0.0722 0.0000 (  5749 PWs)   bands (ev):

   -45.3783 -23.8499 -23.1317 -23.0970 -20.6572 -12.9473  -3.1087  -2.5118
    -2.4634  -1.1076   1.1076   1.3463   3.7993   5.7482   5.8907   6.0441
     6.7546   6.8818   8.1152   9.0915  11.3415  14.0877  14.2393  14.8955
    15.1608  17.5191  17.8341  18.2365  19.6784  20.8814  21.3469  21.6465
    22.2995  22.9771  24.0080  24.1434

          k = 0.0417 0.1203 0.0000 (  5751 PWs)   bands (ev):

   -45.3744 -23.8353 -23.1830 -23.1056 -20.6440 -12.8982  -3.0531  -2.5682
    -2.4642  -1.0743   0.7678   1.2725   3.8150   5.6777   5.9777   6.1180
     6.7778   6.9690   8.3206   9.3853  11.5845  13.7958  14.1241  14.9677
    15.2107  17.5810  17.6937  18.6551  19.4174  20.9456  21.1318  21.5138
    22.0574  22.5608  23.4820  23.7911

          k = 0.0417 0.1684 0.0000 (  5759 PWs)   bands (ev):

   -45.3689 -23.8151 -23.2529 -23.1179 -20.6277 -12.8271  -2.9807  -2.6385
    -2.4664  -1.0354   0.3366   1.1721   3.8160   5.6218   6.1156   6.1555
     6.9073   7.0872   8.5974   9.7125  11.9088  13.4216  13.9268  15.0725
    15.5661  17.3687  17.6329  18.8013  19.2236  20.5040  20.9435  21.5464
    22.0913  22.2765  23.0395  23.3778

          k = 0.0417 0.2165 0.0000 (  5764 PWs)   bands (ev):

   -45.3622 -23.7914 -23.3342 -23.1330 -20.6110 -12.7374  -2.9095  -2.7050
    -2.4707  -1.0033  -0.1289   1.0553   3.7879   5.6138   6.1855   6.3102
     7.0952   7.2430   8.9159  10.0268  12.1384  13.2375  13.6622  15.3650
    16.0403  17.0634  17.4609  18.1113  19.4000  20.2020  20.6167  21.4487
    21.8190  22.1385  22.7975  23.2698

          k = 0.0417 0.2646 0.0000 (  5785 PWs)   bands (ev):

   -45.3546 -23.7680 -23.4179 -23.1496 -20.5961 -12.6336  -2.8889  -2.7216
    -2.4776  -1.0210  -0.5500   0.9321   3.7297   5.6657   6.2569   6.5456
     7.2613   7.4721   9.2413  10.3084  12.0687  13.0770  13.8397  15.7184
    16.5161  16.7490  17.0645  17.5494  18.9079  20.0708  20.4120  21.0070
    21.5314  22.1817  22.4264  23.2821

          k = 0.0417 0.3127 0.0000 (  5784 PWs)   bands (ev):

   -45.3468 -23.7516 -23.4929 -23.1668 -20.5844 -12.5216  -2.9391  -2.6734
    -2.4871  -1.2508  -0.7360   0.8115   3.6555   5.7670   6.3788   6.8047
     7.4011   7.7676   9.5337  10.5447  11.9073  12.8203  14.4086  15.7364
    16.2928  16.6114  17.1742  17.3300  18.2513  19.6321  20.0276  20.7298
    21.5437  22.0132  22.1387  23.2386

          k = 0.0417 0.3608 0.0000 (  5796 PWs)   bands (ev):

   -45.3393 -23.7536 -23.5440 -23.1834 -20.5766 -12.4086  -3.0050  -2.6202
    -2.4988  -1.6195  -0.7365   0.7007   3.5836   5.8993   6.5380   7.0500
     7.5433   8.1146   9.7504  10.7284  11.8405  12.6363  14.7991  15.1768
    16.0858  16.5976  16.9339  17.6977  18.0154  19.0539  19.8300  20.4391
    21.1405  21.8854  22.2656  23.1494

          k = 0.0417 0.4090 0.0000 (  5808 PWs)   bands (ev):

   -45.3325 -23.7805 -23.5621 -23.1982 -20.5721 -12.3027  -3.0679  -2.5851
    -2.5120  -1.9537  -0.7042   0.6058   3.5267   6.0477   6.6983   7.2374
     7.7072   8.5157   9.8751  10.8745  11.8903  12.5670  14.1644  15.1679
    15.7300  16.3067  17.0941  17.6497  18.4313  18.7875  19.7481  20.2422
    20.8017  21.7019  22.2873  22.9874

          k = 0.0417 0.4571 0.0000 (  5796 PWs)   bands (ev):

   -45.3270 -23.8185 -23.5591 -23.2103 -20.5701 -12.2128  -3.1236  -2.5818
    -2.5221  -2.2014  -0.6704   0.5310   3.4892   6.2008   6.8125   7.3518
     7.8864   8.9628   9.9481  10.9921  11.9817  12.5901  13.4803  14.9368
    15.2877  15.8546  17.3356  17.8999  18.4932  18.9776  19.8249  20.1202
    20.8065  21.5060  22.2513  22.7457

          k = 0.0417 0.5052 0.0000 (  5792 PWs)   bands (ev):

   -45.3230 -23.8505 -23.5509 -23.2188 -20.5696 -12.1471  -3.1682  -2.6182
    -2.5239  -2.3389  -0.6445   0.4795   3.4688   6.3435   6.8525   7.4123
     8.0462   9.4089  10.0156  11.0858  11.9691  12.5230  13.1714  14.5657
    14.9432  15.4859  17.1539  18.3925  18.8403  18.9658  19.8694  20.0664
    21.1288  21.3718  22.2633  22.5800

          k = 0.0417-0.6014 0.0000 (  5784 PWs)   bands (ev):

   -45.3210 -23.8681 -23.5454 -23.2232 -20.5696 -12.1124  -3.1945  -2.6577
    -2.5240  -2.3876  -0.6306   0.4533   3.4606   6.4432   6.8403   7.4382
     8.1428   9.7213  10.0780  11.1958  11.7051  12.4339  13.2925  14.1946
    14.8196  15.2689  16.9886  18.7263  18.9176  19.1029  19.8598  20.1342
    21.0182  21.6341  22.3618  22.5230

          k = 0.0833 0.1443 0.0000 (  5754 PWs)   bands (ev):

   -45.3698 -23.8183 -23.2407 -23.1173 -20.6301 -12.8387  -2.9906  -2.6276
    -2.4676  -1.0406   0.4153   1.1704   3.8212   5.6130   6.1046   6.1706
     6.8482   7.0840   8.5554   9.6694  11.8820  13.4464  13.9624  14.9891
    15.5670  17.3244  17.6738  18.9897  19.1943  20.5291  21.0523  21.2807
    22.0186  22.4952  23.1267  23.4620

          k = 0.0833 0.1925 0.0000 (  5750 PWs)   bands (ev):

   -45.3638 -23.7968 -23.3121 -23.1328 -20.6144 -12.7592  -2.9176  -2.6940
    -2.4739  -1.0065   0.0027   1.0397   3.8109   5.5738   6.2090   6.2951
     6.9813   7.2366   8.8461   9.9733  12.2313  13.1425  13.6778  15.1941
    16.0375  16.9649  17.5995  18.4067  19.6270  19.9884  20.6548  21.4412
    21.7746  22.2983  22.7658  23.2358

          k = 0.0833 0.2406 0.0000 (  5774 PWs)   bands (ev):

   -45.3568 -23.7737 -23.3901 -23.1510 -20.5994 -12.6634  -2.8650  -2.7389
    -2.4834  -0.9938  -0.4144   0.8954   3.7776   5.5902   6.2547   6.5341
     7.1418   7.4365   9.1618  10.2687  12.3425  13.0915  13.4850  15.4891
    16.4538  16.7364  17.3293  17.7581  19.2308  19.9216  20.4830  21.1921
    21.4649  22.0056  22.4173  23.2925

          k = 0.0833 0.2887 0.0000 (  5785 PWs)   bands (ev):

   -45.3492 -23.7539 -23.4652 -23.1706 -20.5867 -12.5566  -2.8943  -2.7049
    -2.4961  -1.1075  -0.7009   0.7496   3.7265   5.6713   6.3254   6.7917
     7.3027   7.6997   9.4679  10.5416  12.1619  12.9267  13.8772  15.6523
    16.2332  16.7342  17.3014  17.3701  18.5855  19.5394  20.2893  20.8532
    21.2194  21.8795  22.3413  23.5088

          k = 0.0833 0.3368 0.0000 (  5797 PWs)   bands (ev):

   -45.3417 -23.7462 -23.5247 -23.1902 -20.5772 -12.4452  -2.9574  -2.6447
    -2.5123  -1.4317  -0.7465   0.6118   3.6708   5.8072   6.4253   7.0206
     7.4672   8.0353   9.7272  10.7794  12.0046  12.7191  14.4688  15.2716
    15.9177  16.5588  17.0890  17.7885  18.0876  19.0682  19.9443  20.5242
    20.8974  21.9889  22.4506  23.5827

          k = 0.0833 0.3849 0.0000 (  5797 PWs)   bands (ev):

   -45.3346 -23.7610 -23.5553 -23.2084 -20.5712 -12.3368  -3.0198  -2.5976
    -2.5319  -1.7727  -0.7217   0.4896   3.6236   5.9770   6.5454   7.1862
     7.6336   8.4482   9.9108  10.9705  11.9638  12.6017  14.5284  14.8947
    15.6073  16.5331  16.9508  17.4570  18.3933  18.7809  19.7292  20.2510
    20.6764  21.9821  22.5439  23.2013

          k = 0.0833 0.4330 0.0000 (  5792 PWs)   bands (ev):

   -45.3286 -23.7941 -23.5593 -23.2240 -20.5679 -12.2398  -3.0750  -2.5888
    -2.5420  -2.0464  -0.6876   0.3886   3.5918   6.1563   6.6658   7.2924
     7.7789   8.9260  10.0250  11.1111  12.0171  12.5954  13.8112  14.7694
    15.3864  16.2681  16.9641  17.4848  18.4078  18.7551  19.5857  20.3430
    20.6307  21.9366  22.4655  22.8322

          k = 0.0833 0.4811 0.0000 (  5786 PWs)   bands (ev):

   -45.3239 -23.8283 -23.5522 -23.2360 -20.5666 -12.1628  -3.1204  -2.6334
    -2.5318  -2.2219  -0.6579   0.3132   3.5750   6.3210   6.7609   7.3510
     7.8923   9.4275  10.1105  11.2025  12.0686  12.6155  13.2523  14.5274
    15.0400  15.7842  17.0528  17.8153  18.4663  18.7946  19.4208  20.4286
    20.9297  21.8570  22.2870  22.6874

          k = 0.0833-0.6255 0.0000 (  5783 PWs)   bands (ev):

   -45.3210 -23.8522 -23.5449 -23.2436 -20.5663 -12.1130  -3.1521  -2.6873
    -2.5255  -2.3040  -0.6383   0.2668   3.5685   6.4442   6.8135   7.3719
     7.9728   9.8400  10.2198  11.2769  11.9103  12.4866  13.2058  14.2604
    14.8349  15.3698  16.9137  18.2815  18.4489  18.9599  19.4347  20.3668
    21.2059  21.6688  22.2037  22.7740

          k = 0.0833-0.5774 0.0000 (  5780 PWs)   bands (ev):

   -45.3200 -23.8606 -23.5421 -23.2462 -20.5662 -12.0958  -3.1638  -2.7104
    -2.5239  -2.3260  -0.6314   0.2511   3.5671   6.4923   6.8276   7.3746
     8.0041   9.9748  10.3288  11.3672  11.6597  12.4511  13.3170  14.0832
    14.8346  15.1700  16.8468  18.3305  18.5951  18.9760  19.5489  20.3243
    21.2769  21.5608  22.1714  22.9055

          k = 0.1250 0.2165 0.0000 (  5762 PWs)   bands (ev):

   -45.3575 -23.7757 -23.3796 -23.1525 -20.6005 -12.6735  -2.8545  -2.7463
    -2.4864  -0.9878  -0.3556   0.8710   3.7975   5.5548   6.2740   6.5295
     7.0878   7.4281   9.1349  10.2570  12.6180  12.8721  13.4053  15.4014
    16.4291  16.7198  17.4496  17.8613  19.2075  20.0623  20.5886  20.9580
    21.4919  21.8767  22.6480  23.2630

          k = 0.1250 0.2646 0.0000 (  5770 PWs)   bands (ev):

   -45.3505 -23.7555 -23.4478 -23.1752 -20.5877 -12.5745  -2.8563  -2.7340
    -2.5034  -1.0383  -0.6562   0.6879   3.7755   5.5908   6.3447   6.7738
     7.2355   7.6730   9.4342  10.5459  12.5366  12.9581  13.3704  15.5034
    16.2131  16.9603  17.3032  17.4391  18.5843  19.7971  20.4038  20.6844
    21.1295  21.7417  22.6037  23.2334

          k = 0.1250 0.3127 0.0000 (  5786 PWs)   bands (ev):

   -45.3432 -23.7427 -23.5069 -23.1992 -20.5774 -12.4680  -2.9124  -2.6719
    -2.5245  -1.2833  -0.7507   0.5078   3.7496   5.6910   6.4235   6.9656
     7.4245   7.9964   9.7133  10.8276  12.3191  12.8015  13.8816  15.2222
    16.0670  16.5086  17.1175  17.7865  18.2058  19.1566  19.9626  20.5815
    20.8344  21.8933  22.6903  23.2424

          k = 0.1250 0.3608 0.0000 (  5784 PWs)   bands (ev):

   -45.3362 -23.7468 -23.5447 -23.2226 -20.5700 -12.3607  -2.9708  -2.6171
    -2.5494  -1.6005  -0.7381   0.3428   3.7272   5.8496   6.5058   7.0961
     7.6097   8.4162   9.9434  11.0866  12.1842  12.6600  14.3943  14.7904
    15.4705  16.5070  16.9645  17.4178  18.4692  18.6910  19.6159  20.3103
    20.7780  21.9763  22.7359  23.3397

          k = 0.1250 0.4090 0.0000 (  5795 PWs)   bands (ev):

   -45.3298 -23.7707 -23.5562 -23.2437 -20.5653 -12.2605  -3.0230  -2.6038
    -2.5577  -1.8785  -0.7068   0.2014   3.7142   6.0490   6.5819   7.1955
     7.7410   8.9168  10.1106  11.2985  12.1437  12.6146  14.1058  14.6055
    15.2678  16.3709  16.7658  17.1499  18.3235  18.6768  19.3149  20.4188
    20.7946  21.9864  22.6270  23.2986

          k = 0.1250 0.4571 0.0000 (  5799 PWs)   bands (ev):

   -45.3247 -23.8023 -23.5519 -23.2610 -20.5628 -12.1757  -3.0658  -2.6509
    -2.5368  -2.0788  -0.6757   0.0896   3.7115   6.2593   6.6468   7.2752
     7.8073   9.4587  10.2282  11.4363  12.1622  12.6581  13.4902  14.3667
    15.1539  16.1383  16.6195  17.2010  18.1708  18.8184  19.0038  20.5921
    20.9369  22.0199  22.4135  23.1387

          k = 0.1250-0.6495 0.0000 (  5784 PWs)   bands (ev):

   -45.3210 -23.8288 -23.5440 -23.2734 -20.5618 -12.1139  -3.0970  -2.7107
    -2.5236  -2.1927  -0.6517   0.0122   3.7152   6.4315   6.7122   7.3204
     7.8296   9.9519  10.3585  11.5035  12.1228  12.5992  13.1593  14.2320
    14.8850  15.6364  16.6065  17.6204  18.0147  18.7601  19.1584  20.5658
    21.0221  21.9939  22.2419  22.9557

          k = 0.1250-0.6014 0.0000 (  5783 PWs)   bands (ev):

   -45.3191 -23.8434 -23.5388 -23.2798 -20.5614 -12.0812  -3.1139  -2.7519
    -2.5184  -2.2395  -0.6387  -0.0275   3.7191   6.5147   6.7785   7.3248
     7.8373  10.1564  10.6433  11.5612  11.8258  12.4713  13.2621  14.1110
    14.8256  15.2175  16.5326  17.8913  18.0665  18.6317  19.4825  20.4188
    21.0403  21.8062  22.1739  22.7726

          k = 0.1667 0.2887 0.0000 (  5772 PWs)   bands (ev):

   -45.3437 -23.7417 -23.4995 -23.2034 -20.5774 -12.4757  -2.8917  -2.6861
    -2.5291  -1.2251  -0.7512   0.4610   3.7818   5.6378   6.4460   6.9287
     7.4140   7.9848   9.7086  10.8440  12.5572  12.8457  13.5302  15.1521
    16.2792  16.4110  17.1081  17.7622  18.1983  19.4532  19.6859  20.6122
    20.9078  21.8803  22.9167  22.9289

          k = 0.1667 0.3368 0.0000 (  5791 PWs)   bands (ev):

   -45.3369 -23.7397 -23.5361 -23.2330 -20.5692 -12.3730  -2.9373  -2.6359
    -2.5575  -1.4879  -0.7504   0.2395   3.7957   5.7417   6.5452   7.0039
     7.6113   8.4029   9.9612  11.1478  12.4698  12.7247  13.9477  14.6969
    15.7176  16.3438  16.9069  17.4309  18.5546  18.8357  19.2687  20.3435
    21.0307  22.0155  22.6907  23.3046

          k = 0.1667 0.3849 0.0000 (  5801 PWs)   bands (ev):

   -45.3306 -23.7540 -23.5513 -23.2615 -20.5632 -12.2735  -2.9813  -2.6226
    -2.5648  -1.7364  -0.7263   0.0406   3.8165   5.9017   6.6194   7.0703
     7.7464   8.9139  10.1719  11.4354  12.3783  12.6670  14.1186  14.5454
    15.0641  16.1742  16.7178  17.1756  18.2844  18.6573  19.0220  20.3434
    21.2130  22.0433  22.5596  23.4766

          k = 0.1667 0.4330 0.0000 (  5805 PWs)   bands (ev):

   -45.3252 -23.7786 -23.5501 -23.2865 -20.5595 -12.1849  -3.0192  -2.6645
    -2.5397  -1.9336  -0.6990  -0.1241   3.8422   6.1048   6.6526   7.1598
     7.7975   9.4772  10.3292  11.6695  12.3096  12.7020  13.7295  14.3438
    15.0312  16.0282  16.4180  16.9369  17.9529  18.5663  18.9302  20.4161
    21.3581  22.1440  22.4081  23.5125

          k = 0.1667-0.6736 0.0000 (  5793 PWs)   bands (ev):

   -45.3210 -23.8029 -23.5427 -23.3061 -20.5573 -12.1147  -3.0481  -2.7199
    -2.5204  -2.0643  -0.6752  -0.2473   3.8682   6.3208   6.6603   7.2550
     7.7740  10.0261  10.4610  11.8068  12.2651  12.7586  13.2755  14.1476
    14.9567  15.8767  16.1940  16.9539  17.7187  18.3405  19.1811  20.4277
    21.2073  22.1605  22.3601  23.2179

          k = 0.1667-0.6255 0.0000 (  5775 PWs)   bands (ev):

   -45.3184 -23.8197 -23.5359 -23.3185 -20.5563 -12.0695  -3.0660  -2.7673
    -2.5105  -2.1329  -0.6589  -0.3239   3.8878   6.4852   6.6813   7.3164
     7.7176  10.2972  10.8064  11.8517  12.1184  12.5577  13.2254  14.1610
    14.7819  15.4507  16.0882  17.3482  17.5783  18.1522  19.5283  20.4110
    20.8641  21.9018  22.4153  22.7623

          k = 0.1667-0.5774 0.0000 (  5786 PWs)   bands (ev):

   -45.3175 -23.8256 -23.5333 -23.3228 -20.5561 -12.0539  -3.0721  -2.7860
    -2.5077  -2.1535  -0.6530  -0.3500   3.8951   6.5326   6.7138   7.3302
     7.6900  10.3274  11.1562  11.7816  11.9255  12.4666  13.3298  14.1377
    14.8282  15.1579  16.0434  17.5254  17.5797  18.0798  19.7264  20.3920
    20.6482  21.7297  22.4236  22.6685

          k = 0.2083 0.3608 0.0000 (  5796 PWs)   bands (ev):

   -45.3309 -23.7480 -23.5488 -23.2688 -20.5624 -12.2780  -2.9648  -2.6315
    -2.5666  -1.6774  -0.7363  -0.0237   3.8574   5.8361   6.6642   7.0004
     7.7530   8.9132  10.1941  11.4766  12.4968  12.7418  14.1002  14.3042
    15.2173  15.9714  16.7260  17.2156  18.4162  18.5441  18.8765  20.3183
    21.4281  22.1034  22.4418  23.7173

          k = 0.2083 0.4090 0.0000 (  5801 PWs)   bands (ev):

   -45.3254 -23.7643 -23.5481 -23.3032 -20.5575 -12.1897  -2.9925  -2.6718
    -2.5411  -1.8324  -0.7227  -0.2554   3.9256   5.9789   6.7192   7.0493
     7.8100   9.4845  10.3888  11.7735  12.4237  12.8372  13.8381  14.5117
    14.6917  15.6462  16.4561  17.0284  17.9045  18.2163  18.9612  20.3066
    21.7388  22.2323  22.3343  23.7331

          k = 0.2083-0.6976 0.0000 (  5797 PWs)   bands (ev):

   -45.3210 -23.7819 -23.5411 -23.3327 -20.5541 -12.1153  -3.0182  -2.7182
    -2.5174  -1.9446  -0.7198  -0.4327   3.9900   6.1613   6.6976   7.1667
     7.7799  10.0623  10.5340  11.9486  12.4147  12.9461  13.5472  14.1407
    14.8485  15.4985  16.2402  16.7064  17.5014  17.9378  19.2212  20.2348
    21.5648  22.0965  22.6035  23.3361

          k = 0.2083-0.6495 0.0000 (  5785 PWs)   bands (ev):

   -45.3179 -23.7957 -23.5336 -23.3543 -20.5521 -12.0614  -3.0392  -2.7564
    -2.5023  -2.0140  -0.7376  -0.5363   4.0406   6.3530   6.6584   7.2850
     7.6878  10.4030  10.8420  11.9755  12.4514  12.9101  13.2788  14.1221
    14.7587  15.4492  15.9724  16.6796  17.2719  17.7136  19.5467  20.1576
    21.1617  21.7998  22.5789  22.9474

          k = 0.2083-0.6014 0.0000 (  5776 PWs)   bands (ev):

   -45.3162 -23.8031 -23.5290 -23.3658 -20.5512 -12.0330  -3.0514  -2.7777
    -2.4953  -2.0462  -0.7632  -0.5729   4.0685   6.4886   6.6357   7.3565
     7.5980  10.4295  11.4007  11.9477  12.1649  12.7363  13.4228  14.1969
    14.6983  15.2953  15.6707  16.9345  17.1891  17.5857  19.7503  20.1538
    20.7814  21.5082  22.5115  22.8747

          k = 0.2500-0.7217 0.0000 (  5818 PWs)   bands (ev):

   -45.3210 -23.7737 -23.5403 -23.3432 -20.5529 -12.1155  -3.0089  -2.7157
    -2.5163  -1.8909  -0.7552  -0.4908   4.0380   6.0924   6.7266   7.1210
     7.7892  10.0724  10.5632  11.9602  12.4741  13.0864  13.7080  14.2099
    14.6692  15.2377  16.2595  16.7579  17.4954  17.6722  19.2362  20.1681
    21.7696  21.9926  22.7819  23.3492

          k = 0.2500-0.6736 0.0000 (  5785 PWs)   bands (ev):

   -45.3176 -23.7799 -23.5321 -23.3767 -20.5497 -12.0572  -3.0310  -2.7408
    -2.4966  -1.9196  -0.8748  -0.5899   4.1359   6.2386   6.6728   7.2422
     7.7024  10.4640  10.8436  11.9330  12.7133  13.2802  13.4844  13.9752
    14.6734  15.1877  16.1261  16.3954  17.0974  17.3366  19.5454  20.0289
    21.3935  21.7431  22.6423  23.1266

          k = 0.2500-0.6255 0.0000 (  5776 PWs)   bands (ev):

   -45.3154 -23.7831 -23.5263 -23.3992 -20.5478 -12.0198  -3.0511  -2.7494
    -2.4842  -1.9293  -1.0011  -0.6095   4.2027   6.3874   6.6169   7.3242
     7.6071  10.4847  11.4193  11.9051  12.6387  13.1930  13.4902  14.0543
    14.6384  15.2252  15.8554  16.2861  16.8997  17.1423  19.6085  20.0771
    20.9445  21.4987  22.5184  22.9222

          k = 0.2500-0.5774 0.0000 (  5778 PWs)   bands (ev):

   -45.3147 -23.7839 -23.5242 -23.4071 -20.5472 -12.0070  -3.0592  -2.7507
    -2.4799  -1.9307  -1.0497  -0.6125   4.2264   6.4648   6.5855   7.3390
     7.5739  10.4668  11.8347  12.0664  12.1119  13.2077  13.6189  14.0671
    14.6607  15.2890  15.5525  16.3637  16.8754  17.0675  19.5270  20.1744
    20.7893  21.3741  22.4886  22.8513

          k = 0.2917-0.6495 0.0000 (  5780 PWs)   bands (ev):

   -45.3152 -23.7747 -23.5253 -23.4121 -20.5466 -12.0154  -3.0534  -2.7358
    -2.4794  -1.8665  -1.1150  -0.6148   4.2547   6.3379   6.6172   7.2995
     7.6262  10.5025  11.4160  11.8649  12.9925  13.2703  13.5878  13.8766
    14.6517  15.2090  15.9442  16.1060  16.7313  16.9230  19.5395  20.0777
    20.9482  21.5907  22.5423  22.8543

          k = 0.2917-0.6014 0.0000 (  5777 PWs)   bands (ev):

   -45.3139 -23.7703 -23.5219 -23.4321 -20.5450 -11.9935  -3.0697  -2.7253
    -2.4691  -1.8082  -1.2828  -0.6189   4.3219   6.4275   6.5700   7.2784
     7.6153  10.4670  11.8357  12.0315  12.6508  13.2277  13.7633  13.9956
    14.7379  15.3358  15.7193  15.8907  16.5573  16.7145  19.3215  20.2547
    20.6700  21.5826  22.4815  22.6176

          k = 0.3333-0.5774 0.0000 (  5748 PWs)   bands (ev):

   -45.3134 -23.7648 -23.5206 -23.4444 -20.5440 -11.9844  -3.0776  -2.7138
    -2.4628  -1.7096  -1.4402  -0.6207   4.3663   6.4478   6.5506   7.2382
     7.6371  10.4490  11.8240  12.4372  12.7485  12.7949  13.9361  14.0943
    14.8386  15.4229  15.6860  15.6980  16.3413  16.5652  19.1831  20.4181
    20.4639  21.7695  22.2929  22.5495

     highest occupied, lowest unoccupied level (ev):     4.3663    5.5548

!    total energy              =    -571.23460418 Ry
     total all-electron energy =    -12610.612016 Ry
     estimated scf accuracy    <          9.5E-10 Ry

     The total energy is the sum of the following terms:
     one-electron contribution =    -278.66514428 Ry
     hartree contribution      =     147.86172412 Ry
     xc contribution           =     -36.35442972 Ry
     ewald contribution        =      -7.22127698 Ry
     one-center paw contrib.   =    -396.85547732 Ry

     convergence has been achieved in   9 iterations

     Writing all to output data dir ./tmp/ZrFBr.save/

     init_run     :      0.76s CPU      0.79s WALL (       1 calls)
     electrons    :     19.59s CPU     20.06s WALL (       1 calls)

     Called by init_run:
     wfcinit      :      0.54s CPU      0.56s WALL (       1 calls)
     potinit      :      0.12s CPU      0.13s WALL (       1 calls)
     hinit0       :      0.07s CPU      0.07s WALL (       1 calls)

     Called by electrons:
     c_bands      :     17.26s CPU     17.58s WALL (      10 calls)
     sum_band     :      1.87s CPU      1.94s WALL (      10 calls)
     v_of_rho     :      0.03s CPU      0.04s WALL (      10 calls)
     newd         :      0.06s CPU      0.07s WALL (      10 calls)
     PAW_pot      :      0.44s CPU      0.52s WALL (      10 calls)
     mix_rho      :      0.00s CPU      0.00s WALL (      10 calls)

     Called by c_bands:
     init_us_2    :      0.07s CPU      0.08s WALL (    1281 calls)
     init_us_2:cp :      0.07s CPU      0.08s WALL (    1281 calls)
     cegterg      :     17.08s CPU     17.38s WALL (     610 calls)

     Called by *egterg:
     cdiaghg      :      3.96s CPU      3.98s WALL (    2403 calls)
     h_psi        :      8.58s CPU      8.84s WALL (    2525 calls)
     s_psi        :      0.45s CPU      0.46s WALL (    2525 calls)
     g_psi        :      0.02s CPU      0.02s WALL (    1854 calls)

     Called by h_psi:
     h_psi:calbec :      0.76s CPU      0.78s WALL (    2525 calls)
     vloc_psi     :      7.35s CPU      7.58s WALL (    2525 calls)
     add_vuspsi   :      0.45s CPU      0.46s WALL (    2525 calls)

     General routines
     calbec       :      1.05s CPU      1.08s WALL (    3135 calls)
     fft          :      0.02s CPU      0.02s WALL (     111 calls)
     ffts         :      0.00s CPU      0.00s WALL (      10 calls)
     fftw         :      8.21s CPU      8.46s WALL (  130316 calls)

     Parallel routines

     PWSCF        :     20.95s CPU     21.80s WALL


   This run was terminated on:  15:36:21  10Sep2026            

=------------------------------------------------------------------------------=
   JOB DONE.
=------------------------------------------------------------------------------=
