
     Program PWSCF v.7.2 starts on  7Aug2026 at 16:45: 4 

     This program is part of the open-source Quantum ESPRESSO suite
     for quantum simulation of materials; please cite
         "P. Giannozzi et al., J. Phys.:Condens. Matter 21 395502 (2009);
         "P. Giannozzi et al., J. Phys.:Condens. Matter 29 465901 (2017);
         "P. Giannozzi et al., J. Chem. Phys. 152 154105 (2020);
          URL http://www.quantum-espresso.org", 
     in publications or presentations arising from this work. More details at
     http://www.quantum-espresso.org/quote

     Parallel version (MPI), running on    32 processors

     MPI processes distributed on     1 nodes
     227842 MiB available memory on the printing compute node when the environment starts

     Waiting for input...
     Reading input from standard input

     Current dimensions of program PWSCF are:
     Max number of different atomic species (ntypx) = 10
     Max number of k-points (npk) =  40000
     Max angular momentum in pseudopotentials (lmaxx) =  4

     Atomic positions and unit cell read from directory:
     ./out/ZrCl2.save/
     Atomic positions from file used, from input discarded

     file Zr.pbe-spn-kjpaw_psl.1.0.0.UPF: wavefunction(s)  4S 4P renormalized
     file Cl.pbe-n-kjpaw_psl.1.0.0.UPF: wavefunction(s)  3S 3P renormalized
     Message from routine setup:
     using ibrav=0 with symmetry is DISCOURAGED, use correct ibrav instead

     R & G space division:  proc/nbgrp/npool/nimage =      32
     Subspace diagonalization in iterative solution of the eigenvalue problem:
     a serial algorithm will be used


     Parallelization info
     --------------------
     sticks:   dense  smooth     PW     G-vecs:    dense   smooth      PW
     Min          18      18      5                 2052     2052     321
     Max          19      19      6                 2068     2068     348
     Sum         583     583    163                65927    65927   10613

     Using Slab Decomposition



     bravais-lattice index     =            0
     lattice parameter (alat)  =       6.4451  a.u.
     unit-cell volume          =    1376.9368 (a.u.)^3
     number of atoms/cell      =            3
     number of atomic types    =            2
     number of electrons       =        26.00
     number of Kohn-Sham states=           26
     kinetic-energy cutoff     =      50.0000  Ry
     charge density cutoff     =     200.0000  Ry
     Exchange-correlation= SLA  PW   PBX  PBC
                           (   1   4   3   4   0   0   0)

     celldm(1)=   6.445054  celldm(2)=   0.000000  celldm(3)=   0.000000
     celldm(4)=   0.000000  celldm(5)=   0.000000  celldm(6)=   0.000000

     crystal axes: (cart. coord. in units of alat)
               a(1) = (   1.000000  -0.000000   0.000000 )  
               a(2) = (  -0.500000   0.866025   0.000000 )  
               a(3) = (  -0.000000  -0.000000   5.938867 )  

     reciprocal axes: (cart. coord. in units 2 pi/alat)
               b(1) = (  1.000000  0.577350  0.000000 )  
               b(2) = (  0.000000  1.154701  0.000000 )  
               b(3) = ( -0.000000 -0.000000  0.168382 )  


     PseudoPot. # 1 for Zr read from file:
     /mgpfs/home/rabdillah/repo/qe/pseudo/Zr.pbe-spn-kjpaw_psl.1.0.0.UPF
     MD5 check sum: 02112c41713a0468aff2bb39ef194e36
     Pseudo is Projector augmented-wave + core cor, Zval = 12.0
     Generated using &quot;atomic&quot; code by A. Dal Corso  v.6.2.2
     Shape of augmentation charge: PSQ
     Using radial grid of 1225 points,  6 beta functions with: 
                l(1) =   0
                l(2) =   0
                l(3) =   1
                l(4) =   1
                l(5) =   2
                l(6) =   2
     Q(r) pseudized with 0 coefficients 


     PseudoPot. # 2 for Cl read from file:
     /mgpfs/home/rabdillah/repo/qe/pseudo/Cl.pbe-n-kjpaw_psl.1.0.0.UPF
     MD5 check sum: 530da96d25dcb7781b0586ca00827062
     Pseudo is Projector augmented-wave + core cor, Zval =  7.0
     Generated using &quot;atomic&quot; code by A. Dal Corso  v.6.3
     Shape of augmentation charge: PSQ
     Using radial grid of 1157 points,  6 beta functions with: 
                l(1) =   0
                l(2) =   0
                l(3) =   1
                l(4) =   1
                l(5) =   2
                l(6) =   2
     Q(r) pseudized with 0 coefficients 


     atomic species   valence    mass     pseudopotential
        Zr            12.00    91.22400     Zr( 1.00)
        Cl             7.00    35.45300     Cl( 1.00)

     12 Sym. Ops. (no inversion) found



   Cartesian axes

     site n.     atom                  positions (alat units)
         1           Zr  tau(   1) = (   0.0000000   0.0000000   2.9694337  )
         2           Cl  tau(   2) = (  -0.0000000   0.5773503   3.4721697  )
         3           Cl  tau(   3) = (  -0.0000000   0.5773503   2.4666976  )

     number of k points=    91
                       cart. coord. in units 2pi/alat
        k(    1) = (   0.0000000   0.0000000   0.0000000), wk =   0.0219780
        k(    2) = (   0.0166667   0.0096225   0.0000000), wk =   0.0219780
        k(    3) = (   0.0333333   0.0192450   0.0000000), wk =   0.0219780
        k(    4) = (   0.0500000   0.0288675   0.0000000), wk =   0.0219780
        k(    5) = (   0.0666667   0.0384900   0.0000000), wk =   0.0219780
        k(    6) = (   0.0833333   0.0481125   0.0000000), wk =   0.0219780
        k(    7) = (   0.1000000   0.0577350   0.0000000), wk =   0.0219780
        k(    8) = (   0.1166667   0.0673575   0.0000000), wk =   0.0219780
        k(    9) = (   0.1333333   0.0769800   0.0000000), wk =   0.0219780
        k(   10) = (   0.1500000   0.0866025   0.0000000), wk =   0.0219780
        k(   11) = (   0.1666667   0.0962250   0.0000000), wk =   0.0219780
        k(   12) = (   0.1833333   0.1058475   0.0000000), wk =   0.0219780
        k(   13) = (   0.2000000   0.1154701   0.0000000), wk =   0.0219780
        k(   14) = (   0.2166667   0.1250926   0.0000000), wk =   0.0219780
        k(   15) = (   0.2333333   0.1347151   0.0000000), wk =   0.0219780
        k(   16) = (   0.2500000   0.1443376   0.0000000), wk =   0.0219780
        k(   17) = (   0.2666667   0.1539601   0.0000000), wk =   0.0219780
        k(   18) = (   0.2833333   0.1635826   0.0000000), wk =   0.0219780
        k(   19) = (   0.3000000   0.1732051   0.0000000), wk =   0.0219780
        k(   20) = (   0.3166667   0.1828276   0.0000000), wk =   0.0219780
        k(   21) = (   0.3333333   0.1924501   0.0000000), wk =   0.0219780
        k(   22) = (   0.3500000   0.2020726   0.0000000), wk =   0.0219780
        k(   23) = (   0.3666667   0.2116951   0.0000000), wk =   0.0219780
        k(   24) = (   0.3833333   0.2213176   0.0000000), wk =   0.0219780
        k(   25) = (   0.4000000   0.2309401   0.0000000), wk =   0.0219780
        k(   26) = (   0.4166667   0.2405626   0.0000000), wk =   0.0219780
        k(   27) = (   0.4333333   0.2501851   0.0000000), wk =   0.0219780
        k(   28) = (   0.4500000   0.2598076   0.0000000), wk =   0.0219780
        k(   29) = (   0.4666667   0.2694301   0.0000000), wk =   0.0219780
        k(   30) = (   0.4833333   0.2790526   0.0000000), wk =   0.0219780
        k(   31) = (   0.5000000   0.2886751   0.0000000), wk =   0.0219780
        k(   32) = (   0.4944444   0.2982976   0.0000000), wk =   0.0219780
        k(   33) = (   0.4888889   0.3079201   0.0000000), wk =   0.0219780
        k(   34) = (   0.4833333   0.3175426   0.0000000), wk =   0.0219780
        k(   35) = (   0.4777778   0.3271652   0.0000000), wk =   0.0219780
        k(   36) = (   0.4722222   0.3367877   0.0000000), wk =   0.0219780
        k(   37) = (   0.4666667   0.3464102   0.0000000), wk =   0.0219780
        k(   38) = (   0.4611111   0.3560327   0.0000000), wk =   0.0219780
        k(   39) = (   0.4555556   0.3656552   0.0000000), wk =   0.0219780
        k(   40) = (   0.4500000   0.3752777   0.0000000), wk =   0.0219780
        k(   41) = (   0.4444444   0.3849002   0.0000000), wk =   0.0219780
        k(   42) = (   0.4388889   0.3945227   0.0000000), wk =   0.0219780
        k(   43) = (   0.4333333   0.4041452   0.0000000), wk =   0.0219780
        k(   44) = (   0.4277778   0.4137677   0.0000000), wk =   0.0219780
        k(   45) = (   0.4222222   0.4233902   0.0000000), wk =   0.0219780
        k(   46) = (   0.4166667   0.4330127   0.0000000), wk =   0.0219780
        k(   47) = (   0.4111111   0.4426352   0.0000000), wk =   0.0219780
        k(   48) = (   0.4055556   0.4522577   0.0000000), wk =   0.0219780
        k(   49) = (   0.4000000   0.4618802   0.0000000), wk =   0.0219780
        k(   50) = (   0.3944444   0.4715027   0.0000000), wk =   0.0219780
        k(   51) = (   0.3888889   0.4811252   0.0000000), wk =   0.0219780
        k(   52) = (   0.3833333   0.4907477   0.0000000), wk =   0.0219780
        k(   53) = (   0.3777778   0.5003702   0.0000000), wk =   0.0219780
        k(   54) = (   0.3722222   0.5099927   0.0000000), wk =   0.0219780
        k(   55) = (   0.3666667   0.5196152   0.0000000), wk =   0.0219780
        k(   56) = (   0.3611111   0.5292377   0.0000000), wk =   0.0219780
        k(   57) = (   0.3555556   0.5388603   0.0000000), wk =   0.0219780
        k(   58) = (   0.3500000   0.5484828   0.0000000), wk =   0.0219780
        k(   59) = (   0.3444444   0.5581053   0.0000000), wk =   0.0219780
        k(   60) = (   0.3388889   0.5677278   0.0000000), wk =   0.0219780
        k(   61) = (   0.3333333   0.5773503   0.0000000), wk =   0.0219780
        k(   62) = (   0.3222222   0.5581053   0.0000000), wk =   0.0219780
        k(   63) = (   0.3111111   0.5388603   0.0000000), wk =   0.0219780
        k(   64) = (   0.3000000   0.5196152   0.0000000), wk =   0.0219780
        k(   65) = (   0.2888889   0.5003702   0.0000000), wk =   0.0219780
        k(   66) = (   0.2777778   0.4811252   0.0000000), wk =   0.0219780
        k(   67) = (   0.2666667   0.4618802   0.0000000), wk =   0.0219780
        k(   68) = (   0.2555556   0.4426352   0.0000000), wk =   0.0219780
        k(   69) = (   0.2444444   0.4233902   0.0000000), wk =   0.0219780
        k(   70) = (   0.2333333   0.4041452   0.0000000), wk =   0.0219780
        k(   71) = (   0.2222222   0.3849002   0.0000000), wk =   0.0219780
        k(   72) = (   0.2111111   0.3656552   0.0000000), wk =   0.0219780
        k(   73) = (   0.2000000   0.3464102   0.0000000), wk =   0.0219780
        k(   74) = (   0.1888889   0.3271652   0.0000000), wk =   0.0219780
        k(   75) = (   0.1777778   0.3079201   0.0000000), wk =   0.0219780
        k(   76) = (   0.1666667   0.2886751   0.0000000), wk =   0.0219780
        k(   77) = (   0.1555556   0.2694301   0.0000000), wk =   0.0219780
        k(   78) = (   0.1444444   0.2501851   0.0000000), wk =   0.0219780
        k(   79) = (   0.1333333   0.2309401   0.0000000), wk =   0.0219780
        k(   80) = (   0.1222222   0.2116951   0.0000000), wk =   0.0219780
        k(   81) = (   0.1111111   0.1924501   0.0000000), wk =   0.0219780
        k(   82) = (   0.1000000   0.1732051   0.0000000), wk =   0.0219780
        k(   83) = (   0.0888889   0.1539601   0.0000000), wk =   0.0219780
        k(   84) = (   0.0777778   0.1347151   0.0000000), wk =   0.0219780
        k(   85) = (   0.0666667   0.1154701   0.0000000), wk =   0.0219780
        k(   86) = (   0.0555556   0.0962250   0.0000000), wk =   0.0219780
        k(   87) = (   0.0444444   0.0769800   0.0000000), wk =   0.0219780
        k(   88) = (   0.0333333   0.0577350   0.0000000), wk =   0.0219780
        k(   89) = (   0.0222222   0.0384900   0.0000000), wk =   0.0219780
        k(   90) = (   0.0111111   0.0192450   0.0000000), wk =   0.0219780
        k(   91) = (   0.0000000   0.0000000   0.0000000), wk =   0.0219780

     Dense  grid:    65927 G-vectors     FFT dimensions: (  30,  30, 180)

     Estimated max dynamical RAM per process >       9.21 MB

     Estimated total dynamical RAM >     294.87 MB

     Check: negative core charge=   -0.000006

     The potential is recalculated from file :
     ./out/ZrCl2.save/charge-density


     negative rho (up, down):  2.426E-03 0.000E+00
     Starting wfcs are   21 randomized atomic wfcs +    5 random wfcs
     Checking if some PAW data can be deallocated... 

     Band Structure Calculation
     Davidson diagonalization with overlap

     ethr =  3.85E-09,  avg # of iterations = 37.8

     total cpu time spent up to now is       21.3 secs

     End of band structure calculation

          k = 0.0000 0.0000 0.0000 (  8277 PWs)   bands (ev):

   -49.3876 -27.6566 -27.1871 -27.1871 -17.5072 -16.9213  -6.8622  -4.8484
    -4.2870  -4.2870  -4.0446  -4.0446  -0.2896   1.4182   1.4182   2.2496
     2.2496   2.5406   3.4874   3.5704   4.3605   4.9410   5.8638   6.4306
     8.0943   9.2586

          k = 0.0167 0.0096 0.0000 (  8285 PWs)   bands (ev):

   -49.3875 -27.6562 -27.1885 -27.1874 -17.5051 -16.9208  -6.8589  -4.8511
    -4.2976  -4.2868  -4.0496  -4.0479  -0.2895   1.4141   1.4213   2.2463
     2.2538   2.5544   3.4932   3.5769   4.3671   4.9501   5.8752   6.4365
     8.0981   9.2094

          k = 0.0333 0.0192 0.0000 (  8255 PWs)   bands (ev):

   -49.3871 -27.6551 -27.1928 -27.1883 -17.4987 -16.9194  -6.8490  -4.8592
    -4.3289  -4.2860  -4.0646  -4.0576  -0.2893   1.4022   1.4305   2.2369
     2.2664   2.5954   3.5109   3.5960   4.3868   4.9769   5.9098   6.4541
     8.1096   9.1060

          k = 0.0500 0.0289 0.0000 (  8245 PWs)   bands (ev):

   -49.3864 -27.6533 -27.1999 -27.1897 -17.4881 -16.9171  -6.8326  -4.8729
    -4.3800  -4.2848  -4.0889  -4.0736  -0.2896   1.3840   1.4461   2.2231
     2.2870   2.6619   3.5403   3.6269   4.4194   5.0195   5.9676   6.4831
     8.1285   8.9786

          k = 0.0667 0.0385 0.0000 (  8241 PWs)   bands (ev):

   -49.3856 -27.6508 -27.2096 -27.1918 -17.4734 -16.9138  -6.8099  -4.8923
    -4.4491  -4.2833  -4.1220  -4.0955  -0.2909   1.3616   1.4681   2.2071
     2.3152   2.7513   3.5815   3.6685   4.4648   5.0755   6.0489   6.5232
     8.1545   8.8385

          k = 0.0833 0.0481 0.0000 (  8237 PWs)   bands (ev):

   -49.3844 -27.6476 -27.2220 -27.1943 -17.4548 -16.9097  -6.7814  -4.9177
    -4.5343  -4.2814  -4.1626  -4.1229  -0.2943   1.3378   1.4967   2.1913
     2.3504   2.8603   3.6346   3.7197   4.5225   5.1422   6.1534   6.5738
     8.1871   8.6928

          k = 0.1000 0.0577 0.0000 (  8233 PWs)   bands (ev):

   -49.3831 -27.6437 -27.2368 -27.1974 -17.4324 -16.9047  -6.7475  -4.9494
    -4.6332  -4.2794  -4.2093  -4.1554  -0.3007   1.3157   1.5322   2.1778
     2.3916   2.9848   3.6998   3.7798   4.5923   5.2171   6.2797   6.6344
     8.2252   8.5466

          k = 0.1167 0.0674 0.0000 (  8245 PWs)   bands (ev):

   -49.3816 -27.6393 -27.2538 -27.2010 -17.4064 -16.8989  -6.7086  -4.9878
    -4.7434  -4.2774  -4.2606  -4.1923  -0.3114   1.2986   1.5748   2.1683
     2.4382   3.1207   3.7774   3.8482   4.6739   5.2986   6.4258   6.7042
     8.2673   8.4041

          k = 0.1333 0.0770 0.0000 (  8237 PWs)   bands (ev):

   -49.3799 -27.6343 -27.2728 -27.2049 -17.3772 -16.8923  -6.6654  -5.0334
    -4.8626  -4.3145  -4.2754  -4.2331  -0.3273   1.2895   1.6248   2.1640
     2.4891   3.2633   3.8676   3.9246   4.7667   5.3855   6.5882   6.7820
     8.2691   8.3109

          k = 0.1500 0.0866 0.0000 (  8231 PWs)   bands (ev):

   -49.3780 -27.6288 -27.2936 -27.2093 -17.3450 -16.8851  -6.6187  -5.0865
    -4.9883  -4.3692  -4.2770  -4.2737  -0.3491   1.2910   1.6824   2.1656
     2.5433   3.4086   3.9705   4.0086   4.8702   5.4774   6.7624   6.8664
     8.1454   8.3521

          k = 0.1667 0.0962 0.0000 (  8231 PWs)   bands (ev):

   -49.3759 -27.6229 -27.3160 -27.2140 -17.3102 -16.8773  -6.5692  -5.1473
    -5.1183  -4.4231  -4.3235  -4.2724  -0.3769   1.3053   1.7477   2.1733
     2.5998   3.5534   4.0850   4.1003   4.9832   5.5743   6.9426   6.9550
     8.0377   8.3845

          k = 0.1833 0.1058 0.0000 (  8239 PWs)   bands (ev):

   -49.3737 -27.6166 -27.3396 -27.2190 -17.2730 -16.8689  -6.5181  -5.2506
    -5.2157  -4.4745  -4.3718  -4.2715  -0.4103   1.3334   1.8208   2.1870
     2.6577   3.6959   4.1995   4.2096   5.1040   5.6762   7.0438   7.1210
     7.9519   8.4009

          k = 0.2000 0.1155 0.0000 (  8225 PWs)   bands (ev):

   -49.3714 -27.6100 -27.3642 -27.2243 -17.2338 -16.8600  -6.4666  -5.3829
    -5.2911  -4.5226  -4.4214  -4.2712  -0.4483   1.3759   1.9019   2.2061
     2.7158   3.8357   4.3063   4.3416   5.2297   5.7832   7.1264   7.2869
     7.8965   8.3990

          k = 0.2167 0.1251 0.0000 (  8203 PWs)   bands (ev):

   -49.3691 -27.6031 -27.3896 -27.2297 -17.1931 -16.8508  -6.4161  -5.5130
    -5.3724  -4.5667  -4.4715  -4.2715  -0.4896   1.4327   1.9906   2.2299
     2.7735   3.9733   4.4206   4.4782   5.3567   5.8954   7.1938   7.4250
     7.8820   8.3900

          k = 0.2333 0.1347 0.0000 (  8199 PWs)   bands (ev):

   -49.3666 -27.5961 -27.4153 -27.2352 -17.1513 -16.8413  -6.3690  -5.6381
    -5.4584  -4.6066  -4.5217  -4.2724  -0.5324   1.5030   2.0869   2.2576
     2.8298   4.1094   4.5422   4.6169   5.4809   6.0130   7.2396   7.5160
     7.9162   8.3982

          k = 0.2500 0.1443 0.0000 (  8207 PWs)   bands (ev):

   -49.3642 -27.5890 -27.4412 -27.2408 -17.1088 -16.8316  -6.3289  -5.7543
    -5.5476  -4.6424  -4.5714  -4.2740  -0.5753   1.5861   2.1902   2.2882
     2.8841   4.2445   4.6712   4.7559   5.5980   6.1356   7.2660   7.5474
     7.9965   8.4434

          k = 0.2667 0.1540 0.0000 (  8195 PWs)   bands (ev):

   -49.3617 -27.5818 -27.4670 -27.2463 -17.0661 -16.8219  -6.3024  -5.8545
    -5.6384  -4.6744  -4.6200  -4.2762  -0.6166   1.6807   2.3001   2.3206
     2.9358   4.3781   4.8074   4.8941   5.7047   6.2632   7.2832   7.5266
     8.1109   8.5231

          k = 0.2833 0.1636 0.0000 (  8200 PWs)   bands (ev):

   -49.3593 -27.5748 -27.4923 -27.2518 -17.0235 -16.8121  -6.3010  -5.9270
    -5.7292  -4.7029  -4.6672  -4.2789  -0.6551   1.7856   2.3539   2.4158
     2.9844   4.5090   4.9506   5.0311   5.7996   6.3949   7.3004   7.4742
     8.2455   8.6198

          k = 0.3000 0.1732 0.0000 (  8210 PWs)   bands (ev):

   -49.3570 -27.5679 -27.5170 -27.2572 -16.9817 -16.8025  -6.3354  -5.9609
    -5.8185  -4.7281  -4.7124  -4.2821  -0.6899   1.8996   2.3871   2.5363
     3.0296   4.6351   5.1006   5.1667   5.8834   6.5295   7.3224   7.4093
     8.3885   8.7168

          k = 0.3167 0.1828 0.0000 (  8216 PWs)   bands (ev):

   -49.3547 -27.5612 -27.5407 -27.2624 -16.9410 -16.7932  -6.4001  -5.9615
    -5.9052  -4.7554  -4.7503  -4.2858  -0.7203   2.0210   2.4192   2.6604
     3.0711   4.7533   5.2571   5.3010   5.9593   6.6642   7.3456   7.3509
     8.5296   8.8031

          k = 0.3333 0.1925 0.0000 (  8204 PWs)   bands (ev):

   -49.3525 -27.5632 -27.5548 -27.2673 -16.9019 -16.7842  -6.4791  -5.9879
    -5.9443  -4.7957  -4.7699  -4.2896  -0.7459   2.1482   2.4497   2.7866
     3.1088   4.8603   5.4197   5.4330   6.0320   6.7921   7.2961   7.3859
     8.6587   8.8709

          k = 0.3500 0.2021 0.0000 (  8222 PWs)   bands (ev):

   -49.3504 -27.5843 -27.5487 -27.2720 -16.8649 -16.7757  -6.5610  -6.0657
    -5.9206  -4.8330  -4.7869  -4.2937  -0.7666   2.2794   2.4778   2.9131
     3.1425   4.9536   5.5588   5.5875   6.1085   6.8958   7.2817   7.4282
     8.7635   8.9138

          k = 0.3667 0.2117 0.0000 (  8232 PWs)   bands (ev):

   -49.3485 -27.6037 -27.5431 -27.2763 -16.8303 -16.7678  -6.6400  -6.1377
    -5.8957  -4.8671  -4.8017  -4.2977  -0.7828   2.4122   2.5030   3.0378
     3.1723   5.0323   5.6704   5.7594   6.1982   6.9485   7.3311   7.4793
     8.8264   8.9257

          k = 0.3833 0.2213 0.0000 (  8230 PWs)   bands (ev):

   -49.3468 -27.6214 -27.5380 -27.2802 -16.7987 -16.7605  -6.7130  -6.2029
    -5.8720  -4.8977  -4.8143  -4.3016  -0.7947   2.5252   2.5440   3.1585
     3.1983   5.0971   5.7560   5.9335   6.3124   6.9540   7.4410   7.5407
     8.8293   8.9019

          k = 0.4000 0.2309 0.0000 (  8228 PWs)   bands (ev):

   -49.3452 -27.6370 -27.5335 -27.2837 -16.7705 -16.7540  -6.7785  -6.2608
    -5.8509  -4.9247  -4.8249  -4.3053  -0.8030   2.5442   2.6715   3.2205
     3.2722   5.1503   5.8083   6.1061   6.4575   6.9448   7.5795   7.6127
     8.7730   8.8420

          k = 0.4167 0.2406 0.0000 (  8230 PWs)   bands (ev):

   -49.3439 -27.6505 -27.5295 -27.2867 -16.7483 -16.7459  -6.8352  -6.3107
    -5.8328  -4.9478  -4.8337  -4.3087  -0.8083   2.5599   2.7911   3.2389
     3.3762   5.1945   5.8295   6.2701   6.6310   6.9438   7.6924   7.7230
     8.6813   8.7537

          k = 0.4333 0.2502 0.0000 (  8238 PWs)   bands (ev):

   -49.3428 -27.6617 -27.5263 -27.2892 -16.7436 -16.7253  -6.8824  -6.3523
    -5.8180  -4.9669  -4.8408  -4.3116  -0.8114   2.5724   2.8984   3.2539
     3.4672   5.2319   5.8273   6.4126   6.8264   6.9685   7.7725   7.8504
     8.5769   8.6570

          k = 0.4500 0.2598 0.0000 (  8222 PWs)   bands (ev):

   -49.3419 -27.6706 -27.5237 -27.2911 -16.7398 -16.7090  -6.9196  -6.3849
    -5.8065  -4.9818  -4.8462  -4.3139  -0.8130   2.5820   2.9888   3.2654
     3.5421   5.2636   5.8112   6.5160   7.0348   7.0366   7.8404   7.9274
     8.4646   8.5914

          k = 0.4667 0.2694 0.0000 (  8222 PWs)   bands (ev):

   -49.3412 -27.6769 -27.5218 -27.2926 -16.7371 -16.6972  -6.9465  -6.4085
    -5.7984  -4.9926  -4.8500  -4.3157  -0.8136   2.5886   3.0577   3.2735
     3.5980   5.2891   5.7901   6.5741   7.1421   7.2543   7.8779   7.9165
     8.3318   8.6002

          k = 0.4833 0.2791 0.0000 (  8220 PWs)   bands (ev):

   -49.3409 -27.6808 -27.5206 -27.2934 -16.7354 -16.6901  -6.9627  -6.4227
    -5.7936  -4.9991  -4.8523  -4.3167  -0.8138   2.5926   3.1009   3.2783
     3.6327   5.3064   5.7727   6.5996   7.2573   7.4649   7.8431   7.8581
     8.1995   8.6629

          k = 0.5000 0.2887 0.0000 (  8240 PWs)   bands (ev):

   -49.3407 -27.6821 -27.5203 -27.2937 -16.7349 -16.6877  -6.9682  -6.4275
    -5.7919  -5.0012  -4.8530  -4.3171  -0.8138   2.5939   3.1157   3.2799
     3.6444   5.3127   5.7659   6.6066   7.3140   7.5938   7.7970   7.7978
     8.1457   8.7005

          k = 0.4944 0.2983 0.0000 (  8236 PWs)   bands (ev):

   -49.3407 -27.6819 -27.5202 -27.2941 -16.7348 -16.6874  -6.9669  -6.4275
    -5.7917  -5.0038  -4.8519  -4.3205  -0.8114   2.5964   3.1141   3.2784
     3.6415   5.3168   5.7696   6.6105   7.3145   7.5957   7.7986   7.7992
     8.1472   8.7019

          k = 0.4889 0.3079 0.0000 (  8226 PWs)   bands (ev):

   -49.3407 -27.6813 -27.5201 -27.2953 -16.7346 -16.6866  -6.9631  -6.4274
    -5.7909  -5.0112  -4.8490  -4.3307  -0.8043   2.6040   3.1094   3.2740
     3.6332   5.3289   5.7809   6.6225   7.3163   7.6014   7.8032   7.8032
     8.1516   8.7060

          k = 0.4833 0.3175 0.0000 (  8220 PWs)   bands (ev):

   -49.3406 -27.6804 -27.5199 -27.2972 -16.7341 -16.6854  -6.9569  -6.4272
    -5.7897  -5.0227  -4.8448  -4.3475  -0.7924   2.6164   3.1013   3.2668
     3.6202   5.3477   5.8004   6.6422   7.3191   7.6107   7.8099   7.8110
     8.1589   8.7129

          k = 0.4778 0.3272 0.0000 (  8228 PWs)   bands (ev):

   -49.3405 -27.6791 -27.5196 -27.2999 -16.7336 -16.6836  -6.9482  -6.4271
    -5.7880  -5.0375  -4.8401  -4.3708  -0.7759   2.6333   3.0894   3.2575
     3.6035   5.3715   5.8291   6.6693   7.3231   7.6238   7.8191   7.8219
     8.1688   8.7008

          k = 0.4722 0.3368 0.0000 (  8226 PWs)   bands (ev):

   -49.3404 -27.6775 -27.5193 -27.3033 -16.7328 -16.6813  -6.9371  -6.4269
    -5.7858  -5.0547  -4.8356  -4.4002  -0.7549   2.6540   3.0733   3.2466
     3.5844   5.3982   5.8678   6.7036   7.3281   7.6403   7.8307   7.8359
     8.1811   8.6825

          k = 0.4667 0.3464 0.0000 (  8222 PWs)   bands (ev):

   -49.3402 -27.6755 -27.5188 -27.3074 -16.7320 -16.6786  -6.9235  -6.4268
    -5.7831  -5.0738  -4.8316  -4.4354  -0.7297   2.6777   3.0528   3.2351
     3.5640   5.4263   5.9172   6.7445   7.3341   7.6602   7.8443   7.8531
     8.1952   8.6579

          k = 0.4611 0.3560 0.0000 (  8222 PWs)   bands (ev):

   -49.3401 -27.6731 -27.5183 -27.3122 -16.7310 -16.6754  -6.9076  -6.4269
    -5.7801  -5.0941  -4.8286  -4.4761  -0.7005   2.7034   3.0276   3.2241
     3.5433   5.4544   5.9775   6.7917   7.3411   7.6832   7.8596   7.8735
     8.2105   8.6277

          k = 0.4556 0.3657 0.0000 (  8222 PWs)   bands (ev):

   -49.3399 -27.6704 -27.5177 -27.3177 -16.7298 -16.6718  -6.8893  -6.4271
    -5.7767  -5.1153  -4.8267  -4.5217  -0.6674   2.7295   2.9977   3.2152
     3.5229   5.4821   6.0482   6.8443   7.3490   7.7089   7.8758   7.8971
     8.2256   8.5946

          k = 0.4500 0.3753 0.0000 (  8232 PWs)   bands (ev):

   -49.3396 -27.6674 -27.5171 -27.3238 -16.7285 -16.6678  -6.8688  -6.4275
    -5.7730  -5.1369  -4.8259  -4.5719  -0.6307   2.7541   2.9635   3.2104
     3.5031   5.5093   6.1283   6.9020   7.3579   7.7364   7.8922   7.9240
     8.2387   8.5633

          k = 0.4444 0.3849 0.0000 (  8220 PWs)   bands (ev):

   -49.3394 -27.6640 -27.5164 -27.3305 -16.7272 -16.6635  -6.8461  -6.4283
    -5.7690  -5.1586  -4.8264  -4.6260  -0.5907   2.7749   2.9255   3.2117
     3.4838   5.5365   6.2164   6.9640   7.3676   7.7640   7.9079   7.9542
     8.2480   8.5402

          k = 0.4389 0.3945 0.0000 (  8224 PWs)   bands (ev):

   -49.3391 -27.6603 -27.5157 -27.3378 -16.7257 -16.6588  -6.8213  -6.4294
    -5.7648  -5.1800  -4.8281  -4.6838  -0.5476   2.7899   2.8842   3.2213
     3.4649   5.5642   6.3109   7.0296   7.3783   7.7884   7.9227   7.9878
     8.2532   8.5308

          k = 0.4333 0.4041 0.0000 (  8232 PWs)   bands (ev):

   -49.3389 -27.6563 -27.5149 -27.3456 -16.7241 -16.6539  -6.7944  -6.4310
    -5.7604  -5.2008  -4.8311  -4.7445  -0.5018   2.7977   2.8405   3.2404
     3.4459   5.5929   6.4103   7.0980   7.3900   7.8028   7.9399   8.0247
     8.2580   8.5373

          k = 0.4278 0.4138 0.0000 (  8234 PWs)   bands (ev):

   -49.3386 -27.6520 -27.5141 -27.3538 -16.7225 -16.6488  -6.7655  -6.4331
    -5.7559  -5.2208  -4.8353  -4.8078  -0.4535   2.7951   2.7980   3.2690
     3.4264   5.6230   6.5126   7.1682   7.4032   7.7991   7.9649   8.0652
     8.2682   8.5577

          k = 0.4222 0.4234 0.0000 (  8228 PWs)   bands (ev):

   -49.3383 -27.6475 -27.5133 -27.3624 -16.7208 -16.6435  -6.7348  -6.4357
    -5.7513  -5.2396  -4.8732  -4.8405  -0.4031   2.7488   2.7918   3.3057
     3.4061   5.6549   6.6157   7.2388   7.4186   7.7766   8.0001   8.1092
     8.2881   8.5885

          k = 0.4167 0.4330 0.0000 (  8228 PWs)   bands (ev):

   -49.3380 -27.6426 -27.5124 -27.3713 -16.7191 -16.6380  -6.7023  -6.4390
    -5.7466  -5.2571  -4.9401  -4.8469  -0.3509   2.7021   2.7807   3.3489
     3.3847   5.6888   6.7169   7.3070   7.4383   7.7422   8.0431   8.1567
     8.3183   8.6268

          k = 0.4111 0.4426 0.0000 (  8232 PWs)   bands (ev):

   -49.3377 -27.6375 -27.5116 -27.3806 -16.7174 -16.6325  -6.6681  -6.4428
    -5.7421  -5.2730  -5.0082  -4.8542  -0.2973   2.6557   2.7662   3.3621
     3.3964   5.7247   6.8122   7.3663   7.4683   7.7050   8.0915   8.2079
     8.3578   8.6706

          k = 0.4056 0.4523 0.0000 (  8226 PWs)   bands (ev):

   -49.3374 -27.6322 -27.5107 -27.3901 -16.7157 -16.6270  -6.6325  -6.4472
    -5.7376  -5.2872  -5.0769  -4.8623  -0.2429   2.6103   2.7497   3.3382
     3.4465   5.7627   6.8957   7.4080   7.5165   7.6745   8.1438   8.2626
     8.4051   8.7184

          k = 0.4000 0.4619 0.0000 (  8234 PWs)   bands (ev):

   -49.3371 -27.6267 -27.5098 -27.3997 -16.7140 -16.6215  -6.5955  -6.4522
    -5.7333  -5.2996  -5.1457  -4.8711  -0.1880   2.5664   2.7322   3.3130
     3.4977   5.8026   6.9593   7.4347   7.5797   7.6614   8.1991   8.3210
     8.4590   8.7691

          k = 0.3944 0.4715 0.0000 (  8232 PWs)   bands (ev):

   -49.3368 -27.6210 -27.5090 -27.4094 -16.7123 -16.6161  -6.5573  -6.4576
    -5.7292  -5.3102  -5.2142  -4.8805  -0.1334   2.5246   2.7146   3.2867
     3.5487   5.8443   6.9949   7.4550   7.6486   7.6752   8.2570   8.3828
     8.5186   8.8218

          k = 0.3889 0.4811 0.0000 (  8230 PWs)   bands (ev):

   -49.3365 -27.6152 -27.5081 -27.4191 -16.7107 -16.6108  -6.5181  -6.4635
    -5.7255  -5.3188  -5.2818  -4.8903  -0.0795   2.4855   2.6974   3.2596
     3.5985   5.8875   6.9996   7.4732   7.7184   7.7196   8.3168   8.4481
     8.5834   8.8759

          k = 0.3833 0.4907 0.0000 (  8234 PWs)   bands (ev):

   -49.3363 -27.6093 -27.5073 -27.4287 -16.7092 -16.6058  -6.4782  -6.4696
    -5.7222  -5.3481  -5.3256  -4.9003  -0.0272   2.4496   2.6810   3.2318
     3.6459   5.9318   6.9785   7.4906   7.7866   7.7904   8.3784   8.5166
     8.6529   8.9306

          k = 0.3778 0.5004 0.0000 (  8232 PWs)   bands (ev):

   -49.3360 -27.6034 -27.5066 -27.4381 -16.7077 -16.6010  -6.4759  -6.4379
    -5.7194  -5.4123  -5.3307  -4.9104   0.0227   2.4175   2.6659   3.2038
     3.6904   5.9769   6.9403   7.5079   7.8520   7.8790   8.4410   8.5880
     8.7267   8.9853

          k = 0.3722 0.5100 0.0000 (  8227 PWs)   bands (ev):

   -49.3358 -27.5976 -27.5059 -27.4473 -16.7064 -16.5966  -6.4821  -6.3977
    -5.7173  -5.4737  -5.3342  -4.9203   0.0694   2.3896   2.6522   3.1760
     3.7310   6.0222   6.8928   7.5252   7.9134   7.9784   8.5044   8.6619
     8.8046   9.0394

          k = 0.3667 0.5196 0.0000 (  8233 PWs)   bands (ev):

   -49.3355 -27.5918 -27.5053 -27.4559 -16.7052 -16.5925  -6.4882  -6.3581
    -5.7163  -5.5312  -5.3363  -4.9298   0.1120   2.3665   2.6402   3.1489
     3.7672   6.0669   6.8413   7.5423   7.9697   8.0834   8.5679   8.7377
     8.8862   9.0920

          k = 0.3611 0.5292 0.0000 (  8237 PWs)   bands (ev):

   -49.3353 -27.5864 -27.5047 -27.4639 -16.7041 -16.5890  -6.4938  -6.3199
    -5.7171  -5.5832  -5.3372  -4.9387   0.1497   2.3484   2.6299   3.1231
     3.7985   6.1102   6.7896   7.5589   8.0198   8.1908   8.6305   8.8146
     8.9712   9.1416

          k = 0.3556 0.5389 0.0000 (  8233 PWs)   bands (ev):

   -49.3352 -27.5814 -27.5042 -27.4711 -16.7032 -16.5859  -6.4989  -6.2844
    -5.7212  -5.6267  -5.3373  -4.9465   0.1816   2.3353   2.6214   3.0995
     3.8245   6.1507   6.7409   7.5746   8.0626   8.2981   8.6911   8.8914
     9.0591   9.1829

          k = 0.3500 0.5485 0.0000 (  8241 PWs)   bands (ev):

   -49.3351 -27.5771 -27.5038 -27.4772 -16.7025 -16.5835  -6.5031  -6.2531
    -5.7312  -5.6576  -5.3368  -4.9531   0.2070   2.3270   2.6149   3.0790
     3.8449   6.1865   6.6979   7.5885   8.0973   8.4031   8.7476   8.9661
     9.1486   9.1954

          k = 0.3444 0.5581 0.0000 (  8227 PWs)   bands (ev):

   -49.3349 -27.5738 -27.5035 -27.4818 -16.7020 -16.5816  -6.5064  -6.2282
    -5.7469  -5.6738  -5.3360  -4.9582   0.2254   2.3228   2.6102   3.0627
     3.8595   6.2152   6.6638   7.5999   8.1227   8.5023   8.7960   9.0348
     9.1413   9.2436

          k = 0.3389 0.5677 0.0000 (  8227 PWs)   bands (ev):

   -49.3349 -27.5716 -27.5034 -27.4848 -16.7017 -16.5805  -6.5085  -6.2121
    -5.7607  -5.6803  -5.3354  -4.9614   0.2364   2.3214   2.6075   3.0518
     3.8683   6.2338   6.6419   7.6077   8.1384   8.5878   8.8254   9.0672
     9.0890   9.3364

          k = 0.3333 0.5774 0.0000 (  8211 PWs)   bands (ev):

   -49.3349 -27.5709 -27.5033 -27.4858 -16.7015 -16.5801  -6.5092  -6.2065
    -5.7659  -5.6820  -5.3351  -4.9626   0.2401   2.3214   2.6066   3.0479
     3.8712   6.2402   6.6345   7.6105   8.1437   8.6306   8.8261   9.0355
     9.1114   9.4173

          k = 0.3222 0.5581 0.0000 (  8219 PWs)   bands (ev):

   -49.3349 -27.5735 -27.5036 -27.4821 -16.7020 -16.5818  -6.5060  -6.2260
    -5.7494  -5.6732  -5.3366  -4.9578   0.2261   2.3178   2.6101   3.0660
     3.8599   6.2191   6.6596   7.5964   8.1222   8.4559   8.8884   9.0335
     9.0496   9.2030

          k = 0.3111 0.5389 0.0000 (  8229 PWs)   bands (ev):

   -49.3352 -27.5793 -27.5044 -27.4725 -16.7035 -16.5870  -6.4954  -6.2705
    -5.7314  -5.6295  -5.3413  -4.9431   0.1875   2.2990   2.6199   3.1230
     3.8272   6.1741   6.7147   7.5474   8.0592   8.1635   8.7545   8.9032
     8.9761   9.3223

          k = 0.3000 0.5196 0.0000 (  8225 PWs)   bands (ev):

   -49.3357 -27.5860 -27.5058 -27.4596 -16.7060 -16.5961  -6.4767  -6.3210
    -5.7318  -5.5496  -5.3488  -4.9193   0.1297   2.2600   2.6353   3.2137
     3.7756   6.1256   6.7722   7.4550   7.8632   7.9654   8.4458   8.7856
     9.0113   9.5070

          k = 0.2889 0.5004 0.0000 (  8221 PWs)   bands (ev):

   -49.3364 -27.5917 -27.5079 -27.4448 -16.7095 -16.6092  -6.4491  -6.3668
    -5.7411  -5.4541  -5.3578  -4.8879   0.0589   2.2035   2.6548   3.3236
     3.7080   6.0820   6.8054   7.3152   7.5866   7.8632   8.1491   8.6680
     9.0325   9.5038

          k = 0.2778 0.4811 0.0000 (  8209 PWs)   bands (ev):

   -49.3374 -27.5954 -27.5106 -27.4290 -16.7142 -16.6266  -6.4123  -6.4026
    -5.7555  -5.3662  -5.3525  -4.8508  -0.0193   2.1344   2.6771   3.4352
     3.6277   6.0450   6.7683   7.1338   7.3701   7.7715   7.8884   8.5254
     9.0431   9.3685

          k = 0.2667 0.4619 0.0000 (  8209 PWs)   bands (ev):

   -49.3385 -27.5967 -27.5140 -27.4127 -16.7199 -16.6484  -6.4258  -6.3659
    -5.7743  -5.3726  -5.2489  -4.8098  -0.1000   2.0573   2.7005   3.5314
     3.5377   6.0133   6.6184   6.9243   7.2173   7.6948   7.7125   8.3552
     9.0267   9.1565

          k = 0.2556 0.4426 0.0000 (  8209 PWs)   bands (ev):

   -49.3399 -27.5952 -27.5182 -27.3964 -16.7266 -16.6744  -6.4350  -6.3102
    -5.7973  -5.3751  -5.1455  -4.7663  -0.1793   1.9756   2.7231   3.4414
     3.5977   5.9842   6.3939   6.7002   7.0411   7.6280   7.6758   8.1746
     8.8841   9.0908

          k = 0.2444 0.4234 0.0000 (  8209 PWs)   bands (ev):

   -49.3416 -27.5907 -27.5230 -27.3800 -16.7343 -16.7046  -6.4295  -6.2455
    -5.8246  -5.3727  -5.0441  -4.7218  -0.2540   1.8921   2.7427   3.3420
     3.6228   5.9529   6.1505   6.4709   6.8262   7.5580   7.7344   8.0082
     8.7187   9.0823

          k = 0.2333 0.4041 0.0000 (  8203 PWs)   bands (ev):

   -49.3434 -27.5831 -27.5284 -27.3640 -16.7429 -16.7388  -6.4092  -6.1723
    -5.8561  -5.3640  -4.9462  -4.6771  -0.3216   1.8087   2.7564   3.2431
     3.6006   5.8780   5.9485   6.2422   6.6076   7.4610   7.8010   7.8863
     8.6202   9.0724

          k = 0.2222 0.3849 0.0000 (  8197 PWs)   bands (ev):

   -49.3455 -27.5725 -27.5345 -27.3483 -16.7766 -16.7523  -6.3742  -6.0915
    -5.8917  -5.3482  -4.8528  -4.6330  -0.3802   1.7273   2.7601   3.1494
     3.5311   5.6625   5.8836   6.0177   6.4077   7.3216   7.8017   7.8279
     8.6291   9.0632

          k = 0.2111 0.3657 0.0000 (  8193 PWs)   bands (ev):

   -49.3478 -27.5590 -27.5411 -27.3331 -16.8178 -16.7624  -6.3254  -6.0042
    -5.9309  -5.3243  -4.7650  -4.5902  -0.4282   1.6492   2.7484   3.0670
     3.4196   5.4428   5.7996   5.8039   6.2451   7.1535   7.7262   7.8198
     8.6876   9.1018

          k = 0.2000 0.3464 0.0000 (  8187 PWs)   bands (ev):

   -49.3502 -27.5483 -27.5427 -27.3184 -16.8619 -16.7731  -6.2650  -5.9718
    -5.9119  -5.2913  -4.6837  -4.5490  -0.4648   1.5756   2.7154   3.0020
     3.2752   5.2326   5.5893   5.6809   6.1296   6.9754   7.6181   7.8421
     8.6591   9.1180

          k = 0.1889 0.3272 0.0000 (  8199 PWs)   bands (ev):

   -49.3528 -27.5559 -27.5238 -27.3043 -16.9083 -16.7842  -6.1999  -6.0079
    -5.8165  -5.2485  -4.6098  -4.5098  -0.4895   1.5077   2.6608   2.9553
     3.1084   5.0313   5.3879   5.5223   6.0451   6.7972   7.5110   7.8808
     8.5453   8.9667

          k = 0.1778 0.3079 0.0000 (  8201 PWs)   bands (ev):

   -49.3555 -27.5638 -27.5026 -27.2910 -16.9566 -16.7957  -6.1608  -6.0089
    -5.7199  -5.1949  -4.5436  -4.4725  -0.5024   1.4461   2.5921   2.9199
     2.9291   4.8379   5.1960   5.3467   5.9647   6.6234   7.4221   7.9232
     8.3958   8.8173

          k = 0.1667 0.2887 0.0000 (  8197 PWs)   bands (ev):

   -49.3583 -27.5719 -27.4794 -27.2784 -17.0062 -16.8074  -6.1834  -5.9398
    -5.6245  -5.1300  -4.4856  -4.4373  -0.5040   1.3915   2.5185   2.7456
     2.8873   4.6515   5.0141   5.1656   5.8705   6.4560   7.3585   7.9500
     8.2374   8.6809

          k = 0.1556 0.2694 0.0000 (  8215 PWs)   bands (ev):

   -49.3612 -27.5803 -27.4547 -27.2665 -17.0564 -16.8191  -6.2342  -5.8343
    -5.5322  -5.0536  -4.4360  -4.4040  -0.4955   1.3444   2.4462   2.5647
     2.8524   4.4713   4.8423   4.9838   5.7563   6.2961   7.3181   7.9300
     8.0879   8.5816

          k = 0.1444 0.2502 0.0000 (  8207 PWs)   bands (ev):

   -49.3641 -27.5886 -27.4287 -27.2555 -17.1067 -16.8307  -6.2937  -5.7127
    -5.4444  -4.9667  -4.3945  -4.3722  -0.4783   1.3055   2.3792   2.3915
     2.8126   4.2964   4.6809   4.8036   5.6233   6.1441   7.2890   7.8346
     7.9649   8.5389

          k = 0.1333 0.2309 0.0000 (  8221 PWs)   bands (ev):

   -49.3670 -27.5970 -27.4019 -27.2453 -17.1563 -16.8422  -6.3565  -5.5808
    -5.3618  -4.8712  -4.3608  -4.3417  -0.4547   1.2750   2.2296   2.3196
     2.7672   4.1258   4.5299   4.6264   5.4775   6.0001   7.2507   7.6726
     7.8890   8.5308

          k = 0.1222 0.2117 0.0000 (  8217 PWs)   bands (ev):

   -49.3698 -27.6051 -27.3748 -27.2359 -17.2048 -16.8533  -6.4206  -5.4417
    -5.2845  -4.7700  -4.3345  -4.3119  -0.4268   1.2535   2.0817   2.2690
     2.7166   3.9575   4.3894   4.4543   5.3258   5.8640   7.1860   7.4723
     7.8754   8.5178

          k = 0.1111 0.1925 0.0000 (  8245 PWs)   bands (ev):

   -49.3725 -27.6130 -27.3480 -27.2273 -17.2514 -16.8639  -6.4844  -5.2978
    -5.2124  -4.6662  -4.3147  -4.2826  -0.3975   1.2413   1.9495   2.2284
     2.6616   3.7896   4.2594   4.2899   5.1751   5.7355   7.0958   7.2544
     7.9206   8.4843

          k = 0.1000 0.1732 0.0000 (  8235 PWs)   bands (ev):

   -49.3751 -27.6205 -27.3217 -27.2196 -17.2956 -16.8739  -6.5465  -5.1518
    -5.1457  -4.5631  -4.3005  -4.2531  -0.3690   1.2388   1.8338   2.1985
     2.6038   3.6203   4.1367   4.1397   5.0306   5.6145   6.9929   7.0316
     8.0092   8.4354

          k = 0.0889 0.1540 0.0000 (  8235 PWs)   bands (ev):

   -49.3775 -27.6275 -27.2966 -27.2127 -17.3369 -16.8833  -6.6058  -5.0845
    -5.0065  -4.4638  -4.2912  -4.2233  -0.3438   1.2458   1.7347   2.1796
     2.5448   3.4493   3.9981   4.0305   4.8964   5.5004   6.8128   6.8886
     8.1277   8.3791

          k = 0.0778 0.1347 0.0000 (  8239 PWs)   bands (ev):

   -49.3797 -27.6339 -27.2732 -27.2066 -17.3746 -16.8917  -6.6611  -5.0296
    -4.8649  -4.3711  -4.2857  -4.1931  -0.3232   1.2618   1.6517   2.1712
     2.4865   3.2784   3.8761   3.9317   4.7749   5.3931   6.6054   6.7895
     8.2670   8.3216

          k = 0.0667 0.1155 0.0000 (  8241 PWs)   bands (ev):

   -49.3817 -27.6397 -27.2518 -27.2014 -17.4084 -16.8993  -6.7113  -4.9814
    -4.7307  -4.2872  -4.2831  -4.1628  -0.3080   1.2852   1.5838   2.1727
     2.4309   3.1120   3.7715   3.8433   4.6676   5.2926   6.4158   6.6992
     8.2666   8.4209

          k = 0.0556 0.0962 0.0000 (  8239 PWs)   bands (ev):

   -49.3834 -27.6447 -27.2329 -27.1970 -17.4378 -16.9059  -6.7555  -4.9404
    -4.6074  -4.2826  -4.2141  -4.1331  -0.2980   1.3137   1.5295   2.1824
     2.3800   2.9560   3.6839   3.7656   4.5755   5.1996   6.2496   6.6200
     8.2168   8.5841

          k = 0.0444 0.0770 0.0000 (  8233 PWs)   bands (ev):

   -49.3849 -27.6489 -27.2168 -27.1934 -17.4623 -16.9113  -6.7930  -4.9070
    -4.4991  -4.2832  -4.1533  -4.1052  -0.2924   1.3442   1.4874   2.1979
     2.3354   2.8168   3.6129   3.6991   4.4991   5.1157   6.1110   6.5533
     8.1741   8.7513

          k = 0.0333 0.0577 0.0000 (  8249 PWs)   bands (ev):

   -49.3861 -27.6522 -27.2040 -27.1907 -17.4818 -16.9157  -6.8228  -4.8811
    -4.4096  -4.2845  -4.1056  -4.0807  -0.2900   1.3731   1.4562   2.2161
     2.2990   2.7007   3.5579   3.6449   4.4389   5.0440   6.0024   6.5003
     8.1398   8.9159

          k = 0.0222 0.0385 0.0000 (  8259 PWs)   bands (ev):

   -49.3869 -27.6546 -27.1947 -27.1887 -17.4959 -16.9188  -6.8446  -4.8629
    -4.3426  -4.2858  -4.0716  -4.0614  -0.2893   1.3970   1.4348   2.2331
     2.2719   2.6133   3.5187   3.6044   4.3955   4.9885   5.9252   6.4618
     8.1147   9.0688

          k = 0.0111 0.0192 0.0000 (  8283 PWs)   bands (ev):

   -49.3874 -27.6561 -27.1890 -27.1875 -17.5044 -16.9207  -6.8578  -4.8520
    -4.3011  -4.2867  -4.0513  -4.0489  -0.2894   1.4127   1.4223   2.2452
     2.2552   2.5590   3.4952   3.5791   4.3693   4.9531   5.8791   6.4385
     8.0994   9.1958

          k = 0.0000 0.0000 0.0000 (  8277 PWs)   bands (ev):

   -49.3876 -27.6566 -27.1871 -27.1871 -17.5072 -16.9213  -6.8622  -4.8484
    -4.2870  -4.2870  -4.0446  -4.0446  -0.2896   1.4182   1.4182   2.2496
     2.2496   2.5406   3.4874   3.5704   4.3605   4.9410   5.8638   6.4306
     8.0943   9.2586

     Writing all to output data dir ./out/ZrCl2.save/

     init_run     :      0.14s CPU      0.17s WALL (       1 calls)
     electrons    :     20.51s CPU     20.77s WALL (       1 calls)

     Called by init_run:
     wfcinit      :      0.00s CPU      0.00s WALL (       1 calls)
     potinit      :      0.05s CPU      0.06s WALL (       1 calls)
     hinit0       :      0.06s CPU      0.06s WALL (       1 calls)

     Called by electrons:
     c_bands      :     20.51s CPU     20.77s WALL (       1 calls)
     v_of_rho     :      0.00s CPU      0.00s WALL (       1 calls)
     newd         :      0.01s CPU      0.02s WALL (       1 calls)
     PAW_pot      :      0.04s CPU      0.05s WALL (       1 calls)

     Called by c_bands:
     init_us_2    :      0.01s CPU      0.01s WALL (      91 calls)
     init_us_2:cp :      0.01s CPU      0.01s WALL (      91 calls)
     cegterg      :     19.62s CPU     19.85s WALL (     214 calls)

     Called by *egterg:
     cdiaghg      :      3.41s CPU      3.43s WALL (    3534 calls)
     h_psi        :     10.15s CPU     10.34s WALL (    3748 calls)
     s_psi        :      0.70s CPU      0.71s WALL (    3748 calls)
     g_psi        :      0.03s CPU      0.03s WALL (    3443 calls)

     Called by h_psi:
     h_psi:calbec :      1.49s CPU      1.52s WALL (    3748 calls)
     vloc_psi     :      7.93s CPU      8.09s WALL (    3748 calls)
     add_vuspsi   :      0.71s CPU      0.71s WALL (    3748 calls)

     General routines
     calbec       :      1.49s CPU      1.51s WALL (    3748 calls)
     fft          :      0.01s CPU      0.01s WALL (      12 calls)
     fftw         :      7.52s CPU      7.67s WALL (   92074 calls)
     davcio       :      0.01s CPU      0.02s WALL (     182 calls)

     Parallel routines

     PWSCF        :     21.39s CPU     22.40s WALL


   This run was terminated on:  16:45:27   7Aug2026            

=------------------------------------------------------------------------------=
   JOB DONE.
=------------------------------------------------------------------------------=
