
     Program PWSCF v.7.2 starts on 18Sep2026 at  9:11:16 

     This program is part of the open-source Quantum ESPRESSO suite
     for quantum simulation of materials; please cite
         "P. Giannozzi et al., J. Phys.:Condens. Matter 21 395502 (2009);
         "P. Giannozzi et al., J. Phys.:Condens. Matter 29 465901 (2017);
         "P. Giannozzi et al., J. Chem. Phys. 152 154105 (2020);
          URL http://www.quantum-espresso.org", 
     in publications or presentations arising from this work. More details at
     http://www.quantum-espresso.org/quote

     Parallel version (MPI), running on    32 processors

     MPI processes distributed on     1 nodes
     228810 MiB available memory on the printing compute node when the environment starts

     Waiting for input...
     Reading input from standard input

     Current dimensions of program PWSCF are:
     Max number of different atomic species (ntypx) = 10
     Max number of k-points (npk) =  40000
     Max angular momentum in pseudopotentials (lmaxx) =  4
     file Zr.pbe-spn-kjpaw_psl.1.0.0.UPF: wavefunction(s)  4S 4P renormalized
     file F.pbe-n-kjpaw_psl.1.0.0.UPF: wavefunction(s)  2S 2P renormalized
     file Cl.pbe-n-kjpaw_psl.1.0.0.UPF: wavefunction(s)  3S 3P renormalized
     Message from routine setup:
     using ibrav=0 with symmetry is DISCOURAGED, use correct ibrav instead

     R & G space division:  proc/nbgrp/npool/nimage =      32
     Subspace diagonalization in iterative solution of the eigenvalue problem:
     a serial algorithm will be used


     Parallelization info
     --------------------
     sticks:   dense  smooth     PW     G-vecs:    dense   smooth      PW
     Min          21      21      6                 1385     1385     220
     Max          22      22      7                 1398     1398     233
     Sum         683     683    199                44491    44491    7155

     Using Slab Decomposition



     bravais-lattice index     =            0
     lattice parameter (alat)  =       6.2508  a.u.
     unit-cell volume          =     629.9814 (a.u.)^3
     number of atoms/cell      =            3
     number of atomic types    =            3
     number of electrons       =        26.00
     number of Kohn-Sham states=           26
     kinetic-energy cutoff     =      65.0000  Ry
     charge density cutoff     =     260.0000  Ry
     scf convergence threshold =      1.0E-08
     mixing beta               =       0.7000
     number of iterations used =            8  plain     mixing
     energy convergence thresh.=      1.0E-05
     force convergence thresh. =      1.0E-04
     Exchange-correlation= SLA  PW   PBX  PBC
                           (   1   4   3   4   0   0   0)
     nstep                     =           50


     celldm(1)=   6.250750  celldm(2)=   0.000000  celldm(3)=   0.000000
     celldm(4)=   0.000000  celldm(5)=   0.000000  celldm(6)=   0.000000

     crystal axes: (cart. coord. in units of alat)
               a(1) = (   1.000000   0.000000   0.000000 )  
               a(2) = (  -0.500000   0.853227   0.000000 )  
               a(3) = (   0.000000   0.000000   3.023199 )  

     reciprocal axes: (cart. coord. in units 2 pi/alat)
               b(1) = (  1.000000  0.586011 -0.000000 )  
               b(2) = (  0.000000  1.172021  0.000000 )  
               b(3) = (  0.000000 -0.000000  0.330775 )  


     PseudoPot. # 1 for Zr read from file:
     /mgpfs/home/rabdillah/repo/qe/pseudo/Zr.pbe-spn-kjpaw_psl.1.0.0.UPF
     MD5 check sum: 02112c41713a0468aff2bb39ef194e36
     Pseudo is Projector augmented-wave + core cor, Zval = 12.0
     Generated using &quot;atomic&quot; code by A. Dal Corso  v.6.2.2
     Shape of augmentation charge: PSQ
     Using radial grid of 1225 points,  6 beta functions with: 
                l(1) =   0
                l(2) =   0
                l(3) =   1
                l(4) =   1
                l(5) =   2
                l(6) =   2
     Q(r) pseudized with 0 coefficients 


     PseudoPot. # 2 for F  read from file:
     /mgpfs/home/rabdillah/repo/qe/pseudo/F.pbe-n-kjpaw_psl.1.0.0.UPF
     MD5 check sum: 66d718ea72839a4268ab2a9540e8cdd4
     Pseudo is Projector augmented-wave + core cor, Zval =  7.0
     Generated using &quot;atomic&quot; code by A. Dal Corso  v.6.3
     Shape of augmentation charge: PSQ
     Using radial grid of 1105 points,  4 beta functions with: 
                l(1) =   0
                l(2) =   0
                l(3) =   1
                l(4) =   1
     Q(r) pseudized with 0 coefficients 


     PseudoPot. # 3 for Cl read from file:
     /mgpfs/home/rabdillah/repo/qe/pseudo/Cl.pbe-n-kjpaw_psl.1.0.0.UPF
     MD5 check sum: 530da96d25dcb7781b0586ca00827062
     Pseudo is Projector augmented-wave + core cor, Zval =  7.0
     Generated using &quot;atomic&quot; code by A. Dal Corso  v.6.3
     Shape of augmentation charge: PSQ
     Using radial grid of 1157 points,  6 beta functions with: 
                l(1) =   0
                l(2) =   0
                l(3) =   1
                l(4) =   1
                l(5) =   2
                l(6) =   2
     Q(r) pseudized with 0 coefficients 


     atomic species   valence    mass     pseudopotential
        Zr            12.00    91.22400     Zr( 1.00)
        F              7.00    18.99800     F ( 1.00)
        Cl             7.00    35.45300     Cl( 1.00)

      2 Sym. Ops. (no inversion) found



   Cartesian axes

     site n.     atom                  positions (alat units)
         1           Zr  tau(   1) = (   0.0000000   0.0000000   2.8933113  )
         2           F   tau(   2) = (  -0.0000000   0.5688180   3.2962939  )
         3           Cl  tau(   3) = (  -0.0000000   0.5688180   2.3618680  )

     number of k points=    73
                       cart. coord. in units 2pi/alat
        k(    1) = (   0.0000000   0.0000000   0.0000000), wk =   0.0078125
        k(    2) = (   0.0000000   0.0732513   0.0000000), wk =   0.0156250
        k(    3) = (   0.0000000   0.1465026   0.0000000), wk =   0.0156250
        k(    4) = (   0.0000000   0.2197539   0.0000000), wk =   0.0156250
        k(    5) = (   0.0000000   0.2930053   0.0000000), wk =   0.0156250
        k(    6) = (   0.0000000   0.3662566   0.0000000), wk =   0.0156250
        k(    7) = (   0.0000000   0.4395079   0.0000000), wk =   0.0156250
        k(    8) = (   0.0000000   0.5127592   0.0000000), wk =   0.0156250
        k(    9) = (   0.0000000  -0.5860105   0.0000000), wk =   0.0078125
        k(   10) = (   0.0625000   0.0366257   0.0000000), wk =   0.0312500
        k(   11) = (   0.0625000   0.1098770   0.0000000), wk =   0.0312500
        k(   12) = (   0.0625000   0.1831283   0.0000000), wk =   0.0312500
        k(   13) = (   0.0625000   0.2563796   0.0000000), wk =   0.0312500
        k(   14) = (   0.0625000   0.3296309   0.0000000), wk =   0.0312500
        k(   15) = (   0.0625000   0.4028822   0.0000000), wk =   0.0312500
        k(   16) = (   0.0625000   0.4761336   0.0000000), wk =   0.0312500
        k(   17) = (   0.0625000   0.5493849   0.0000000), wk =   0.0312500
        k(   18) = (   0.1250000   0.0732513   0.0000000), wk =   0.0312500
        k(   19) = (   0.1250000   0.1465026   0.0000000), wk =   0.0312500
        k(   20) = (   0.1250000   0.2197539   0.0000000), wk =   0.0312500
        k(   21) = (   0.1250000   0.2930053   0.0000000), wk =   0.0312500
        k(   22) = (   0.1250000   0.3662566   0.0000000), wk =   0.0312500
        k(   23) = (   0.1250000   0.4395079   0.0000000), wk =   0.0312500
        k(   24) = (   0.1250000   0.5127592   0.0000000), wk =   0.0312500
        k(   25) = (   0.1250000   0.5860105   0.0000000), wk =   0.0156250
        k(   26) = (   0.1250000   0.0000000   0.0000000), wk =   0.0156250
        k(   27) = (   0.1875000   0.1098770   0.0000000), wk =   0.0312500
        k(   28) = (   0.1875000   0.1831283   0.0000000), wk =   0.0312500
        k(   29) = (   0.1875000   0.2563796   0.0000000), wk =   0.0312500
        k(   30) = (   0.1875000   0.3296309   0.0000000), wk =   0.0312500
        k(   31) = (   0.1875000   0.4028822   0.0000000), wk =   0.0312500
        k(   32) = (   0.1875000   0.4761336   0.0000000), wk =   0.0312500
        k(   33) = (   0.1875000   0.5493849   0.0000000), wk =   0.0312500
        k(   34) = (   0.1875000  -0.0366257   0.0000000), wk =   0.0312500
        k(   35) = (   0.2500000   0.1465026   0.0000000), wk =   0.0312500
        k(   36) = (   0.2500000   0.2197539   0.0000000), wk =   0.0312500
        k(   37) = (   0.2500000   0.2930053   0.0000000), wk =   0.0312500
        k(   38) = (   0.2500000   0.3662566   0.0000000), wk =   0.0312500
        k(   39) = (   0.2500000   0.4395079   0.0000000), wk =   0.0312500
        k(   40) = (   0.2500000   0.5127592   0.0000000), wk =   0.0312500
        k(   41) = (   0.2500000   0.5860105   0.0000000), wk =   0.0156250
        k(   42) = (   0.2500000  -0.0732513   0.0000000), wk =   0.0312500
        k(   43) = (   0.2500000   0.0000000   0.0000000), wk =   0.0156250
        k(   44) = (   0.3125000   0.1831283   0.0000000), wk =   0.0312500
        k(   45) = (   0.3125000   0.2563796   0.0000000), wk =   0.0312500
        k(   46) = (   0.3125000   0.3296309   0.0000000), wk =   0.0312500
        k(   47) = (   0.3125000   0.4028822   0.0000000), wk =   0.0312500
        k(   48) = (   0.3125000   0.4761336   0.0000000), wk =   0.0312500
        k(   49) = (   0.3125000   0.5493849   0.0000000), wk =   0.0312500
        k(   50) = (   0.3125000  -0.1098770   0.0000000), wk =   0.0312500
        k(   51) = (   0.3125000  -0.0366257   0.0000000), wk =   0.0312500
        k(   52) = (   0.3750000   0.2197539   0.0000000), wk =   0.0312500
        k(   53) = (   0.3750000   0.2930053   0.0000000), wk =   0.0312500
        k(   54) = (   0.3750000   0.3662566   0.0000000), wk =   0.0312500
        k(   55) = (   0.3750000   0.4395079   0.0000000), wk =   0.0312500
        k(   56) = (   0.3750000   0.5127592   0.0000000), wk =   0.0312500
        k(   57) = (   0.3750000   0.5860105   0.0000000), wk =   0.0156250
        k(   58) = (   0.3750000  -0.1465026   0.0000000), wk =   0.0312500
        k(   59) = (   0.3750000  -0.0732513   0.0000000), wk =   0.0312500
        k(   60) = (   0.3750000   0.0000000   0.0000000), wk =   0.0156250
        k(   61) = (   0.4375000   0.2563796   0.0000000), wk =   0.0312500
        k(   62) = (   0.4375000   0.3296309   0.0000000), wk =   0.0312500
        k(   63) = (   0.4375000   0.4028822   0.0000000), wk =   0.0312500
        k(   64) = (   0.4375000   0.4761336   0.0000000), wk =   0.0312500
        k(   65) = (   0.4375000   0.5493849   0.0000000), wk =   0.0312500
        k(   66) = (   0.4375000  -0.1831283   0.0000000), wk =   0.0312500
        k(   67) = (   0.4375000  -0.1098770   0.0000000), wk =   0.0312500
        k(   68) = (   0.4375000  -0.0366257   0.0000000), wk =   0.0312500
        k(   69) = (  -0.5000000  -0.2930053   0.0000000), wk =   0.0156250
        k(   70) = (  -0.5000000  -0.2197539   0.0000000), wk =   0.0312500
        k(   71) = (  -0.5000000  -0.1465026   0.0000000), wk =   0.0312500
        k(   72) = (  -0.5000000  -0.0732513   0.0000000), wk =   0.0312500
        k(   73) = (  -0.5000000   0.0000000   0.0000000), wk =   0.0156250

     Dense  grid:    44491 G-vectors     FFT dimensions: (  36,  32, 100)

     Estimated max dynamical RAM per process >      14.06 MB

     Estimated total dynamical RAM >     449.88 MB

     Check: negative core charge=   -0.000005

     Initial potential from superposition of free atoms

     starting charge      25.9978, renormalised to      26.0000

     negative rho (up, down):  5.292E-06 0.000E+00
     Starting wfcs are   21 randomized atomic wfcs +    5 random wfcs
     Checking if some PAW data can be deallocated... 

     total cpu time spent up to now is        0.9 secs

     Self-consistent Calculation

     iteration #  1     ecut=    65.00 Ry     beta= 0.70
     Davidson diagonalization with overlap
     ethr =  1.00E-02,  avg # of iterations =  6.4

     Threshold (ethr) on eigenvalues was too large:
     Diagonalizing with lowered threshold

     Davidson diagonalization with overlap
     ethr =  7.92E-04,  avg # of iterations =  1.1

     negative rho (up, down):  6.097E-05 0.000E+00

     total cpu time spent up to now is        4.4 secs

     total energy              =    -446.15649353 Ry
     estimated scf accuracy    <       0.20795338 Ry

     iteration #  2     ecut=    65.00 Ry     beta= 0.70
     Davidson diagonalization with overlap
     ethr =  8.00E-04,  avg # of iterations =  3.6

     negative rho (up, down):  4.013E-05 0.000E+00

     total cpu time spent up to now is        6.1 secs

     total energy              =    -446.16054896 Ry
     estimated scf accuracy    <       0.34815793 Ry

     iteration #  3     ecut=    65.00 Ry     beta= 0.70
     Davidson diagonalization with overlap
     ethr =  8.00E-04,  avg # of iterations =  2.1

     negative rho (up, down):  5.061E-05 0.000E+00

     total cpu time spent up to now is        7.6 secs

     total energy              =    -446.23992261 Ry
     estimated scf accuracy    <       0.02326899 Ry

     iteration #  4     ecut=    65.00 Ry     beta= 0.70
     Davidson diagonalization with overlap
     ethr =  8.95E-05,  avg # of iterations =  2.5

     negative rho (up, down):  7.169E-05 0.000E+00

     total cpu time spent up to now is        9.0 secs

     total energy              =    -446.24412319 Ry
     estimated scf accuracy    <       0.00155311 Ry

     iteration #  5     ecut=    65.00 Ry     beta= 0.70
     Davidson diagonalization with overlap
     ethr =  5.97E-06,  avg # of iterations =  5.5

     negative rho (up, down):  8.175E-05 0.000E+00

     total cpu time spent up to now is       10.9 secs

     total energy              =    -446.24436438 Ry
     estimated scf accuracy    <       0.00108825 Ry

     iteration #  6     ecut=    65.00 Ry     beta= 0.70
     Davidson diagonalization with overlap
     ethr =  4.19E-06,  avg # of iterations =  2.2

     negative rho (up, down):  8.485E-05 0.000E+00

     total cpu time spent up to now is       12.2 secs

     total energy              =    -446.24459262 Ry
     estimated scf accuracy    <       0.00002108 Ry

     iteration #  7     ecut=    65.00 Ry     beta= 0.70
     Davidson diagonalization with overlap
     ethr =  8.11E-08,  avg # of iterations =  2.3

     negative rho (up, down):  8.545E-05 0.000E+00

     total cpu time spent up to now is       13.6 secs

     total energy              =    -446.24459774 Ry
     estimated scf accuracy    <       0.00000053 Ry

     iteration #  8     ecut=    65.00 Ry     beta= 0.70
     Davidson diagonalization with overlap
     ethr =  2.03E-09,  avg # of iterations =  2.2

     negative rho (up, down):  8.561E-05 0.000E+00

     total cpu time spent up to now is       15.0 secs

     total energy              =    -446.24459788 Ry
     estimated scf accuracy    <       0.00000003 Ry

     iteration #  9     ecut=    65.00 Ry     beta= 0.70
     Davidson diagonalization with overlap
     ethr =  1.05E-10,  avg # of iterations =  2.5

     negative rho (up, down):  8.563E-05 0.000E+00

     total cpu time spent up to now is       16.5 secs

     End of self-consistent calculation

          k = 0.0000 0.0000 0.0000 (  5509 PWs)   bands (ev):

   -45.8237 -24.3469 -23.5044 -23.4818 -21.1461 -13.6701  -3.7424  -2.9263
    -2.8962  -1.7931  -0.2118  -0.1329   3.3636   5.2171   5.4011   5.5872
     6.4179   6.5043   7.6246   8.4410  10.8679  13.5171  14.2389  14.4676
    15.2569  16.8778

          k = 0.0000 0.0733 0.0000 (  5513 PWs)   bands (ev):

   -45.8207 -24.3363 -23.5198 -23.5106 -21.1363 -13.6471  -3.7050  -2.9390
    -2.9267  -1.7806  -0.2876  -0.2419   3.3727   5.2754   5.3526   5.6815
     6.4583   6.4660   7.7463   8.6410  10.9915  13.5900  14.1625  14.3410
    15.0920  16.8423

          k = 0.0000 0.1465 0.0000 (  5517 PWs)   bands (ev):

   -45.8122 -24.3063 -23.6237 -23.5280 -21.1124 -13.5808  -3.6054  -3.0472
    -2.9294  -1.7616  -0.6842  -0.3245   3.3746   5.2767   5.4541   5.8131
     6.5337   6.5952   8.0815   9.0952  11.3518  13.4634  13.7859  14.6454
    14.8096  16.7359

          k = 0.0000 0.2198 0.0000 (  5578 PWs)   bands (ev):

   -45.7995 -24.2637 -23.7676 -23.5541 -21.0857 -13.4785  -3.4850  -3.1729
    -2.9381  -1.7893  -1.1649  -0.4402   3.3217   5.2993   5.7573   5.8504
     6.7700   6.9044   8.5618   9.6111  11.8140  12.9988  13.5453  15.0007
    15.1416  16.5581

          k = 0.0000 0.2930 0.0000 (  5568 PWs)   bands (ev):

   -45.7844 -24.2246 -23.9137 -23.5846 -21.0661 -13.3530  -3.4536  -3.2165
    -2.9549  -2.0194  -1.4701  -0.5658   3.2122   5.4628   5.9458   6.1732
     6.9578   7.4165   9.0886  10.0996  11.8520  12.9332  13.5297  15.5047
    15.7618  16.3437

          k = 0.0000 0.3663 0.0000 (  5564 PWs)   bands (ev):

   -45.7692 -24.2326 -24.0014 -23.6148 -21.0572 -13.2217  -3.5491  -3.1605
    -2.9784  -2.4312  -1.5334  -0.6809   3.0979   5.6908   6.1690   6.6425
     7.1584   7.9967   9.5396  10.5059  11.7208  12.7427  14.2313  15.1795
    15.7775  16.1516

          k = 0.0000 0.4395 0.0000 (  5574 PWs)   bands (ev):

   -45.7563 -24.3064 -24.0009 -23.6403 -21.0571 -13.1052  -3.6545  -3.1400
    -3.0032  -2.7678  -1.5373  -0.7714   3.0202   5.9099   6.4398   6.9885
     7.4642   8.6325   9.8386  10.8292  11.8135  12.6658  13.9013  14.7798
    15.3246  15.6348

          k = 0.0000 0.5128 0.0000 (  5570 PWs)   bands (ev):

   -45.7477 -24.3745 -23.9781 -23.6572 -21.0604 -13.0244  -3.7342  -3.1929
    -3.0219  -2.9242  -1.5317  -0.8285   2.9838   6.0912   6.6054   7.1226
     7.8345   9.2804  10.0501  11.1071  11.8944  12.5713  13.1276  14.5067
    14.8939  14.9320

          k = 0.0000-0.5860 0.0000 (  5570 PWs)   bands (ev):

   -45.7446 -24.3998 -23.9681 -23.6632 -21.0622 -12.9954  -3.7652  -3.2336
    -3.0289  -2.9551  -1.5289  -0.8480   2.9745   6.1709   6.6426   7.1567
     7.9965   9.6493  10.1184  11.3800  11.6386  12.3265  13.1904  14.1540
    14.7127  14.7434

          k = 0.0625 0.0366 0.0000 (  5517 PWs)   bands (ev):

   -45.8209 -24.3367 -23.5373 -23.4912 -21.1365 -13.6481  -3.7059  -2.9625
    -2.9014  -1.7819  -0.3485  -0.1746   3.3691   5.2027   5.4365   5.6750
     6.3974   6.5390   7.7398   8.6316  10.9868  13.5874  14.0158  14.5220
    15.0723  16.8985

          k = 0.0625 0.1099 0.0000 (  5529 PWs)   bands (ev):

   -45.8152 -24.3164 -23.5966 -23.5147 -21.1197 -13.6034  -3.6370  -3.0219
    -2.9193  -1.7661  -0.5827  -0.2718   3.3741   5.2286   5.4673   5.7900
     6.4378   6.6018   7.9690   8.9557  11.2314  13.5808  13.7878  14.5519
    14.8993  16.7819

          k = 0.0625 0.1831 0.0000 (  5544 PWs)   bands (ev):

   -45.8045 -24.2799 -23.7139 -23.5430 -21.0947 -13.5190  -3.5226  -3.1331
    -2.9343  -1.7663  -0.9967  -0.3987   3.3516   5.2173   5.6913   5.8626
     6.6211   6.8152   8.3781   9.4297  11.6850  13.1076  13.6385  14.6738
    15.1554  16.5720

          k = 0.0625 0.2564 0.0000 (  5587 PWs)   bands (ev):

   -45.7906 -24.2375 -23.8552 -23.5763 -21.0720 -13.4049  -3.4288  -3.2271
    -2.9550  -1.8763  -1.3867  -0.5415   3.2782   5.3061   5.8750   6.1098
     6.8351   7.2298   8.8866   9.9275  12.0217  12.8808  13.3377  15.1077
    15.6759  16.3400

          k = 0.0625 0.3296 0.0000 (  5568 PWs)   bands (ev):

   -45.7755 -24.2165 -23.9725 -23.6112 -21.0582 -13.2759  -3.4810  -3.1917
    -2.9849  -2.2244  -1.5256  -0.6816   3.1792   5.5317   5.9982   6.5531
     7.0393   7.7786   9.3867  10.3875  11.8530  12.8300  13.7236  15.3596
    15.8490  16.1764

          k = 0.0625 0.4029 0.0000 (  5570 PWs)   bands (ev):

   -45.7614 -24.2631 -24.0060 -23.6431 -21.0542 -13.1512  -3.5864  -3.1413
    -3.0231  -2.5935  -1.5447  -0.8019   3.0993   5.8170   6.2030   6.9008
     7.3059   8.4274   9.7714  10.7612  11.8068  12.6854  14.3501  14.5798
    15.3262  16.1144

          k = 0.0625 0.4761 0.0000 (  5581 PWs)   bands (ev):

   -45.7507 -24.3387 -23.9865 -23.6674 -21.0561 -13.0517  -3.6755  -3.1823
    -3.0459  -2.8116  -1.5417  -0.8893   3.0573   6.0550   6.4435   7.0608
     7.6121   9.1549  10.0322  11.0521  11.9199  12.6792  13.4075  14.5425
    14.8414  15.5682

          k = 0.0625 0.5494 0.0000 (  5577 PWs)   bands (ev):

   -45.7448 -24.3853 -23.9684 -23.6806 -21.0589 -12.9963  -3.7286  -3.2611
    -3.0489  -2.8816  -1.5374  -0.9350   3.0436   6.1923   6.5948   7.1169
     7.8123   9.7824  10.2023  11.3119  11.8147  12.4133  13.1262  14.1644
    14.6742  14.9703

          k = 0.1250 0.0733 0.0000 (  5552 PWs)   bands (ev):

   -45.8129 -24.3081 -23.6367 -23.5085 -21.1129 -13.5845  -3.6084  -3.0651
    -2.9054  -1.7661  -0.7314  -0.2545   3.3595   5.1798   5.5867   5.7941
     6.5002   6.6596   8.0609   9.0739  11.3337  13.4163  13.7332  14.7729
    14.8129  16.8357

          k = 0.1250 0.1465 0.0000 (  5578 PWs)   bands (ev):

   -45.8051 -24.2813 -23.7200 -23.5321 -21.0950 -13.5219  -3.5246  -3.1411
    -2.9220  -1.7699  -1.0205  -0.3570   3.3381   5.1975   5.7361   5.8513
     6.6235   6.8287   8.3652   9.4188  11.6719  13.0849  13.6195  14.6814
    15.1992  16.6148

          k = 0.1250 0.2198 0.0000 (  5576 PWs)   bands (ev):

   -45.7933 -24.2441 -23.8331 -23.5697 -21.0743 -13.4254  -3.4195  -3.2326
    -2.9533  -1.8353  -1.3464  -0.5248   3.3017   5.2061   5.8929   6.1235
     6.7624   7.1819   8.8064   9.8645  12.1873  12.6882  13.3128  14.9092
    15.7130  16.3225

          k = 0.1250 0.2930 0.0000 (  5574 PWs)   bands (ev):

   -45.7793 -24.2138 -23.9432 -23.6150 -21.0583 -13.3072  -3.4108  -3.2329
    -2.9991  -2.0789  -1.5228  -0.7165   3.2579   5.3171   5.9999   6.5328
     6.9544   7.6882   9.3018  10.3396  12.2297  12.8298  13.1234  15.1392
    15.7487  16.6857

          k = 0.1250 0.3663 0.0000 (  5561 PWs)   bands (ev):

   -45.7653 -24.2290 -23.9994 -23.6605 -21.0502 -13.1836  -3.5023  -3.1560
    -3.0600  -2.4096  -1.5629  -0.8988   3.2247   5.5696   6.1274   6.7945
     7.2553   8.3519   9.7576  10.7917  12.0212  12.7156  13.7871  14.6653
    15.5243  16.1075

          k = 0.1250 0.4395 0.0000 (  5584 PWs)   bands (ev):

   -45.7533 -24.2917 -23.9911 -23.6992 -21.0489 -13.0743  -3.5862  -3.1880
    -3.0758  -2.6489  -1.5674  -1.0483   3.2148   5.9283   6.2417   6.9454
     7.4962   9.1613  10.1082  11.1542  12.0025  12.6707  13.8621  14.3016
    14.7697  15.9912

          k = 0.1250 0.5128 0.0000 (  5588 PWs)   bands (ev):

   -45.7454 -24.3470 -23.9691 -23.7253 -21.0507 -12.9987  -3.6422  -3.2995
    -3.0575  -2.7539  -1.5651  -1.1466   3.2214   6.2468   6.3595   7.0460
     7.5677   9.9846  10.3664  11.3782  12.0116  12.6607  13.0994  14.1500
    14.6262  15.5040

          k = 0.1250 0.5860 0.0000 (  5602 PWs)   bands (ev):

   -45.7426 -24.3675 -23.9597 -23.7345 -21.0518 -12.9717  -3.6620  -3.3492
    -3.0531  -2.7790  -1.5638  -1.1808   3.2267   6.2977   6.5099   7.0706
     7.5639  10.2845  10.6481  11.5973  11.7230  12.3883  13.1392  13.9966
    14.7429  14.9776

          k = 0.1250 0.0000 0.0000 (  5528 PWs)   bands (ev):

   -45.8157 -24.3177 -23.6055 -23.5011 -21.1201 -13.6062  -3.6393  -3.0356
    -2.9009  -1.7693  -0.6113  -0.2281   3.3662   5.1492   5.5730   5.7729
     6.4403   6.6269   7.9522   8.9378  11.2188  13.5459  13.7368  14.6556
    14.9167  16.8570

          k = 0.1875 0.1099 0.0000 (  5569 PWs)   bands (ev):

   -45.8009 -24.2674 -23.7760 -23.5324 -21.0862 -13.4866  -3.4898  -3.1863
    -2.9130  -1.7996  -1.1979  -0.3611   3.2918   5.2504   5.8151   5.8796
     6.8171   6.8886   8.5272   9.5862  11.7853  12.9556  13.5067  14.9627
    15.2808  16.6610

          k = 0.1875 0.1831 0.0000 (  5570 PWs)   bands (ev):

   -45.7919 -24.2409 -23.8614 -23.5583 -21.0723 -13.4121  -3.4323  -3.2363
    -2.9359  -1.8908  -1.4075  -0.4728   3.2482   5.3006   5.8729   6.1474
     6.8656   7.2206   8.8608   9.9131  12.0089  12.8355  13.3099  15.0839
    15.7528  16.3906

          k = 0.1875 0.2564 0.0000 (  5566 PWs)   bands (ev):

   -45.7801 -24.2160 -23.9459 -23.6053 -21.0583 -13.3116  -3.4132  -3.2358
    -2.9899  -2.0904  -1.5287  -0.6796   3.2404   5.3211   5.9981   6.5425
     6.9722   7.6817   9.2891  10.3357  12.2359  12.8101  13.0896  15.1252
    15.7580  16.6045

          k = 0.1875 0.3296 0.0000 (  5581 PWs)   bands (ev):

   -45.7672 -24.2183 -23.9943 -23.6651 -21.0482 -13.1984  -3.4598  -3.1712
    -3.0717  -2.3318  -1.5785  -0.9298   3.2789   5.4151   6.1808   6.7110
     7.2649   8.3289   9.7499  10.8085  12.3162  12.6841  13.3146  14.5970
    15.8710  15.9858

          k = 0.1875 0.4029 0.0000 (  5574 PWs)   bands (ev):

   -45.7553 -24.2579 -23.9917 -23.7255 -21.0434 -13.0893  -3.5197  -3.1857
    -3.0989  -2.5224  -1.6045  -1.1675   3.3501   5.6323   6.3364   6.7841
     7.5019   9.1641  10.1791  11.2664  12.2756  12.5914  13.8273  14.0463
    14.9650  15.7787

          k = 0.1875 0.4761 0.0000 (  5577 PWs)   bands (ev):

   -45.7461 -24.3028 -23.9698 -23.7745 -21.0424 -13.0028  -3.5708  -3.2949
    -3.0596  -2.6254  -1.6266  -1.3462   3.4254   5.9586   6.3785   6.9284
     7.5160  10.0799  10.5103  11.5818  12.1709  12.7094  13.4874  14.1046
    14.4556  15.6038

          k = 0.1875 0.5494 0.0000 (  5610 PWs)   bands (ev):

   -45.7412 -24.3292 -23.9538 -23.8021 -21.0429 -12.9548  -3.6022  -3.3634
    -3.0436  -2.6619  -1.6470  -1.4356   3.4735   6.2644   6.3741   7.0531
     7.3792  10.5186  11.1064  11.6894  12.0284  12.5686  13.1638  14.0708
    14.5960  15.3434

          k = 0.1875-0.0366 0.0000 (  5566 PWs)   bands (ev):

   -45.8058 -24.2830 -23.7198 -23.5259 -21.0950 -13.5261  -3.5272  -3.1449
    -2.9121  -1.7735  -1.0175  -0.3440   3.3338   5.1488   5.8031   5.8480
     6.6752   6.7959   8.3437   9.4034  11.6570  13.0752  13.6049  14.7063
    15.2374  16.6303

          k = 0.2500 0.1465 0.0000 (  5581 PWs)   bands (ev):

   -45.7868 -24.2303 -23.9182 -23.5600 -21.0659 -13.3665  -3.4589  -3.2261
    -2.9274  -2.0382  -1.4869  -0.4764   3.1728   5.4506   5.9188   6.2575
     7.0090   7.3890   9.0448  10.0777  11.8378  12.8869  13.4643  15.4449
    15.8749  16.3657

          k = 0.2500 0.2198 0.0000 (  5574 PWs)   bands (ev):

   -45.7777 -24.2218 -23.9772 -23.5879 -21.0579 -13.2886  -3.4864  -3.1978
    -2.9610  -2.2462  -1.5385  -0.5945   3.1388   5.5357   5.9889   6.5894
     7.0815   7.7573   9.3532  10.3773  11.8419  12.7957  13.6359  15.2971
    15.8556  16.1380

          k = 0.2500 0.2930 0.0000 (  5579 PWs)   bands (ev):

   -45.7670 -24.2326 -24.0032 -23.6433 -21.0496 -13.1936  -3.5064  -3.1555
    -3.0478  -2.4249  -1.5702  -0.8358   3.1948   5.5733   6.1246   6.8107
     7.2771   8.3405   9.7379  10.7941  12.0168  12.7012  13.6991  14.6266
    15.4372  16.0999

          k = 0.2500 0.3663 0.0000 (  5575 PWs)   bands (ev):

   -45.7562 -24.2593 -23.9939 -23.7170 -21.0428 -13.0949  -3.5211  -3.1763
    -3.1035  -2.5278  -1.6062  -1.1385   3.3364   5.6299   6.3382   6.7905
     7.5079   9.1592  10.1709  11.2751  12.2827  12.5881  13.7802  13.9985
    14.8921  15.8226

          k = 0.2500 0.4395 0.0000 (  5580 PWs)   bands (ev):

   -45.7471 -24.2824 -23.9712 -23.7929 -21.0385 -13.0082  -3.5502  -3.2734
    -3.0623  -2.5633  -1.6785  -1.4031   3.5184   5.7730   6.4530   6.8443
     7.5328  10.0916  10.5691  11.6492  12.4103  12.6358  13.6902  14.0621
    14.3056  15.2054

          k = 0.2500 0.5128 0.0000 (  5598 PWs)   bands (ev):

   -45.7410 -24.2935 -23.9518 -23.8515 -21.0363 -12.9486  -3.6012  -3.3022
    -3.0327  -2.5615  -1.8170  -1.5231   3.6707   6.0046   6.4166   6.9876
     7.3880  10.6443  11.1477  11.7115  12.5219  12.9346  13.3345  13.9392
    14.3744  15.0007

          k = 0.2500 0.5860 0.0000 (  5600 PWs)   bands (ev):

   -45.7388 -24.2961 -23.9443 -23.8741 -21.0357 -12.9274  -3.6270  -3.3016
    -3.0218  -2.5545  -1.8925  -1.5481   3.7297   6.1574   6.3899   6.9979
     7.3142  10.6558  11.6926  12.0845  12.1345  12.7418  13.3815  13.9059
    14.5298  15.2628

          k = 0.2500-0.0733 0.0000 (  5572 PWs)   bands (ev):

   -45.7928 -24.2424 -23.8564 -23.5570 -21.0717 -13.4173  -3.4334  -3.2354
    -2.9309  -1.8864  -1.3968  -0.4789   3.2528   5.2726   5.8782   6.1837
     6.8904   7.1985   8.8399   9.9011  12.0051  12.8432  13.3127  15.1066
    15.7290  16.3766

          k = 0.2500 0.0000 0.0000 (  5584 PWs)   bands (ev):

   -45.7949 -24.2475 -23.8289 -23.5610 -21.0737 -13.4348  -3.4231  -3.2349
    -2.9389  -1.8376  -1.3367  -0.5076   3.2961   5.1658   5.9075   6.1787
     6.8083   7.1514   8.7676   9.8423  12.1640  12.6961  13.3055  14.9186
    15.7255  16.3279

          k = 0.3125 0.1831 0.0000 (  5578 PWs)   bands (ev):

   -45.7725 -24.2370 -24.0057 -23.5874 -21.0560 -13.2409  -3.5543  -3.1651
    -2.9475  -2.4456  -1.5482  -0.5823   3.0551   5.6985   6.1436   6.6928
     7.2084   7.9608   9.4950  10.4923  11.6980  12.7018  14.1095  15.0554
    15.8873  16.0637

          k = 0.3125 0.2564 0.0000 (  5570 PWs)   bands (ev):

   -45.7646 -24.2666 -24.0120 -23.6160 -21.0528 -13.1697  -3.5927  -3.1402
    -2.9983  -2.6086  -1.5587  -0.7033   3.0551   5.8256   6.1858   6.9338
     7.3408   8.4009   9.7396  10.7605  11.7760  12.6452  14.1880  14.4922
    15.3629  16.0479

          k = 0.3125 0.3296 0.0000 (  5585 PWs)   bands (ev):

   -45.7560 -24.2938 -23.9969 -23.6772 -21.0473 -13.0901  -3.5911  -3.1699
    -3.0777  -2.6551  -1.5776  -0.9707   3.1803   5.9255   6.2372   6.9679
     7.5093   9.1455  10.0891  11.1718  11.9769  12.6439  13.7518  14.2044
    14.7294  15.9297

          k = 0.3125 0.4029 0.0000 (  5580 PWs)   bands (ev):

   -45.7480 -24.3031 -23.9743 -23.7604 -21.0408 -13.0141  -3.5709  -3.2859
    -3.0619  -2.6259  -1.6259  -1.3049   3.4069   5.9408   6.3866   6.9395
     7.5225  10.0597  10.5004  11.6166  12.1798  12.6871  13.3674  14.0680
    14.3746  15.6485

          k = 0.3125 0.4761 0.0000 (  5583 PWs)   bands (ev):

   -45.7419 -24.2925 -23.9542 -23.8458 -21.0353 -12.9544  -3.5982  -3.3000
    -3.0333  -2.5605  -1.8020  -1.5212   3.6667   5.9875   6.4225   6.9925
     7.3926  10.6186  11.1470  11.7322  12.5671  12.8914  13.2394  13.9734
    14.3363  15.0240

          k = 0.3125 0.5494 0.0000 (  5590 PWs)   bands (ev):

   -45.7386 -24.2756 -23.9427 -23.9041 -21.0322 -12.9215  -3.6447  -3.2530
    -3.0070  -2.4800  -2.0441  -1.5717   3.8493   6.0754   6.3961   6.9127
     7.3659  10.6557  11.6883  12.0859  12.8808  13.0187  13.1356  13.5963
    14.5544  15.2391

          k = 0.3125-0.1099 0.0000 (  5584 PWs)   bands (ev):

   -45.7786 -24.2209 -23.9726 -23.5894 -21.0568 -13.2940  -3.4834  -3.1978
    -2.9583  -2.2283  -1.5361  -0.6099   3.1504   5.5274   5.9948   6.5968
     7.0858   7.7433   9.3350  10.3659  11.8499  12.8000  13.6613  15.3051
    15.8210  16.1403

          k = 0.3125-0.0366 0.0000 (  5590 PWs)   bands (ev):

   -45.7819 -24.2170 -23.9374 -23.6039 -21.0566 -13.3221  -3.4097  -3.2368
    -2.9813  -2.0673  -1.5219  -0.6923   3.2519   5.2973   6.0154   6.5665
     6.9859   7.6576   9.2524  10.3161  12.2514  12.8182  13.1038  15.1157
    15.6972  16.6188

          k = 0.3750 0.2198 0.0000 (  5571 PWs)   bands (ev):

   -45.7604 -24.3062 -24.0090 -23.6104 -21.0545 -13.1297  -3.6607  -3.1364
    -2.9688  -2.7761  -1.5545  -0.6658   2.9761   5.9210   6.4254   7.0229
     7.4916   8.5883   9.8002  10.8171  11.7661  12.6091  13.7587  14.6710
    15.4378  15.5301

          k = 0.3750 0.2930 0.0000 (  5581 PWs)   bands (ev):

   -45.7546 -24.3385 -23.9952 -23.6381 -21.0535 -13.0754  -3.6833  -3.1667
    -3.0314  -2.8124  -1.5584  -0.7853   3.0131   6.0664   6.4226   7.0990
     7.6181   9.1251  10.0066  11.0478  11.8619  12.6134  13.2911  14.4697
    14.8163  15.5432

          k = 0.3750 0.3663 0.0000 (  5592 PWs)   bands (ev):

   -45.7488 -24.3458 -23.9772 -23.7011 -21.0478 -13.0196  -3.6474  -3.2813
    -3.0562  -2.7467  -1.5779  -1.0651   3.1885   6.2586   6.3325   7.0765
     7.5655   9.9472  10.3623  11.3965  11.9514  12.5841  13.0322  14.1096
    14.5386  15.4688

          k = 0.3750 0.4395 0.0000 (  5582 PWs)   bands (ev):

   -45.7438 -24.3260 -23.9603 -23.7863 -21.0400 -12.9712  -3.5992  -3.3533
    -3.0434  -2.6529  -1.6395  -1.4009   3.4586   6.2270   6.3886   7.0762
     7.3780  10.4607  11.1128  11.7424  11.9623  12.5241  13.1077  14.0038
    14.5560  15.2966

          k = 0.3750 0.5128 0.0000 (  5587 PWs)   bands (ev):

   -45.7405 -24.2908 -23.9485 -23.8676 -21.0335 -12.9382  -3.6211  -3.2949
    -3.0210  -2.5438  -1.8725  -1.5542   3.7321   6.1310   6.3912   7.0038
     7.3224  10.6037  11.7277  12.0079  12.0943  12.8144  13.3309  13.8907
    14.5290  15.2194

          k = 0.3750 0.5860 0.0000 (  5590 PWs)   bands (ev):

   -45.7394 -24.2708 -23.9442 -23.9044 -21.0310 -12.9265  -3.6420  -3.2476
    -3.0055  -2.4656  -2.0471  -1.5773   3.8571   6.0720   6.3870   6.9100
     7.3707  10.6277  11.7035  11.9720  12.9561  12.9802  13.2709  13.5119
    14.5332  15.2117

          k = 0.3750-0.1465 0.0000 (  5575 PWs)   bands (ev):

   -45.7654 -24.2619 -24.0114 -23.6184 -21.0515 -13.1744  -3.5883  -3.1409
    -2.9969  -2.5889  -1.5591  -0.7203   3.0685   5.8298   6.1969   6.9272
     7.3322   8.3807   9.7218  10.7480  11.7834  12.6460  14.2102  14.5279
    15.3146  16.0788

          k = 0.3750-0.0733 0.0000 (  5593 PWs)   bands (ev):

   -45.7687 -24.2261 -23.9996 -23.6463 -21.0472 -13.2037  -3.4989  -3.1570
    -3.0408  -2.3891  -1.5699  -0.8631   3.2168   5.5671   6.1366   6.8246
     7.2585   8.3104   9.7026  10.7723  12.0377  12.7062  13.7458  14.6065
    15.4528  16.0596

          k = 0.3750 0.0000 0.0000 (  5588 PWs)   bands (ev):

   -45.7698 -24.2133 -23.9896 -23.6626 -21.0453 -13.2138  -3.4523  -3.1729
    -3.0591  -2.2944  -1.5791  -0.9412   3.2941   5.4018   6.1965   6.7359
     7.2523   8.2929   9.7003  10.7844  12.3571  12.7003  13.3019  14.5608
    15.8193  15.9536

          k = 0.4375 0.2564 0.0000 (  5577 PWs)   bands (ev):

   -45.7523 -24.3715 -23.9886 -23.6257 -21.0569 -13.0526  -3.7424  -3.1796
    -2.9850  -2.9303  -1.5511  -0.7186   2.9389   6.0980   6.6078   7.1619
     7.8216   9.2281  10.0179  11.0796  11.8168  12.4671  13.0566  14.4110
    14.8075  15.0535

          k = 0.4375 0.3296 0.0000 (  5565 PWs)   bands (ev):

   -45.7493 -24.3822 -23.9788 -23.6505 -21.0552 -13.0236  -3.7370  -3.2413
    -3.0363  -2.8704  -1.5559  -0.8314   3.0016   6.1987   6.5908   7.1568
     7.7895   9.7327  10.1922  11.2825  11.7122  12.3234  13.0793  14.1030
    14.6006  15.0229

          k = 0.4375 0.4029 0.0000 (  5585 PWs)   bands (ev):

   -45.7465 -24.3627 -23.9691 -23.7107 -21.0480 -12.9960  -3.6655  -3.3290
    -3.0494  -2.7625  -1.5776  -1.1046   3.1993   6.2988   6.5038   7.1049
     7.5425  10.2037  10.6612  11.5850  11.6342  12.3304  13.0987  13.9328
    14.6769  14.9860

          k = 0.4375 0.4761 0.0000 (  5581 PWs)   bands (ev):

   -45.7443 -24.3213 -23.9612 -23.7883 -21.0390 -12.9745  -3.5974  -3.3476
    -3.0420  -2.6424  -1.6392  -1.4134   3.4675   6.2487   6.3724   7.0920
     7.3519  10.4392  11.0234  11.7281  12.0348  12.5324  13.1037  14.0219
    14.5694  15.3194

          k = 0.4375 0.5494 0.0000 (  5578 PWs)   bands (ev):

   -45.7432 -24.2824 -23.9563 -23.8489 -21.0331 -12.9627  -3.5948  -3.2871
    -3.0306  -2.5338  -1.8095  -1.5372   3.6844   5.9972   6.3991   7.0168
     7.3645  10.5798  11.0252  11.7511  12.5290  12.9688  13.2946  13.9502
    14.3394  15.0409

          k = 0.4375-0.1831 0.0000 (  5572 PWs)   bands (ev):

   -45.7551 -24.3341 -23.9959 -23.6401 -21.0524 -13.0787  -3.6792  -3.1674
    -3.0304  -2.7987  -1.5591  -0.7982   3.0233   6.0648   6.4491   7.0911
     7.6065   9.0905   9.9871  11.0386  11.8705  12.6077  13.3053  14.5140
    14.7879  15.5673

          k = 0.4375-0.1099 0.0000 (  5590 PWs)   bands (ev):

   -45.7573 -24.2840 -23.9977 -23.6814 -21.0450 -13.0981  -3.5835  -3.1684
    -3.0727  -2.6257  -1.5784  -0.9985   3.2021   5.9369   6.2413   6.9835
     7.4744   9.0977  10.0480  11.1487  11.9951  12.6350  13.7803  14.2545
    14.7380  15.9530

          k = 0.4375-0.0366 0.0000 (  5575 PWs)   bands (ev):

   -45.7584 -24.2465 -23.9944 -23.7202 -21.0395 -13.1084  -3.5122  -3.1670
    -3.0999  -2.4841  -1.6077  -1.1692   3.3627   5.6275   6.3337   6.8279
     7.4671   9.1058  10.1129  11.2469  12.3156  12.5893  13.8023  14.0094
    14.9301  15.7762

          k =-0.5000-0.2930 0.0000 (  5572 PWs)   bands (ev):

   -45.7494 -24.3959 -23.9794 -23.6311 -21.0583 -13.0250  -3.7743  -3.2171
    -2.9913  -2.9596  -1.5490  -0.7366   2.9292   6.1736   6.6547   7.1983
     7.9657   9.5860  10.1034  11.3434  11.5201  12.2390  13.1296  14.0802
    14.6106  14.8820

          k =-0.5000-0.2198 0.0000 (  5585 PWs)   bands (ev):

   -45.7495 -24.3805 -23.9791 -23.6513 -21.0548 -13.0247  -3.7352  -3.2413
    -3.0359  -2.8660  -1.5562  -0.8361   3.0053   6.1950   6.6084   7.1512
     7.7863   9.7039  10.1851  11.2748  11.7335  12.3219  13.0714  14.1145
    14.6290  15.0070

          k =-0.5000-0.1465 0.0000 (  5588 PWs)   bands (ev):

   -45.7495 -24.3395 -23.9783 -23.7039 -21.0464 -13.0241  -3.6423  -3.2778
    -3.0542  -2.7321  -1.5782  -1.0822   3.2015   6.2483   6.3656   7.0824
     7.5380   9.8941  10.3182  11.3811  11.9862  12.5812  13.0398  14.1378
    14.5691  15.4810

          k =-0.5000-0.0733 0.0000 (  5587 PWs)   bands (ev):

   -45.7495 -24.2912 -23.9762 -23.7649 -21.0382 -13.0235  -3.5650  -3.2740
    -3.0589  -2.5953  -1.6260  -1.3351   3.4299   5.9568   6.3671   6.9782
     7.4745  10.0007  10.4221  11.5933  12.1948  12.6903  13.4213  14.0903
    14.4196  15.6527

          k =-0.5000 0.0000 0.0000 (  5570 PWs)   bands (ev):

   -45.7495 -24.2679 -23.9746 -23.7942 -21.0348 -13.0232  -3.5436  -3.2548
    -3.0604  -2.5229  -1.6790  -1.4278   3.5415   5.7715   6.4264   6.9007
     7.4856  10.0245  10.4740  11.6446  12.3768  12.7064  13.7003  14.0510
    14.3250  15.2200

     highest occupied, lowest unoccupied level (ev):     3.8571    5.1488

!    total energy              =    -446.24459789 Ry
     total all-electron energy =     -8320.714877 Ry
     estimated scf accuracy    <          1.4E-09 Ry

     The total energy is the sum of the following terms:
     one-electron contribution =    -300.88218700 Ry
     hartree contribution      =     158.47585638 Ry
     xc contribution           =     -38.48960483 Ry
     ewald contribution        =       1.27507878 Ry
     one-center paw contrib.   =    -266.62374121 Ry

     convergence has been achieved in   9 iterations

     negative rho (up, down):  8.563E-05 0.000E+00

     Forces acting on atoms (cartesian axes, Ry/au):

     atom    1 type  1   force =     0.00000000   -0.00083156   -0.00000045
     atom    2 type  2   force =     0.00000000   -0.00000312   -0.00274756
     atom    3 type  3   force =     0.00000000    0.00083469    0.00274801
     The non-local contrib.  to forces
     atom    1 type  1   force =     0.00000000   -0.00368876   -0.02202540
     atom    2 type  2   force =     0.00000000   -0.02122616   -1.08066309
     atom    3 type  3   force =     0.00000000   -0.00061029    0.22441689
     The ionic contribution  to forces
     atom    1 type  1   force =    -0.00000001   -0.17659927   -0.31192900
     atom    2 type  2   force =     0.00000001    0.11734901   26.24625035
     atom    3 type  3   force =     0.00000000    0.05925026  -25.93432135
     The local contribution  to forces
     atom    1 type  1   force =    -0.00000000    0.17936031    0.33009657
     atom    2 type  2   force =     0.00000032   -0.09616166  -25.17196960
     atom    3 type  3   force =     0.00000004   -0.05773555   25.72023003
     The core correction contribution to forces
     atom    1 type  1   force =     0.00000089    0.00012470    0.00372165
     atom    2 type  2   force =     0.00000032    0.00006380    0.00350835
     atom    3 type  3   force =     0.00006738   -0.00004226   -0.00764758
     The Hubbard contrib.    to forces
     atom    1 type  1   force =     0.00000000    0.00000000    0.00000000
     atom    2 type  2   force =     0.00000000    0.00000000    0.00000000
     atom    3 type  3   force =     0.00000000    0.00000000    0.00000000
     The SCF correction term to forces
     atom    1 type  1   force =     0.00000000    0.00000024    0.00006340
     atom    2 type  2   force =    -0.00000000    0.00000065    0.00005409
     atom    3 type  3   force =     0.00000000    0.00000130   -0.00000232

     Total force =     0.004061     Total SCF correction =     0.000083

     BFGS Geometry Optimization
     Energy error            =      0.0E+00 Ry
     Gradient error          =      2.7E-03 Ry/Bohr

     number of scf cycles    =   1
     number of bfgs steps    =   0

     energy             new  =    -446.2445978897 Ry

     new trust radius        =       0.0028719753 bohr
     new conv_thr            =       0.0000000100 Ry


ATOMIC_POSITIONS (angstrom)
Zr            0.0000000000       -0.0004400442        9.5703636037
F            -0.0000000020        1.8815087010       10.9018773775
Cl           -0.0000000020        1.8819520518        7.8139339273



     Writing config-only to output data dir ./tmp/ZrFCl.save/
     NEW-OLD atomic charge density approx. for the potential

     Check: negative core charge=   -0.000005

     negative rho (up, down):  8.591E-05 0.000E+00

     total cpu time spent up to now is       16.9 secs

     Self-consistent Calculation

     iteration #  1     ecut=    65.00 Ry     beta= 0.70
     Davidson diagonalization with overlap
     ethr =  1.00E-06,  avg # of iterations =  3.0

     Threshold (ethr) on eigenvalues was too large:
     Diagonalizing with lowered threshold

     Davidson diagonalization with overlap
     ethr =  4.57E-09,  avg # of iterations =  2.8

     negative rho (up, down):  8.613E-05 0.000E+00

     total cpu time spent up to now is       20.1 secs

     total energy              =    -446.24461228 Ry
     estimated scf accuracy    <       0.00000129 Ry

     iteration #  2     ecut=    65.00 Ry     beta= 0.70
     Davidson diagonalization with overlap
     ethr =  4.98E-09,  avg # of iterations =  2.0

     negative rho (up, down):  8.596E-05 0.000E+00

     total cpu time spent up to now is       21.5 secs

     total energy              =    -446.24461232 Ry
     estimated scf accuracy    <       0.00000218 Ry

     iteration #  3     ecut=    65.00 Ry     beta= 0.70
     Davidson diagonalization with overlap
     ethr =  4.98E-09,  avg # of iterations =  1.9

     negative rho (up, down):  8.589E-05 0.000E+00

     total cpu time spent up to now is       22.8 secs

     total energy              =    -446.24461282 Ry
     estimated scf accuracy    <       0.00000012 Ry

     iteration #  4     ecut=    65.00 Ry     beta= 0.70
     Davidson diagonalization with overlap
     ethr =  4.64E-10,  avg # of iterations =  2.0

     negative rho (up, down):  8.588E-05 0.000E+00

     total cpu time spent up to now is       24.1 secs

     total energy              =    -446.24461284 Ry
     estimated scf accuracy    <       0.00000001 Ry

     iteration #  5     ecut=    65.00 Ry     beta= 0.70
     Davidson diagonalization with overlap
     ethr =  4.90E-11,  avg # of iterations =  2.0

     negative rho (up, down):  8.588E-05 0.000E+00

     total cpu time spent up to now is       25.4 secs

     End of self-consistent calculation

          k = 0.0000 0.0000 0.0000 (  5509 PWs)   bands (ev):

   -45.8184 -24.3439 -23.4996 -23.4769 -21.1483 -13.6700  -3.7457  -2.9320
    -2.9013  -1.7917  -0.2153  -0.1350   3.3722   5.2232   5.4087   5.5880
     6.4227   6.5063   7.6232   8.4403  10.8677  13.5129  14.2420  14.4706
    15.2695  16.8813

          k = 0.0000 0.0733 0.0000 (  5513 PWs)   bands (ev):

   -45.8154 -24.3332 -23.5149 -23.5057 -21.1385 -13.6471  -3.7084  -2.9440
    -2.9323  -1.7793  -0.2896  -0.2454   3.3811   5.2814   5.3601   5.6824
     6.4603   6.4710   7.7451   8.6402  10.9915  13.5863  14.1657  14.3440
    15.1032  16.8458

          k = 0.0000 0.1465 0.0000 (  5517 PWs)   bands (ev):

   -45.8069 -24.3032 -23.6191 -23.5232 -21.1144 -13.5808  -3.6089  -3.0519
    -2.9350  -1.7604  -0.6858  -0.3279   3.3823   5.2844   5.4599   5.8145
     6.5356   6.6005   8.0811   9.0939  11.3526  13.4661  13.7852  14.6481
    14.8167  16.7395

          k = 0.0000 0.2198 0.0000 (  5578 PWs)   bands (ev):

   -45.7941 -24.2606 -23.7633 -23.5493 -21.0875 -13.4786  -3.4889  -3.1771
    -2.9436  -1.7885  -1.1655  -0.4434   3.3283   5.3070   5.7628   5.8528
     6.7760   6.9058   8.5626   9.6095  11.8160  13.0014  13.5481  15.0021
    15.1436  16.5619

          k = 0.0000 0.2930 0.0000 (  5568 PWs)   bands (ev):

   -45.7790 -24.2216 -23.9095 -23.5798 -21.0678 -13.3533  -3.4581  -3.2200
    -2.9603  -2.0200  -1.4689  -0.5687   3.2183   5.4694   5.9498   6.1783
     6.9644   7.4181   9.0909  10.0982  11.8544  12.9375  13.5305  15.5047
    15.7627  16.3481

          k = 0.0000 0.3663 0.0000 (  5564 PWs)   bands (ev):

   -45.7638 -24.2299 -23.9969 -23.6101 -21.0589 -13.2221  -3.5534  -3.1638
    -2.9837  -2.4321  -1.5316  -0.6837   3.1037   5.6956   6.1744   6.6474
     7.1655   7.9992   9.5434  10.5048  11.7221  12.7473  14.2313  15.1797
    15.7802  16.1522

          k = 0.0000 0.4395 0.0000 (  5574 PWs)   bands (ev):

   -45.7509 -24.3039 -23.9963 -23.6356 -21.0587 -13.1057  -3.6583  -3.1430
    -3.0083  -2.7690  -1.5354  -0.7739   3.0260   5.9141   6.4450   6.9943
     7.4704   8.6372   9.8420  10.8285  11.8153  12.6691  13.9004  14.7800
    15.3280  15.6388

          k = 0.0000 0.5128 0.0000 (  5570 PWs)   bands (ev):

   -45.7423 -24.3720 -23.9735 -23.6525 -21.0621 -13.0250  -3.7376  -3.1949
    -3.0270  -2.9264  -1.5299  -0.8309   2.9898   6.0958   6.6097   7.1295
     7.8396   9.2875  10.0512  11.1082  11.8969  12.5718  13.1273  14.5078
    14.8976  14.9348

          k = 0.0000-0.5860 0.0000 (  5570 PWs)   bands (ev):

   -45.7392 -24.3973 -23.9635 -23.6585 -21.0640 -12.9961  -3.7684  -3.2353
    -3.0339  -2.9577  -1.5271  -0.8503   2.9805   6.1758   6.6465   7.1639
     8.0014   9.6571  10.1198  11.3838  11.6365  12.3283  13.1894  14.1576
    14.7165  14.7442

          k = 0.0625 0.0366 0.0000 (  5517 PWs)   bands (ev):

   -45.8156 -24.3337 -23.5326 -23.4863 -21.1387 -13.6480  -3.7093  -2.9680
    -2.9065  -1.7806  -0.3516  -0.1769   3.3773   5.2090   5.4439   5.6760
     6.4017   6.5415   7.7387   8.6310  10.9868  13.5836  14.0193  14.5249
    15.0827  16.9023

          k = 0.0625 0.1099 0.0000 (  5529 PWs)   bands (ev):

   -45.8098 -24.3134 -23.5920 -23.5099 -21.1218 -13.6034  -3.6405  -3.0269
    -2.9247  -1.7649  -0.5848  -0.2747   3.3818   5.2357   5.4738   5.7914
     6.4407   6.6058   7.9683   8.9547  11.2320  13.5820  13.7878  14.5552
    14.9068  16.7848

          k = 0.0625 0.1831 0.0000 (  5544 PWs)   bands (ev):

   -45.7992 -24.2768 -23.7096 -23.5382 -21.0965 -13.5191  -3.5263  -3.1377
    -2.9396  -1.7653  -0.9979  -0.4018   3.3584   5.2250   5.6969   5.8647
     6.6251   6.8184   8.3784   9.4282  11.6863  13.1110  13.6404  14.6755
    15.1583  16.5753

          k = 0.0625 0.2564 0.0000 (  5587 PWs)   bands (ev):

   -45.7853 -24.2344 -23.8509 -23.5715 -21.0737 -13.4051  -3.4330  -3.2310
    -2.9603  -1.8764  -1.3863  -0.5444   3.2842   5.3137   5.8780   6.1149
     6.8412   7.2315   8.8882   9.9259  12.0243  12.8836  13.3408  15.1074
    15.6773  16.3441

          k = 0.0625 0.3296 0.0000 (  5568 PWs)   bands (ev):

   -45.7701 -24.2137 -23.9681 -23.6065 -21.0599 -13.2763  -3.4854  -3.1952
    -2.9901  -2.2253  -1.5240  -0.6842   3.1847   5.5382   6.0022   6.5579
     7.0463   7.7805   9.3900  10.3862  11.8548  12.8347  13.7243  15.3608
    15.8500  16.1766

          k = 0.0625 0.4029 0.0000 (  5570 PWs)   bands (ev):

   -45.7560 -24.2606 -24.0014 -23.6384 -21.0558 -13.1517  -3.5904  -3.1446
    -3.0281  -2.5945  -1.5430  -0.8043   3.1049   5.8219   6.2081   6.9063
     7.3125   8.4306   9.7756  10.7601  11.8081  12.6893  14.3499  14.5810
    15.3286  16.1167

          k = 0.0625 0.4761 0.0000 (  5581 PWs)   bands (ev):

   -45.7453 -24.3361 -23.9819 -23.6628 -21.0578 -13.0523  -3.6791  -3.1852
    -3.0503  -2.8135  -1.5399  -0.8915   3.0630   6.0594   6.4484   7.0674
     7.6180   9.1599  10.0348  11.0521  11.9224  12.6814  13.4067  14.5444
    14.8433  15.5720

          k = 0.0625 0.5494 0.0000 (  5577 PWs)   bands (ev):

   -45.7394 -24.3827 -23.9638 -23.6759 -21.0606 -12.9969  -3.7319  -3.2636
    -3.0531  -2.8843  -1.5356  -0.9372   3.0494   6.1972   6.5987   7.1240
     7.8183   9.7889  10.2037  11.3136  11.8156  12.4144  13.1259  14.1669
    14.6762  14.9732

          k = 0.1250 0.0733 0.0000 (  5552 PWs)   bands (ev):

   -45.8076 -24.3050 -23.6322 -23.5036 -21.1149 -13.5845  -3.6119  -3.0702
    -2.9105  -1.7650  -0.7337  -0.2569   3.3665   5.1870   5.5933   5.7961
     6.5032   6.6628   8.0606   9.0730  11.3343  13.4194  13.7326  14.7772
    14.8166  16.8389

          k = 0.1250 0.1465 0.0000 (  5578 PWs)   bands (ev):

   -45.7997 -24.2781 -23.7157 -23.5273 -21.0968 -13.5219  -3.5282  -3.1459
    -2.9271  -1.7691  -1.0219  -0.3596   3.3445   5.2052   5.7421   5.8538
     6.6268   6.8320   8.3656   9.4176  11.6731  13.0885  13.6213  14.6828
    15.2018  16.6186

          k = 0.1250 0.2198 0.0000 (  5576 PWs)   bands (ev):

   -45.7879 -24.2410 -23.8289 -23.5649 -21.0760 -13.4256  -3.4235  -3.2369
    -2.9584  -1.8354  -1.3463  -0.5274   3.3073   5.2142   5.8960   6.1286
     6.7678   7.1840   8.8079   9.8629  12.1893  12.6915  13.3161  14.9084
    15.7146  16.3261

          k = 0.1250 0.2930 0.0000 (  5574 PWs)   bands (ev):

   -45.7739 -24.2109 -23.9389 -23.6103 -21.0599 -13.3075  -3.4153  -3.2365
    -3.0040  -2.0798  -1.5215  -0.7188   3.2629   5.3250   6.0031   6.5376
     6.9612   7.6899   9.3047  10.3380  12.2318  12.8344  13.1249  15.1399
    15.7494  16.6870

          k = 0.1250 0.3663 0.0000 (  5561 PWs)   bands (ev):

   -45.7599 -24.2263 -23.9949 -23.6558 -21.0517 -13.1841  -3.5064  -3.1596
    -3.0647  -2.4105  -1.5614  -0.9007   3.2295   5.5767   6.1312   6.8001
     7.2615   8.3540   9.7620  10.7903  12.0224  12.7195  13.7888  14.6680
    15.5246  16.1074

          k = 0.1250 0.4395 0.0000 (  5584 PWs)   bands (ev):

   -45.7479 -24.2892 -23.9865 -23.6946 -21.0505 -13.0749  -3.5900  -3.1920
    -3.0796  -2.6502  -1.5660  -1.0499   3.2197   5.9340   6.2464   6.9519
     7.5022   9.1641  10.1126  11.1533  12.0043  12.6734  13.8631  14.3033
    14.7711  15.9937

          k = 0.1250 0.5128 0.0000 (  5588 PWs)   bands (ev):

   -45.7400 -24.3445 -23.9645 -23.7207 -21.0523 -12.9994  -3.6457  -3.3029
    -3.0612  -2.7558  -1.5638  -1.1480   3.2266   6.2513   6.3644   7.0527
     7.5746   9.9882  10.3693  11.3787  12.0148  12.6615  13.0992  14.1522
    14.6274  15.5074

          k = 0.1250 0.5860 0.0000 (  5602 PWs)   bands (ev):

   -45.7371 -24.3650 -23.9551 -23.7299 -21.0535 -12.9723  -3.6654  -3.3524
    -3.0567  -2.7812  -1.5625  -1.1821   3.2320   6.3030   6.5133   7.0776
     7.5715  10.2874  10.6525  11.6005  11.7209  12.3908  13.1389  13.9981
    14.7454  14.9797

          k = 0.1250 0.0000 0.0000 (  5528 PWs)   bands (ev):

   -45.8103 -24.3146 -23.6010 -23.4961 -21.1221 -13.6062  -3.6427  -3.0410
    -2.9059  -1.7682  -0.6140  -0.2302   3.3735   5.1562   5.5800   5.7746
     6.4441   6.6294   7.9516   8.9372  11.2192  13.5480  13.7363  14.6595
    14.9222  16.8569

          k = 0.1875 0.1099 0.0000 (  5569 PWs)   bands (ev):

   -45.7956 -24.2643 -23.7719 -23.5275 -21.0880 -13.4868  -3.4935  -3.1909
    -2.9179  -1.7993  -1.1987  -0.3634   3.2974   5.2583   5.8184   5.8855
     6.8213   6.8906   8.5281   9.5853  11.7870  12.9585  13.5089  14.9632
    15.2828  16.6642

          k = 0.1875 0.1831 0.0000 (  5570 PWs)   bands (ev):

   -45.7865 -24.2378 -23.8573 -23.5535 -21.0739 -13.4123  -3.4364  -3.2404
    -2.9408  -1.8914  -1.4069  -0.4752   3.2533   5.3085   5.8766   6.1528
     6.8709   7.2225   8.8626   9.9119  12.0115  12.8379  13.3124  15.0836
    15.7540  16.3943

          k = 0.1875 0.2564 0.0000 (  5566 PWs)   bands (ev):

   -45.7747 -24.2131 -23.9417 -23.6005 -21.0599 -13.3119  -3.4176  -3.2394
    -2.9947  -2.0915  -1.5272  -0.6817   3.2449   5.3293   6.0017   6.5473
     6.9788   7.6834   9.2922  10.3343  12.2384  12.8136  13.0912  15.1262
    15.7586  16.6059

          k = 0.1875 0.3296 0.0000 (  5581 PWs)   bands (ev):

   -45.7618 -24.2157 -23.9898 -23.6604 -21.0498 -13.1988  -3.4640  -3.1749
    -3.0763  -2.3328  -1.5771  -0.9314   3.2830   5.4231   6.1847   6.7166
     7.2711   8.3307   9.7545  10.8069  12.3176  12.6872  13.3168  14.6003
    15.8708  15.9859

          k = 0.1875 0.4029 0.0000 (  5574 PWs)   bands (ev):

   -45.7499 -24.2554 -23.9871 -23.7210 -21.0449 -13.0899  -3.5237  -3.1900
    -3.1026  -2.5233  -1.6035  -1.1684   3.3541   5.6396   6.3409   6.7904
     7.5079   9.1657  10.1845  11.2649  12.2769  12.5938  13.8300  14.0496
    14.9648  15.7788

          k = 0.1875 0.4761 0.0000 (  5577 PWs)   bands (ev):

   -45.7407 -24.3003 -23.9652 -23.7700 -21.0440 -13.0034  -3.5746  -3.2986
    -3.0631  -2.6267  -1.6262  -1.3463   3.4297   5.9643   6.3841   6.9348
     7.5228  10.0809  10.5152  11.5812  12.1738  12.7113  13.4883  14.1058
    14.4572  15.6034

          k = 0.1875 0.5494 0.0000 (  5610 PWs)   bands (ev):

   -45.7358 -24.3268 -23.9491 -23.7976 -21.0444 -12.9555  -3.6060  -3.3668
    -3.0470  -2.6635  -1.6472  -1.4350   3.4781   6.2680   6.3804   7.0596
     7.3875  10.5213  11.1093  11.6898  12.0311  12.5696  13.1644  14.0718
    14.5978  15.3448

          k = 0.1875-0.0366 0.0000 (  5566 PWs)   bands (ev):

   -45.8005 -24.2799 -23.7156 -23.5210 -21.0968 -13.5262  -3.5307  -3.1498
    -2.9170  -1.7728  -1.0192  -0.3460   3.3396   5.1566   5.8080   5.8525
     6.6779   6.7990   8.3443   9.4026  11.6580  13.0790  13.6064  14.7069
    15.2402  16.6328

          k = 0.2500 0.1465 0.0000 (  5581 PWs)   bands (ev):

   -45.7814 -24.2272 -23.9141 -23.5552 -21.0675 -13.3668  -3.4632  -3.2297
    -2.9321  -2.0395  -1.4855  -0.4785   3.1774   5.4579   5.9234   6.2629
     7.0143   7.3909   9.0474  10.0771  11.8401  12.8899  13.4651  15.4446
    15.8759  16.3674

          k = 0.2500 0.2198 0.0000 (  5574 PWs)   bands (ev):

   -45.7723 -24.2190 -23.9730 -23.5832 -21.0595 -13.2890  -3.4908  -3.2012
    -2.9658  -2.2474  -1.5368  -0.5966   3.1431   5.5428   5.9937   6.5945
     7.0876   7.7592   9.3567  10.3766  11.8438  12.7990  13.6366  15.2986
    15.8558  16.1381

          k = 0.2500 0.2930 0.0000 (  5579 PWs)   bands (ev):

   -45.7616 -24.2301 -23.9987 -23.6386 -21.0511 -13.1940  -3.5106  -3.1589
    -3.0524  -2.4259  -1.5687  -0.8375   3.1988   5.5808   6.1293   6.8160
     7.2833   8.3425   9.7425  10.7929  12.0184  12.7038  13.7005  14.6294
    15.4371  16.1000

          k = 0.2500 0.3663 0.0000 (  5575 PWs)   bands (ev):

   -45.7508 -24.2569 -23.9893 -23.7124 -21.0443 -13.0954  -3.5251  -3.1805
    -3.1071  -2.5287  -1.6051  -1.1395   3.3400   5.6373   6.3435   6.7962
     7.5140   9.1607  10.1765  11.2736  12.2846  12.5893  13.7824  14.0022
    14.8917  15.8232

          k = 0.2500 0.4395 0.0000 (  5580 PWs)   bands (ev):

   -45.7417 -24.2800 -23.9666 -23.7884 -21.0400 -13.0088  -3.5543  -3.2772
    -3.0658  -2.5642  -1.6784  -1.4027   3.5218   5.7795   6.4595   6.8500
     7.5397  10.0918  10.5749  11.6483  12.4114  12.6388  13.6929  14.0638
    14.3056  15.2043

          k = 0.2500 0.5128 0.0000 (  5598 PWs)   bands (ev):

   -45.7356 -24.2912 -23.9471 -23.8471 -21.0378 -12.9493  -3.6054  -3.3055
    -3.0361  -2.5626  -1.8178  -1.5217   3.6743   6.0093   6.4237   6.9937
     7.3962  10.6472  11.1491  11.7123  12.5246  12.9365  13.3345  13.9396
    14.3765  14.9995

          k = 0.2500 0.5860 0.0000 (  5600 PWs)   bands (ev):

   -45.7334 -24.2938 -23.9395 -23.8696 -21.0372 -12.9281  -3.6312  -3.3048
    -3.0251  -2.5557  -1.8933  -1.5465   3.7334   6.1601   6.3975   7.0053
     7.3227  10.6591  11.6945  12.0860  12.1329  12.7444  13.3826  13.9072
    14.5300  15.2636

          k = 0.2500-0.0733 0.0000 (  5572 PWs)   bands (ev):

   -45.7874 -24.2393 -23.8524 -23.5521 -21.0733 -13.4175  -3.4374  -3.2395
    -2.9356  -1.8872  -1.3963  -0.4809   3.2574   5.2807   5.8822   6.1891
     6.8946   7.2009   8.8419   9.9003  12.0073  12.8457  13.3149  15.1052
    15.7310  16.3793

          k = 0.2500 0.0000 0.0000 (  5584 PWs)   bands (ev):

   -45.7896 -24.2444 -23.8249 -23.5561 -21.0754 -13.4350  -3.4269  -3.2393
    -2.9436  -1.8380  -1.3368  -0.5094   3.3006   5.1741   5.9116   6.1838
     6.8121   7.1540   8.7695   9.8414  12.1654  12.6997  13.3079  14.9168
    15.7280  16.3306

          k = 0.3125 0.1831 0.0000 (  5578 PWs)   bands (ev):

   -45.7671 -24.2344 -24.0013 -23.5826 -21.0575 -13.2414  -3.5585  -3.1684
    -2.9521  -2.4467  -1.5465  -0.5843   3.0593   5.7044   6.1496   6.6976
     7.2145   7.9637   9.4991  10.4922  11.6990  12.7048  14.1101  15.0546
    15.8893  16.0644

          k = 0.3125 0.2564 0.0000 (  5570 PWs)   bands (ev):

   -45.7592 -24.2642 -24.0075 -23.6113 -21.0543 -13.1702  -3.5968  -3.1434
    -3.0028  -2.6095  -1.5572  -0.7051   3.0592   5.8315   6.1916   6.9392
     7.3470   8.4040   9.7441  10.7601  11.7771  12.6476  14.1894  14.4911
    15.3649  16.0502

          k = 0.3125 0.3296 0.0000 (  5585 PWs)   bands (ev):

   -45.7506 -24.2914 -23.9923 -23.6725 -21.0488 -13.0907  -3.5951  -3.1737
    -3.0813  -2.6561  -1.5763  -0.9721   3.1841   5.9317   6.2431   6.9737
     7.5156   9.1480  10.0940  11.1712  11.9788  12.6452  13.7523  14.2060
    14.7306  15.9325

          k = 0.3125 0.4029 0.0000 (  5580 PWs)   bands (ev):

   -45.7426 -24.3008 -23.9696 -23.7558 -21.0423 -13.0148  -3.5748  -3.2896
    -3.0653  -2.6270  -1.6252  -1.3054   3.4103   5.9466   6.3935   6.9451
     7.5296  10.0606  10.5057  11.6158  12.1829  12.6880  13.3679  14.0699
    14.3755  15.6489

          k = 0.3125 0.4761 0.0000 (  5583 PWs)   bands (ev):

   -45.7365 -24.2903 -23.9495 -23.8412 -21.0368 -12.9551  -3.6024  -3.3034
    -3.0366  -2.5615  -1.8025  -1.5200   3.6698   5.9921   6.4301   6.9984
     7.4009  10.6216  11.1482  11.7329  12.5693  12.8936  13.2396  13.9740
    14.3383  15.0227

          k = 0.3125 0.5494 0.0000 (  5590 PWs)   bands (ev):

   -45.7332 -24.2735 -23.9380 -23.8995 -21.0336 -12.9222  -3.6490  -3.2564
    -3.0103  -2.4810  -2.0444  -1.5703   3.8524   6.0780   6.4042   6.9207
     7.3744  10.6592  11.6899  12.0848  12.8800  13.0184  13.1390  13.5996
    14.5545  15.2396

          k = 0.3125-0.1099 0.0000 (  5584 PWs)   bands (ev):

   -45.7732 -24.2181 -23.9685 -23.5845 -21.0583 -13.2943  -3.4878  -3.2011
    -2.9628  -2.2297  -1.5345  -0.6117   3.1544   5.5348   5.9999   6.6013
     7.0913   7.7461   9.3386  10.3656  11.8515  12.8032  13.6620  15.3059
    15.8215  16.1399

          k = 0.3125-0.0366 0.0000 (  5590 PWs)   bands (ev):

   -45.7765 -24.2141 -23.9334 -23.5991 -21.0581 -13.3225  -3.4141  -3.2403
    -2.9857  -2.0688  -1.5206  -0.6938   3.2556   5.3057   6.0204   6.5702
     6.9911   7.6603   9.2558  10.3153  12.2536  12.8212  13.1051  15.1158
    15.6983  16.6193

          k = 0.3750 0.2198 0.0000 (  5571 PWs)   bands (ev):

   -45.7550 -24.3039 -24.0044 -23.6056 -21.0561 -13.1302  -3.6646  -3.1393
    -2.9733  -2.7771  -1.5530  -0.6676   2.9803   5.9267   6.4311   7.0282
     7.4973   8.5934   9.8038  10.8174  11.7675  12.6109  13.7587  14.6702
    15.4406  15.5328

          k = 0.3750 0.2930 0.0000 (  5581 PWs)   bands (ev):

   -45.7492 -24.3362 -23.9906 -23.6333 -21.0550 -13.0761  -3.6871  -3.1694
    -3.0353  -2.8139  -1.5570  -0.7870   3.0172   6.0724   6.4277   7.1052
     7.6241   9.1301  10.0096  11.0485  11.8639  12.6142  13.2907  14.4702
    14.8186  15.5460

          k = 0.3750 0.3663 0.0000 (  5592 PWs)   bands (ev):

   -45.7434 -24.3435 -23.9725 -23.6965 -21.0494 -13.0203  -3.6511  -3.2844
    -3.0595  -2.7482  -1.5767  -1.0662   3.1924   6.2644   6.3381   7.0826
     7.5726   9.9511  10.3653  11.3971  11.9542  12.5839  13.0319  14.1115
    14.5398  15.4711

          k = 0.3750 0.4395 0.0000 (  5582 PWs)   bands (ev):

   -45.7384 -24.3238 -23.9555 -23.7817 -21.0416 -12.9719  -3.6031  -3.3565
    -3.0466  -2.6541  -1.6391  -1.4010   3.4621   6.2306   6.3964   7.0822
     7.3866  10.4638  11.1152  11.7422  11.9651  12.5253  13.1080  14.0051
    14.5575  15.2974

          k = 0.3750 0.5128 0.0000 (  5587 PWs)   bands (ev):

   -45.7351 -24.2887 -23.9437 -23.8630 -21.0350 -12.9389  -3.6252  -3.2982
    -3.0243  -2.5448  -1.8729  -1.5530   3.7352   6.1337   6.3994   7.0111
     7.3311  10.6068  11.7299  12.0072  12.0941  12.8177  13.3325  13.8920
    14.5288  15.2199

          k = 0.3750 0.5860 0.0000 (  5590 PWs)   bands (ev):

   -45.7339 -24.2688 -23.9394 -23.8997 -21.0324 -12.9272  -3.6461  -3.2511
    -3.0088  -2.4666  -2.0472  -1.5760   3.8600   6.0744   6.3953   6.9180
     7.3793  10.6308  11.7056  11.9709  12.9561  12.9785  13.2756  13.5151
    14.5327  15.2115

          k = 0.3750-0.1465 0.0000 (  5575 PWs)   bands (ev):

   -45.7600 -24.2595 -24.0069 -23.6136 -21.0530 -13.1749  -3.5924  -3.1440
    -3.0011  -2.5901  -1.5575  -0.7220   3.0724   5.8359   6.2031   6.9316
     7.3380   8.3847   9.7261  10.7480  11.7844  12.6485  14.2120  14.5267
    15.3161  16.0806

          k = 0.3750-0.0733 0.0000 (  5593 PWs)   bands (ev):

   -45.7633 -24.2236 -23.9952 -23.6415 -21.0487 -13.2042  -3.5032  -3.1603
    -3.0449  -2.3904  -1.5684  -0.8644   3.2202   5.5748   6.1423   6.8287
     7.2638   8.3135   9.7072  10.7718  12.0389  12.7087  13.7469  14.6096
    15.4520  16.0593

          k = 0.3750 0.0000 0.0000 (  5588 PWs)   bands (ev):

   -45.7644 -24.2108 -23.9853 -23.6579 -21.0468 -13.2143  -3.4566  -3.1763
    -3.0631  -2.2959  -1.5777  -0.9422   3.2972   5.4100   6.2025   6.7396
     7.2575   8.2958   9.7051  10.7836  12.3590  12.7018  13.3036  14.5643
    15.8178  15.9539

          k = 0.4375 0.2564 0.0000 (  5577 PWs)   bands (ev):

   -45.7469 -24.3693 -23.9839 -23.6210 -21.0585 -13.0533  -3.7460  -3.1815
    -2.9895  -2.9320  -1.5497  -0.7203   2.9431   6.1045   6.6124   7.1682
     7.8263   9.2360  10.0190  11.0813  11.8187  12.4668  13.0566  14.4115
    14.8098  15.0559

          k = 0.4375 0.3296 0.0000 (  5565 PWs)   bands (ev):

   -45.7439 -24.3800 -23.9741 -23.6457 -21.0568 -13.0243  -3.7405  -3.2434
    -3.0399  -2.8726  -1.5546  -0.8329   3.0057   6.2057   6.5947   7.1633
     7.7954   9.7402  10.1934  11.2843  11.7129  12.3240  13.0786  14.1050
    14.6018  15.0252

          k = 0.4375 0.4029 0.0000 (  5585 PWs)   bands (ev):

   -45.7411 -24.3606 -23.9643 -23.7061 -21.0495 -12.9967  -3.6691  -3.3318
    -3.0526  -2.7642  -1.5765  -1.1057   3.2032   6.3058   6.5075   7.1113
     7.5500  10.2080  10.6647  11.5853  11.6348  12.3327  13.0980  13.9345
    14.6788  14.9873

          k = 0.4375 0.4761 0.0000 (  5581 PWs)   bands (ev):

   -45.7389 -24.3192 -23.9564 -23.7837 -21.0405 -12.9752  -3.6013  -3.3507
    -3.0453  -2.6436  -1.6388  -1.4134   3.4710   6.2522   6.3801   7.0980
     7.3603  10.4422  11.0257  11.7282  12.0379  12.5339  13.1042  14.0228
    14.5706  15.3202

          k = 0.4375 0.5494 0.0000 (  5578 PWs)   bands (ev):

   -45.7378 -24.2804 -23.9515 -23.8442 -21.0345 -12.9634  -3.5988  -3.2904
    -3.0340  -2.5348  -1.8099  -1.5360   3.6873   6.0018   6.4069   7.0228
     7.3730  10.5823  11.0264  11.7526  12.5308  12.9725  13.2948  13.9508
    14.3401  15.0391

          k = 0.4375-0.1831 0.0000 (  5572 PWs)   bands (ev):

   -45.7497 -24.3319 -23.9912 -23.6353 -21.0540 -13.0793  -3.6829  -3.1700
    -3.0342  -2.8005  -1.5577  -0.7998   3.0273   6.0709   6.4548   7.0966
     7.6119   9.0964   9.9895  11.0395  11.8726  12.6087  13.3050  14.5141
    14.7902  15.5694

          k = 0.4375-0.1099 0.0000 (  5590 PWs)   bands (ev):

   -45.7519 -24.2818 -23.9931 -23.6766 -21.0465 -13.0987  -3.5874  -3.1717
    -3.0762  -2.6271  -1.5771  -0.9996   3.2056   5.9433   6.2477   6.9888
     7.4799   9.1013  10.0522  11.1486  11.9969  12.6369  13.7813  14.2557
    14.7385  15.9546

          k = 0.4375-0.0366 0.0000 (  5575 PWs)   bands (ev):

   -45.7530 -24.2443 -23.9898 -23.7155 -21.0409 -13.1090  -3.5163  -3.1707
    -3.1033  -2.4854  -1.6066  -1.1697   3.3656   5.6350   6.3405   6.8326
     7.4724   9.1082  10.1181  11.2462  12.3172  12.5911  13.8035  14.0135
    14.9291  15.7758

          k =-0.5000-0.2930 0.0000 (  5572 PWs)   bands (ev):

   -45.7440 -24.3938 -23.9746 -23.6263 -21.0600 -13.0257  -3.7778  -3.2185
    -2.9957  -2.9616  -1.5477  -0.7383   2.9334   6.1807   6.6587   7.2049
     7.9702   9.5954  10.1044  11.3463  11.5187  12.2402  13.1287  14.0828
    14.6111  14.8847

          k =-0.5000-0.2198 0.0000 (  5585 PWs)   bands (ev):

   -45.7440 -24.3783 -23.9744 -23.6465 -21.0564 -13.0254  -3.7387  -3.2433
    -3.0395  -2.8683  -1.5549  -0.8376   3.0095   6.2019   6.6127   7.1575
     7.7919   9.7118  10.1860  11.2765  11.7345  12.3226  13.0711  14.1162
    14.6305  15.0089

          k =-0.5000-0.1465 0.0000 (  5588 PWs)   bands (ev):

   -45.7441 -24.3374 -23.9735 -23.6992 -21.0480 -13.0248  -3.6460  -3.2807
    -3.0575  -2.7338  -1.5771  -1.0832   3.2053   6.2544   6.3712   7.0884
     7.5446   9.8990  10.3201  11.3820  11.9895  12.5815  13.0399  14.1389
    14.5704  15.4827

          k =-0.5000-0.0733 0.0000 (  5587 PWs)   bands (ev):

   -45.7441 -24.2891 -23.9715 -23.7602 -21.0397 -13.0241  -3.5689  -3.2773
    -3.0623  -2.5965  -1.6254  -1.3353   3.4331   5.9626   6.3743   6.9838
     7.4810  10.0025  10.4262  11.5933  12.1980  12.6925  13.4217  14.0915
    14.4199  15.6521

          k =-0.5000 0.0000 0.0000 (  5570 PWs)   bands (ev):

   -45.7441 -24.2658 -23.9699 -23.7895 -21.0363 -13.0239  -3.5476  -3.2583
    -3.0638  -2.5240  -1.6788  -1.4273   3.5443   5.7780   6.4338   6.9059
     7.4921  10.0252  10.4791  11.6447  12.3778  12.7108  13.7022  14.0527
    14.3240  15.2182

     highest occupied, lowest unoccupied level (ev):     3.8600    5.1562

!    total energy              =    -446.24461284 Ry
     total all-electron energy =     -8320.714892 Ry
     estimated scf accuracy    <          2.6E-09 Ry

     The total energy is the sum of the following terms:
     one-electron contribution =    -301.16886533 Ry
     hartree contribution      =     158.62077227 Ry
     xc contribution           =     -38.49102719 Ry
     ewald contribution        =       1.41829864 Ry
     one-center paw contrib.   =    -266.62379124 Ry

     convergence has been achieved in   5 iterations

     negative rho (up, down):  8.588E-05 0.000E+00

     Forces acting on atoms (cartesian axes, Ry/au):

     atom    1 type  1   force =     0.00000000   -0.00063825    0.00000898
     atom    2 type  2   force =     0.00000000   -0.00003903   -0.00223565
     atom    3 type  3   force =     0.00000000    0.00067728    0.00222667
     The non-local contrib.  to forces
     atom    1 type  1   force =     0.00000000   -0.00355141   -0.02203217
     atom    2 type  2   force =     0.00000000   -0.02099770   -1.07897465
     atom    3 type  3   force =     0.00000000   -0.00067957    0.22410847
     The ionic contribution  to forces
     atom    1 type  1   force =    -0.00000001   -0.17362272   -0.30555406
     atom    2 type  2   force =     0.00000001    0.11577709   26.25521016
     atom    3 type  3   force =     0.00000000    0.05784563  -25.94965610
     The local contribution  to forces
     atom    1 type  1   force =    -0.00000000    0.17644594    0.32389798
     atom    2 type  2   force =     0.00000032   -0.09485221  -25.18203868
     atom    3 type  3   force =     0.00000004   -0.05641912   25.73539051
     The core correction contribution to forces
     atom    1 type  1   force =     0.00000085    0.00012432    0.00373071
     atom    2 type  2   force =     0.00000039    0.00006322    0.00350066
     atom    3 type  3   force =     0.00006686   -0.00003797   -0.00763495
     The Hubbard contrib.    to forces
     atom    1 type  1   force =     0.00000000    0.00000000    0.00000000
     atom    2 type  2   force =     0.00000000    0.00000000    0.00000000
     atom    3 type  3   force =     0.00000000    0.00000000    0.00000000
     The SCF correction term to forces
     atom    1 type  1   force =     0.00000000   -0.00000507   -0.00009937
     atom    2 type  2   force =    -0.00000000   -0.00000012    0.00000097
     atom    3 type  3   force =    -0.00000000   -0.00000240   -0.00004714

     Total force =     0.003290     Total SCF correction =     0.000110
     Energy error            =      1.5E-05 Ry
     Gradient error          =      2.2E-03 Ry/Bohr

     number of scf cycles    =   2
     number of bfgs steps    =   1

     energy             old  =    -446.2445978897 Ry
     energy             new  =    -446.2446128440 Ry

     CASE: energy            _new < energy            _old


     WARNING: bfgs curvature condition failed, Theta= 0.988
     new trust radius        =       0.0031591728 bohr
     new conv_thr            =       0.0000000001 Ry


ATOMIC_POSITIONS (angstrom)
Zr            0.0000000000       -0.0008987957        9.5703699787
F            -0.0000000020        1.8814809734       10.9002715879
Cl           -0.0000000020        1.8824385309        7.8155333419



     Writing config-only to output data dir ./tmp/ZrFCl.save/
     NEW-OLD atomic charge density approx. for the potential

     Check: negative core charge=   -0.000005

     negative rho (up, down):  8.619E-05 0.000E+00

     total cpu time spent up to now is       25.9 secs

     Self-consistent Calculation

     iteration #  1     ecut=    65.00 Ry     beta= 0.70
     Davidson diagonalization with overlap
     ethr =  1.00E-06,  avg # of iterations =  3.0

     Threshold (ethr) on eigenvalues was too large:
     Diagonalizing with lowered threshold

     Davidson diagonalization with overlap
     ethr =  5.72E-09,  avg # of iterations =  2.2

     negative rho (up, down):  8.641E-05 0.000E+00

     total cpu time spent up to now is       29.0 secs

     total energy              =    -446.24462495 Ry
     estimated scf accuracy    <       0.00000158 Ry

     iteration #  2     ecut=    65.00 Ry     beta= 0.70
     Davidson diagonalization with overlap
     ethr =  6.07E-09,  avg # of iterations =  2.0

     negative rho (up, down):  8.623E-05 0.000E+00

     total cpu time spent up to now is       30.4 secs

     total energy              =    -446.24462503 Ry
     estimated scf accuracy    <       0.00000253 Ry

     iteration #  3     ecut=    65.00 Ry     beta= 0.70
     Davidson diagonalization with overlap
     ethr =  6.07E-09,  avg # of iterations =  2.0

     negative rho (up, down):  8.616E-05 0.000E+00

     total cpu time spent up to now is       31.7 secs

     total energy              =    -446.24462560 Ry
     estimated scf accuracy    <       0.00000014 Ry

     iteration #  4     ecut=    65.00 Ry     beta= 0.70
     Davidson diagonalization with overlap
     ethr =  5.49E-10,  avg # of iterations =  2.0

     negative rho (up, down):  8.614E-05 0.000E+00

     total cpu time spent up to now is       33.0 secs

     total energy              =    -446.24462563 Ry
     estimated scf accuracy    <       0.00000002 Ry

     iteration #  5     ecut=    65.00 Ry     beta= 0.70
     Davidson diagonalization with overlap
     ethr =  6.92E-11,  avg # of iterations =  2.0

     negative rho (up, down):  8.613E-05 0.000E+00

     total cpu time spent up to now is       34.3 secs

     total energy              =    -446.24462564 Ry
     estimated scf accuracy    <          3.2E-09 Ry

     iteration #  6     ecut=    65.00 Ry     beta= 0.70
     Davidson diagonalization with overlap
     ethr =  1.24E-11,  avg # of iterations =  2.0

     negative rho (up, down):  8.613E-05 0.000E+00

     total cpu time spent up to now is       35.7 secs

     total energy              =    -446.24462564 Ry
     estimated scf accuracy    <          1.6E-10 Ry

     iteration #  7     ecut=    65.00 Ry     beta= 0.70
     Davidson diagonalization with overlap
     ethr =  6.27E-13,  avg # of iterations =  2.0

     negative rho (up, down):  8.613E-05 0.000E+00

     total cpu time spent up to now is       37.0 secs

     End of self-consistent calculation

          k = 0.0000 0.0000 0.0000 (  5509 PWs)   bands (ev):

   -45.8125 -24.3406 -23.4943 -23.4715 -21.1503 -13.6700  -3.7492  -2.9378
    -2.9065  -1.7901  -0.2192  -0.1374   3.3818   5.2300   5.4170   5.5889
     6.4280   6.5086   7.6214   8.4396  10.8674  13.5081  14.2453  14.4738
    15.2832  16.8851

          k = 0.0000 0.0733 0.0000 (  5513 PWs)   bands (ev):

   -45.8095 -24.3299 -23.5096 -23.5004 -21.1405 -13.6471  -3.7119  -2.9491
    -2.9381  -1.7777  -0.2919  -0.2492   3.3904   5.2881   5.3684   5.6835
     6.4626   6.4764   7.7437   8.6392  10.9915  13.5821  14.1691  14.3472
    15.1153  16.8495

          k = 0.0000 0.1465 0.0000 (  5517 PWs)   bands (ev):

   -45.8010 -24.2999 -23.6141 -23.5180 -21.1161 -13.5809  -3.6126  -3.0568
    -2.9407  -1.7589  -0.6876  -0.3316   3.3907   5.2929   5.4663   5.8160
     6.5376   6.6064   8.0805   9.0925  11.3533  13.4688  13.7843  14.6509
    14.8243  16.7433

          k = 0.0000 0.2198 0.0000 (  5578 PWs)   bands (ev):

   -45.7882 -24.2572 -23.7585 -23.5440 -21.0891 -13.4789  -3.4929  -3.1814
    -2.9491  -1.7876  -1.1663  -0.4469   3.3357   5.3154   5.7689   5.8555
     6.7824   6.9074   8.5632   9.6077  11.8181  13.0042  13.5511  15.0036
    15.1457  16.5660

          k = 0.0000 0.2930 0.0000 (  5568 PWs)   bands (ev):

   -45.7731 -24.2183 -23.9048 -23.5746 -21.0692 -13.3536  -3.4627  -3.2235
    -2.9657  -2.0207  -1.4675  -0.5720   3.2248   5.4765   5.9542   6.1839
     6.9717   7.4197   9.0932  10.0967  11.8570  12.9420  13.5314  15.5047
    15.7635  16.3529

          k = 0.0000 0.3663 0.0000 (  5564 PWs)   bands (ev):

   -45.7579 -24.2270 -23.9920 -23.6049 -21.0602 -13.2226  -3.5577  -3.1671
    -2.9889  -2.4331  -1.5296  -0.6867   3.1100   5.7008   6.1804   6.6527
     7.1733   8.0019   9.5475  10.5035  11.7234  12.7523  14.2312  15.1799
    15.7830  16.1529

          k = 0.0000 0.4395 0.0000 (  5574 PWs)   bands (ev):

   -45.7450 -24.3011 -23.9913 -23.6304 -21.0601 -13.1063  -3.6622  -3.1459
    -3.0135  -2.7703  -1.5333  -0.7768   3.0324   5.9188   6.4507   7.0007
     7.4772   8.6422   9.8456  10.8276  11.8172  12.6726  13.8994  14.7801
    15.3317  15.6430

          k = 0.0000 0.5128 0.0000 (  5570 PWs)   bands (ev):

   -45.7363 -24.3692 -23.9685 -23.6473 -21.0636 -13.0257  -3.7410  -3.1969
    -3.0321  -2.9287  -1.5279  -0.8336   2.9963   6.1009   6.6145   7.1371
     7.8453   9.2952  10.0524  11.1094  11.8996  12.5722  13.1270  14.5089
    14.9017  14.9378

          k = 0.0000-0.5860 0.0000 (  5570 PWs)   bands (ev):

   -45.7333 -24.3945 -23.9585 -23.6533 -21.0654 -12.9969  -3.7717  -3.2369
    -3.0391  -2.9604  -1.5251  -0.8530   2.9871   6.1813   6.6507   7.1718
     8.0067   9.6657  10.1211  11.3878  11.6342  12.3302  13.1882  14.1613
    14.7207  14.7449

          k = 0.0625 0.0366 0.0000 (  5517 PWs)   bands (ev):

   -45.8097 -24.3303 -23.5274 -23.4809 -21.1406 -13.6481  -3.7128  -2.9736
    -2.9118  -1.7791  -0.3551  -0.1795   3.3864   5.2161   5.4519   5.6771
     6.4063   6.5443   7.7372   8.6302  10.9867  13.5793  14.0231  14.5280
    15.0940  16.9065

          k = 0.0625 0.1099 0.0000 (  5529 PWs)   bands (ev):

   -45.8039 -24.3100 -23.5869 -23.5046 -21.1236 -13.6035  -3.6441  -3.0321
    -2.9302  -1.7634  -0.5872  -0.2780   3.3904   5.2436   5.4810   5.7928
     6.4438   6.6103   7.9675   8.9535  11.2324  13.5830  13.7879  14.5587
    14.9149  16.7885

          k = 0.0625 0.1831 0.0000 (  5544 PWs)   bands (ev):

   -45.7933 -24.2734 -23.7047 -23.5329 -21.0981 -13.5193  -3.5301  -3.1423
    -2.9451  -1.7641  -0.9993  -0.4052   3.3659   5.2336   5.7032   5.8671
     6.6293   6.8219   8.3786   9.4265  11.6877  13.1147  13.6424  14.6772
    15.1615  16.5792

          k = 0.0625 0.2564 0.0000 (  5587 PWs)   bands (ev):

   -45.7794 -24.2310 -23.8463 -23.5663 -21.0751 -13.4054  -3.4374  -3.2349
    -2.9657  -1.8765  -1.3858  -0.5476   3.2907   5.3221   5.8814   6.1206
     6.8478   7.2333   8.8899   9.9242  12.0270  12.8865  13.3440  15.1069
    15.6787  16.3485

          k = 0.0625 0.3296 0.0000 (  5568 PWs)   bands (ev):

   -45.7642 -24.2106 -23.9633 -23.6013 -21.0612 -13.2767  -3.4899  -3.1986
    -2.9953  -2.2263  -1.5222  -0.6872   3.1908   5.5454   6.0067   6.5633
     7.0539   7.7826   9.3934  10.3847  11.8567  12.8398  13.7250  15.3619
    15.8510  16.1767

          k = 0.0625 0.4029 0.0000 (  5570 PWs)   bands (ev):

   -45.7501 -24.2577 -23.9965 -23.6333 -21.0571 -13.1523  -3.5945  -3.1479
    -3.0331  -2.5957  -1.5410  -0.8070   3.1109   5.8272   6.2139   6.9123
     7.3196   8.4340   9.7801  10.7588  11.8094  12.6935  14.3497  14.5822
    15.3311  16.1192

          k = 0.0625 0.4761 0.0000 (  5581 PWs)   bands (ev):

   -45.7393 -24.3333 -23.9769 -23.6576 -21.0591 -13.0530  -3.6827  -3.1882
    -3.0547  -2.8155  -1.5380  -0.8940   3.0692   6.0642   6.4539   7.0745
     7.6246   9.1654  10.0375  11.0521  11.9250  12.6836  13.4057  14.5463
    14.8454  15.5762

          k = 0.0625 0.5494 0.0000 (  5577 PWs)   bands (ev):

   -45.7335 -24.3800 -23.9588 -23.6708 -21.0620 -12.9977  -3.7352  -3.2661
    -3.0572  -2.8870  -1.5337  -0.9396   3.0558   6.2026   6.6030   7.1316
     7.8249   9.7960  10.2052  11.3155  11.8166  12.4154  13.1255  14.1695
    14.6782  14.9763

          k = 0.1250 0.0733 0.0000 (  5552 PWs)   bands (ev):

   -45.8017 -24.3016 -23.6273 -23.4983 -21.1166 -13.5847  -3.6154  -3.0755
    -2.9157  -1.7637  -0.7362  -0.2596   3.3743   5.1950   5.6006   5.7984
     6.5064   6.6665   8.0600   9.0720  11.3349  13.4227  13.7318  14.7818
    14.8208  16.8424

          k = 0.1250 0.1465 0.0000 (  5578 PWs)   bands (ev):

   -45.7938 -24.2747 -23.7109 -23.5220 -21.0984 -13.5221  -3.5320  -3.1508
    -2.9324  -1.7681  -1.0234  -0.3626   3.3516   5.2138   5.7486   5.8566
     6.6304   6.8356   8.3658   9.4162  11.6744  13.0922  13.6231  14.6843
    15.2046  16.6227

          k = 0.1250 0.2198 0.0000 (  5576 PWs)   bands (ev):

   -45.7820 -24.2375 -23.8243 -23.5597 -21.0774 -13.4259  -3.4275  -3.2413
    -2.9635  -1.8354  -1.3463  -0.5303   3.3135   5.2231   5.8993   6.1343
     6.7737   7.1861   8.8094   9.8612  12.1915  12.6950  13.3197  14.9075
    15.7162  16.3303

          k = 0.1250 0.2930 0.0000 (  5574 PWs)   bands (ev):

   -45.7680 -24.2077 -23.9343 -23.6051 -21.0612 -13.3079  -3.4198  -3.2402
    -3.0090  -2.0809  -1.5200  -0.7214   3.2684   5.3338   6.0066   6.5429
     6.9686   7.6917   9.3079  10.3362  12.2341  12.8393  13.1265  15.1405
    15.7502  16.6885

          k = 0.1250 0.3663 0.0000 (  5561 PWs)   bands (ev):

   -45.7540 -24.2235 -23.9899 -23.6507 -21.0530 -13.1846  -3.5106  -3.1633
    -3.0696  -2.4116  -1.5597  -0.9029   3.2348   5.5846   6.1355   6.8063
     7.2683   8.3563   9.7667  10.7887  12.0236  12.7236  13.7905  14.6709
    15.5248  16.1073

          k = 0.1250 0.4395 0.0000 (  5584 PWs)   bands (ev):

   -45.7420 -24.2864 -23.9814 -23.6895 -21.0518 -13.0755  -3.5939  -3.1960
    -3.0835  -2.6515  -1.5645  -1.0518   3.2252   5.9403   6.2517   6.9589
     7.5088   9.1671  10.1174  11.1522  12.0062  12.6762  13.8641  14.3050
    14.7726  15.9965

          k = 0.1250 0.5128 0.0000 (  5588 PWs)   bands (ev):

   -45.7340 -24.3417 -23.9594 -23.7157 -21.0537 -13.0001  -3.6492  -3.3064
    -3.0647  -2.7578  -1.5623  -1.1496   3.2323   6.2564   6.3698   7.0600
     7.5822   9.9922  10.3723  11.3791  12.0183  12.6623  13.0991  14.1544
    14.6287  15.5111

          k = 0.1250 0.5860 0.0000 (  5602 PWs)   bands (ev):

   -45.7312 -24.3623 -23.9500 -23.7249 -21.0548 -12.9731  -3.6688  -3.3557
    -3.0602  -2.7834  -1.5611  -1.1836   3.2378   6.3089   6.5169   7.0851
     7.5799  10.2906  10.6574  11.6039  11.7186  12.3935  13.1387  13.9997
    14.7481  14.9819

          k = 0.1250 0.0000 0.0000 (  5528 PWs)   bands (ev):

   -45.8045 -24.3112 -23.5960 -23.4907 -21.1238 -13.6063  -3.6462  -3.0464
    -2.9110  -1.7668  -0.6171  -0.2326   3.3816   5.1639   5.5877   5.7764
     6.4481   6.6322   7.9508   8.9364  11.2195  13.5501  13.7356  14.6636
    14.9283  16.8601

          k = 0.1875 0.1099 0.0000 (  5569 PWs)   bands (ev):

   -45.7897 -24.2608 -23.7673 -23.5222 -21.0894 -13.4870  -3.4973  -3.1955
    -2.9229  -1.7989  -1.1996  -0.3660   3.3036   5.2669   5.8221   5.8920
     6.8260   6.8927   8.5289   9.5842  11.7888  12.9614  13.5112  14.9636
    15.2850  16.6677

          k = 0.1875 0.1831 0.0000 (  5570 PWs)   bands (ev):

   -45.7806 -24.2344 -23.8528 -23.5482 -21.0753 -13.4127  -3.4406  -3.2445
    -2.9458  -1.8921  -1.4063  -0.4779   3.2590   5.3171   5.8806   6.1588
     6.8766   7.2244   8.8643   9.9107  12.0143  12.8404  13.3151  15.0831
    15.7553  16.3984

          k = 0.1875 0.2564 0.0000 (  5566 PWs)   bands (ev):

   -45.7688 -24.2098 -23.9371 -23.5953 -21.0611 -13.3123  -3.4221  -3.2431
    -2.9995  -2.0928  -1.5256  -0.6841   3.2499   5.3382   6.0057   6.5526
     6.9860   7.6851   9.2954  10.3327  12.2411  12.8174  13.0929  15.1271
    15.7593  16.6073

          k = 0.1875 0.3296 0.0000 (  5581 PWs)   bands (ev):

   -45.7559 -24.2128 -23.9849 -23.6553 -21.0510 -13.1993  -3.4683  -3.1786
    -3.0809  -2.3339  -1.5755  -0.9333   3.2875   5.4319   6.1889   6.7228
     7.2778   8.3326   9.7593  10.8051  12.3190  12.6905  13.3191  14.6038
    15.8705  15.9860

          k = 0.1875 0.4029 0.0000 (  5574 PWs)   bands (ev):

   -45.7440 -24.2527 -23.9821 -23.7159 -21.0461 -13.0905  -3.5277  -3.1944
    -3.1062  -2.5243  -1.6024  -1.1695   3.3585   5.6475   6.3460   6.7973
     7.5145   9.1674  10.1903  11.2632  12.2781  12.5962  13.8330  14.0532
    14.9645  15.7789

          k = 0.1875 0.4761 0.0000 (  5577 PWs)   bands (ev):

   -45.7348 -24.2977 -23.9601 -23.7650 -21.0452 -13.0042  -3.5785  -3.3025
    -3.0666  -2.6280  -1.6258  -1.3465   3.4343   5.9705   6.3903   6.9417
     7.5304  10.0819  10.5206  11.5805  12.1770  12.7132  13.4892  14.1070
    14.4588  15.6029

          k = 0.1875 0.5494 0.0000 (  5610 PWs)   bands (ev):

   -45.7299 -24.3241 -23.9440 -23.7927 -21.0457 -12.9563  -3.6099  -3.3702
    -3.0503  -2.6650  -1.6475  -1.4344   3.4830   6.2718   6.3874   7.0667
     7.3967  10.5241  11.1124  11.6901  12.0341  12.5706  13.1651  14.0729
    14.5996  15.3461

          k = 0.1875-0.0366 0.0000 (  5566 PWs)   bands (ev):

   -45.7946 -24.2764 -23.7110 -23.5156 -21.0983 -13.5264  -3.5343  -3.1548
    -2.9219  -1.7719  -1.0210  -0.3483   3.3461   5.1653   5.8132   5.8574
     6.6810   6.8024   8.3446   9.4016  11.6590  13.0831  13.6078  14.7075
    15.2432  16.6359

          k = 0.2500 0.1465 0.0000 (  5581 PWs)   bands (ev):

   -45.7755 -24.2239 -23.9097 -23.5499 -21.0689 -13.3672  -3.4677  -3.2333
    -2.9370  -2.0409  -1.4840  -0.4810   3.1825   5.4659   5.9284   6.2688
     7.0202   7.3930   9.0500  10.0765  11.8426  12.8931  13.4659  15.4442
    15.8770  16.3691

          k = 0.2500 0.2198 0.0000 (  5574 PWs)   bands (ev):

   -45.7664 -24.2159 -23.9683 -23.5779 -21.0608 -13.2895  -3.4952  -3.2046
    -2.9706  -2.2488  -1.5350  -0.5990   3.1480   5.5506   5.9989   6.6001
     7.0945   7.7613   9.3604  10.3758  11.8457  12.8024  13.6373  15.3001
    15.8560  16.1381

          k = 0.2500 0.2930 0.0000 (  5579 PWs)   bands (ev):

   -45.7557 -24.2273 -23.9938 -23.6335 -21.0524 -13.1946  -3.5148  -3.1624
    -3.0570  -2.4270  -1.5670  -0.8394   3.2032   5.5891   6.1344   6.8218
     7.2902   8.3446   9.7476  10.7917  12.0200  12.7065  13.7019  14.6324
    15.4370  16.1002

          k = 0.2500 0.3663 0.0000 (  5575 PWs)   bands (ev):

   -45.7449 -24.2542 -23.9843 -23.7073 -21.0456 -13.0961  -3.5292  -3.1848
    -3.1106  -2.5296  -1.6040  -1.1406   3.3439   5.6454   6.3494   6.8026
     7.5208   9.1622  10.1827  11.2719  12.2865  12.5905  13.7847  14.0061
    14.8912  15.8238

          k = 0.2500 0.4395 0.0000 (  5580 PWs)   bands (ev):

   -45.7357 -24.2774 -23.9614 -23.7834 -21.0412 -13.0096  -3.5584  -3.2810
    -3.0693  -2.5652  -1.6784  -1.4024   3.5256   5.7867   6.4666   6.8562
     7.5473  10.0918  10.5813  11.6473  12.4126  12.6420  13.6957  14.0655
    14.3055  15.2031

          k = 0.2500 0.5128 0.0000 (  5598 PWs)   bands (ev):

   -45.7296 -24.2887 -23.9419 -23.8421 -21.0390 -12.9501  -3.6096  -3.3089
    -3.0395  -2.5637  -1.8187  -1.5201   3.6782   6.0143   6.4315   7.0004
     7.4053  10.6502  11.1505  11.7131  12.5276  12.9386  13.3344  13.9400
    14.3787  14.9982

          k = 0.2500 0.5860 0.0000 (  5600 PWs)   bands (ev):

   -45.7275 -24.2913 -23.9343 -23.8647 -21.0384 -12.9289  -3.6355  -3.3081
    -3.0284  -2.5569  -1.8942  -1.5448   3.7374   6.1630   6.4058   7.0134
     7.3321  10.6626  11.6965  12.0874  12.1311  12.7473  13.3838  13.9086
    14.5300  15.2645

          k = 0.2500-0.0733 0.0000 (  5572 PWs)   bands (ev):

   -45.7815 -24.2359 -23.8480 -23.5468 -21.0746 -13.4178  -3.4415  -3.2436
    -2.9403  -1.8880  -1.3958  -0.4831   3.2625   5.2896   5.8866   6.1950
     6.8993   7.2035   8.8439   9.8994  12.0097  12.8484  13.3172  15.1037
    15.7331  16.3826

          k = 0.2500 0.0000 0.0000 (  5584 PWs)   bands (ev):

   -45.7837 -24.2409 -23.8205 -23.5507 -21.0767 -13.4354  -3.4308  -3.2438
    -2.9482  -1.8384  -1.3370  -0.5115   3.3057   5.1833   5.9162   6.1894
     6.8163   7.1569   8.7713   9.8404  12.1669  12.7036  13.3105  14.9148
    15.7306  16.3338

          k = 0.3125 0.1831 0.0000 (  5578 PWs)   bands (ev):

   -45.7612 -24.2316 -23.9965 -23.5773 -21.0588 -13.2419  -3.5629  -3.1716
    -2.9568  -2.4480  -1.5447  -0.5866   3.0639   5.7108   6.1562   6.7029
     7.2213   7.9667   9.5034  10.4920  11.7000  12.7080  14.1107  15.0536
    15.8914  16.0652

          k = 0.3125 0.2564 0.0000 (  5570 PWs)   bands (ev):

   -45.7533 -24.2616 -24.0025 -23.6060 -21.0556 -13.1709  -3.6010  -3.1466
    -3.0075  -2.6106  -1.5554  -0.7073   3.0637   5.8379   6.1980   6.9451
     7.3539   8.4073   9.7490  10.7597  11.7782  12.6501  14.1909  14.4899
    15.3671  16.0527

          k = 0.3125 0.3296 0.0000 (  5585 PWs)   bands (ev):

   -45.7446 -24.2888 -23.9872 -23.6674 -21.0501 -13.0914  -3.5990  -3.1775
    -3.0849  -2.6572  -1.5748  -0.9737   3.1884   5.9385   6.2496   6.9800
     7.5225   9.1507  10.0994  11.1704  11.9807  12.6465  13.7528  14.2076
    14.7318  15.9355

          k = 0.3125 0.4029 0.0000 (  5580 PWs)   bands (ev):

   -45.7366 -24.2983 -23.9645 -23.7508 -21.0435 -13.0156  -3.5788  -3.2934
    -3.0686  -2.6280  -1.6244  -1.3059   3.4141   5.9530   6.4012   6.9513
     7.5374  10.0615  10.5115  11.6148  12.1863  12.6890  13.3684  14.0718
    14.3766  15.6494

          k = 0.3125 0.4761 0.0000 (  5583 PWs)   bands (ev):

   -45.7305 -24.2879 -23.9443 -23.8362 -21.0380 -12.9559  -3.6066  -3.3068
    -3.0400  -2.5625  -1.8031  -1.5188   3.6733   5.9972   6.4386   7.0049
     7.4101  10.6248  11.1494  11.7337  12.5716  12.8959  13.2397  13.9745
    14.3402  15.0212

          k = 0.3125 0.5494 0.0000 (  5590 PWs)   bands (ev):

   -45.7272 -24.2712 -23.9327 -23.8945 -21.0348 -12.9231  -3.6533  -3.2598
    -3.0136  -2.4822  -2.0447  -1.5687   3.8558   6.0808   6.4132   6.9296
     7.3836  10.6628  11.6917  12.0836  12.8790  13.0180  13.1427  13.6032
    14.5545  15.2403

          k = 0.3125-0.1099 0.0000 (  5584 PWs)   bands (ev):

   -45.7673 -24.2150 -23.9639 -23.5792 -21.0596 -13.2948  -3.4922  -3.2045
    -2.9673  -2.2313  -1.5327  -0.6138   3.1588   5.5429   6.0056   6.6061
     7.0975   7.7489   9.3425  10.3652  11.8531  12.8065  13.6626  15.3067
    15.8221  16.1395

          k = 0.3125-0.0366 0.0000 (  5590 PWs)   bands (ev):

   -45.7706 -24.2108 -23.9290 -23.5938 -21.0594 -13.3229  -3.4187  -3.2438
    -2.9901  -2.0705  -1.5191  -0.6956   3.2596   5.3150   6.0259   6.5743
     6.9970   7.6632   9.2594  10.3144  12.2559  12.8243  13.1064  15.1159
    15.6994  16.6198

          k = 0.3750 0.2198 0.0000 (  5571 PWs)   bands (ev):

   -45.7491 -24.3014 -23.9993 -23.6004 -21.0574 -13.1310  -3.6686  -3.1421
    -2.9778  -2.7782  -1.5513  -0.6698   2.9849   5.9329   6.4374   7.0340
     7.5036   8.5989   9.8077  10.8177  11.7688  12.6129  13.7585  14.6693
    15.4437  15.5357

          k = 0.3750 0.2930 0.0000 (  5581 PWs)   bands (ev):

   -45.7433 -24.3337 -23.9855 -23.6281 -21.0563 -13.0768  -3.6909  -3.1722
    -3.0392  -2.8154  -1.5555  -0.7889   3.0217   6.0790   6.4334   7.1119
     7.6306   9.1356  10.0128  11.0492  11.8661  12.6150  13.2900  14.4706
    14.8210  15.5490

          k = 0.3750 0.3663 0.0000 (  5592 PWs)   bands (ev):

   -45.7374 -24.3411 -23.9673 -23.6913 -21.0507 -13.0211  -3.6548  -3.2877
    -3.0628  -2.7497  -1.5755  -1.0676   3.1967   6.2707   6.3444   7.0893
     7.5805   9.9553  10.3686  11.3977  11.9574  12.5835  13.0316  14.1134
    14.5411  15.4737

          k = 0.3750 0.4395 0.0000 (  5582 PWs)   bands (ev):

   -45.7325 -24.3214 -23.9503 -23.7766 -21.0428 -12.9727  -3.6070  -3.3599
    -3.0498  -2.6553  -1.6386  -1.4011   3.4660   6.2346   6.4049   7.0888
     7.3960  10.4672  11.1176  11.7419  11.9680  12.5265  13.1084  14.0064
    14.5591  15.2982

          k = 0.3750 0.5128 0.0000 (  5587 PWs)   bands (ev):

   -45.7292 -24.2864 -23.9385 -23.8580 -21.0361 -12.9398  -3.6294  -3.3016
    -3.0275  -2.5458  -1.8734  -1.5517   3.7386   6.1367   6.4083   7.0192
     7.3407  10.6101  11.7323  12.0063  12.0938  12.8212  13.3342  13.8934
    14.5285  15.2205

          k = 0.3750 0.5860 0.0000 (  5590 PWs)   bands (ev):

   -45.7280 -24.2666 -23.9342 -23.8946 -21.0336 -12.9281  -3.6504  -3.2545
    -3.0121  -2.4678  -2.0472  -1.5746   3.8632   6.0771   6.4044   6.9270
     7.3888  10.6341  11.7077  11.9696  12.9561  12.9766  13.2808  13.5185
    14.5321  15.2114

          k = 0.3750-0.1465 0.0000 (  5575 PWs)   bands (ev):

   -45.7540 -24.2569 -24.0019 -23.6084 -21.0542 -13.1756  -3.5965  -3.1471
    -3.0054  -2.5914  -1.5558  -0.7239   3.0767   5.8426   6.2100   6.9365
     7.3444   8.3889   9.7307  10.7479  11.7853  12.6511  14.2139  14.5252
    15.3178  16.0827

          k = 0.3750-0.0733 0.0000 (  5593 PWs)   bands (ev):

   -45.7574 -24.2209 -23.9903 -23.6363 -21.0499 -13.2048  -3.5074  -3.1637
    -3.0491  -2.3919  -1.5668  -0.8659   3.2240   5.5832   6.1485   6.8332
     7.2699   8.3168   9.7122  10.7712  12.0401  12.7113  13.7480  14.6128
    15.4511  16.0591

          k = 0.3750 0.0000 0.0000 (  5588 PWs)   bands (ev):

   -45.7585 -24.2080 -23.9806 -23.6526 -21.0479 -13.2149  -3.4609  -3.1798
    -3.0672  -2.2974  -1.5762  -0.9434   3.3006   5.4191   6.2090   6.7437
     7.2633   8.2988   9.7102  10.7826  12.3609  12.7034  13.3055  14.5681
    15.8164  15.9541

          k = 0.4375 0.2564 0.0000 (  5577 PWs)   bands (ev):

   -45.7410 -24.3669 -23.9788 -23.6157 -21.0598 -13.0541  -3.7497  -3.1834
    -2.9939  -2.9337  -1.5483  -0.7223   2.9478   6.1116   6.6175   7.1750
     7.8316   9.2447  10.0201  11.0831  11.8209  12.4664  13.0566  14.4120
    14.8122  15.0586

          k = 0.4375 0.3296 0.0000 (  5565 PWs)   bands (ev):

   -45.7379 -24.3776 -23.9689 -23.6405 -21.0581 -13.0251  -3.7441  -3.2455
    -3.0435  -2.8748  -1.5532  -0.8347   3.0104   6.2133   6.5990   7.1705
     7.8019   9.7484  10.1946  11.2861  11.7136  12.3246  13.0780  14.1071
    14.6030  15.0277

          k = 0.4375 0.4029 0.0000 (  5585 PWs)   bands (ev):

   -45.7351 -24.3582 -23.9591 -23.7009 -21.0508 -12.9976  -3.6728  -3.3346
    -3.0559  -2.7660  -1.5753  -1.1070   3.2076   6.3134   6.5116   7.1183
     7.5583  10.2126  10.6685  11.5854  11.6356  12.3351  13.0972  13.9362
    14.6807  14.9885

          k = 0.4375 0.4761 0.0000 (  5581 PWs)   bands (ev):

   -45.7330 -24.3169 -23.9512 -23.7786 -21.0417 -12.9761  -3.6051  -3.3540
    -3.0485  -2.6449  -1.6384  -1.4134   3.4748   6.2561   6.3886   7.1047
     7.3696  10.4454  11.0280  11.7282  12.0412  12.5354  13.1048  14.0238
    14.5718  15.3209

          k = 0.4375 0.5494 0.0000 (  5578 PWs)   bands (ev):

   -45.7318 -24.2781 -23.9463 -23.8391 -21.0357 -12.9643  -3.6029  -3.2938
    -3.0373  -2.5359  -1.8103  -1.5347   3.6906   6.0067   6.4153   7.0295
     7.3822  10.5849  11.0276  11.7542  12.5327  12.9765  13.2949  13.9515
    14.3407  15.0371

          k = 0.4375-0.1831 0.0000 (  5572 PWs)   bands (ev):

   -45.7438 -24.3294 -23.9861 -23.6301 -21.0553 -13.0801  -3.6868  -3.1725
    -3.0380  -2.8023  -1.5562  -0.8016   3.0318   6.0775   6.4610   7.1027
     7.6179   9.1029   9.9920  11.0405  11.8748  12.6098  13.3047  14.5142
    14.7928  15.5718

          k = 0.4375-0.1099 0.0000 (  5590 PWs)   bands (ev):

   -45.7459 -24.2793 -23.9880 -23.6714 -21.0477 -13.0995  -3.5914  -3.1751
    -3.0797  -2.6285  -1.5757  -1.0009   3.2096   5.9503   6.2547   6.9945
     7.4860   9.1052  10.0567  11.1485  11.9987  12.6389  13.7823  14.2569
    14.7392  15.9564

          k = 0.4375-0.0366 0.0000 (  5575 PWs)   bands (ev):

   -45.7471 -24.2418 -23.9848 -23.7103 -21.0421 -13.1097  -3.5204  -3.1745
    -3.1066  -2.4867  -1.6055  -1.1704   3.3689   5.6431   6.3478   6.8378
     7.4783   9.1107  10.1238  11.2454  12.3188  12.5929  13.8048  14.0180
    14.9279  15.7754

          k =-0.5000-0.2930 0.0000 (  5572 PWs)   bands (ev):

   -45.7381 -24.3914 -23.9694 -23.6211 -21.0613 -13.0266  -3.7814  -3.2199
    -3.0002  -2.9637  -1.5463  -0.7403   2.9382   6.1885   6.6631   7.2121
     7.9752   9.6056  10.1053  11.3494  11.5171  12.2415  13.1276  14.0856
    14.6116  14.8875

          k =-0.5000-0.2198 0.0000 (  5585 PWs)   bands (ev):

   -45.7381 -24.3759 -23.9692 -23.6413 -21.0577 -13.0263  -3.7423  -3.2453
    -3.0431  -2.8707  -1.5535  -0.8394   3.0141   6.2094   6.6173   7.1644
     7.7982   9.7205  10.1869  11.2781  11.7356  12.3232  13.0707  14.1179
    14.6321  15.0110

          k =-0.5000-0.1465 0.0000 (  5588 PWs)   bands (ev):

   -45.7381 -24.3350 -23.9684 -23.6941 -21.0492 -13.0256  -3.6497  -3.2836
    -3.0608  -2.7355  -1.5758  -1.0845   3.2095   6.2611   6.3773   7.0949
     7.5519   9.9042  10.3222  11.3828  11.9931  12.5817  13.0400  14.1399
    14.5717  15.4846

          k =-0.5000-0.0733 0.0000 (  5587 PWs)   bands (ev):

   -45.7381 -24.2867 -23.9663 -23.7551 -21.0409 -13.0250  -3.5728  -3.2808
    -3.0656  -2.5977  -1.6247  -1.3356   3.4366   5.9690   6.3822   6.9901
     7.4882  10.0043  10.4307  11.5932  12.2014  12.6947  13.4221  14.0927
    14.4202  15.6517

          k =-0.5000 0.0000 0.0000 (  5570 PWs)   bands (ev):

   -45.7381 -24.2635 -23.9647 -23.7843 -21.0374 -13.0247  -3.5516  -3.2618
    -3.0672  -2.5252  -1.6786  -1.4267   3.5474   5.7851   6.4420   6.9117
     7.4993  10.0258  10.4845  11.6447  12.3787  12.7154  13.7043  14.0545
    14.3228  15.2162

     highest occupied, lowest unoccupied level (ev):     3.8632    5.1639

!    total energy              =    -446.24462564 Ry
     total all-electron energy =     -8320.714905 Ry
     estimated scf accuracy    <          2.6E-12 Ry

     The total energy is the sum of the following terms:
     one-electron contribution =    -301.48453239 Ry
     hartree contribution      =     158.78000472 Ry
     xc contribution           =     -38.49250788 Ry
     ewald contribution        =       1.57625023 Ry
     one-center paw contrib.   =    -266.62384032 Ry

     convergence has been achieved in   7 iterations

     negative rho (up, down):  8.613E-05 0.000E+00

     Forces acting on atoms (cartesian axes, Ry/au):

     atom    1 type  1   force =     0.00000000   -0.00044046    0.00001085
     atom    2 type  2   force =     0.00000000   -0.00006980   -0.00165972
     atom    3 type  3   force =     0.00000000    0.00051026    0.00164887
     The non-local contrib.  to forces
     atom    1 type  1   force =     0.00000000   -0.00341795   -0.02205520
     atom    2 type  2   force =     0.00000000   -0.02077304   -1.07716776
     atom    3 type  3   force =     0.00000000   -0.00075739    0.22376493
     The ionic contribution  to forces
     atom    1 type  1   force =    -0.00000001   -0.17058734   -0.29852514
     atom    2 type  2   force =     0.00000001    0.11424482   26.26504962
     atom    3 type  3   force =     0.00000000    0.05634253  -25.96652448
     The local contribution  to forces
     atom    1 type  1   force =    -0.00000000    0.17346654    0.31677122
     atom    2 type  2   force =     0.00000032   -0.09357779  -25.19311520
     atom    3 type  3   force =     0.00000004   -0.05501601   25.75194525
     The core correction contribution to forces
     atom    1 type  1   force =     0.00000083    0.00012426    0.00373828
     atom    2 type  2   force =     0.00000042    0.00006270    0.00349228
     atom    3 type  3   force =     0.00006630   -0.00003258   -0.00761959
     The Hubbard contrib.    to forces
     atom    1 type  1   force =     0.00000000    0.00000000    0.00000000
     atom    2 type  2   force =     0.00000000    0.00000000    0.00000000
     atom    3 type  3   force =     0.00000000    0.00000000    0.00000000
     The SCF correction term to forces
     atom    1 type  1   force =     0.00000000    0.00000036   -0.00000097
     atom    2 type  2   force =    -0.00000000   -0.00000017   -0.00000132
     atom    3 type  3   force =    -0.00000000    0.00000004    0.00000009

     Total force =     0.002436     Total SCF correction =     0.000002
     Energy error            =      1.3E-05 Ry
     Gradient error          =      1.7E-03 Ry/Bohr

     number of scf cycles    =   3
     number of bfgs steps    =   2

     energy             old  =    -446.2446128440 Ry
     energy             new  =    -446.2446256382 Ry

     CASE: energy            _new < energy            _old

     new trust radius        =       0.0047387592 bohr
     new conv_thr            =       0.0000000001 Ry


ATOMIC_POSITIONS (angstrom)
Zr            0.0000000000       -0.0015517939        9.5703840139
F            -0.0000000020        1.8813957105       10.8978610457
Cl           -0.0000000020        1.8831767919        7.8179298489



     Writing config-only to output data dir ./tmp/ZrFCl.save/
     NEW-OLD atomic charge density approx. for the potential

     Check: negative core charge=   -0.000005

     negative rho (up, down):  8.656E-05 0.000E+00

     total cpu time spent up to now is       37.5 secs

     Self-consistent Calculation

     iteration #  1     ecut=    65.00 Ry     beta= 0.70
     Davidson diagonalization with overlap
     ethr =  1.00E-06,  avg # of iterations =  3.0

     Threshold (ethr) on eigenvalues was too large:
     Diagonalizing with lowered threshold

     Davidson diagonalization with overlap
     ethr =  1.31E-08,  avg # of iterations =  2.7

     negative rho (up, down):  8.692E-05 0.000E+00

     total cpu time spent up to now is       40.7 secs

     total energy              =    -446.24463602 Ry
     estimated scf accuracy    <       0.00000366 Ry

     iteration #  2     ecut=    65.00 Ry     beta= 0.70
     Davidson diagonalization with overlap
     ethr =  1.41E-08,  avg # of iterations =  2.0

     negative rho (up, down):  8.663E-05 0.000E+00

     total cpu time spent up to now is       42.1 secs

     total energy              =    -446.24463616 Ry
     estimated scf accuracy    <       0.00000617 Ry

     iteration #  3     ecut=    65.00 Ry     beta= 0.70
     Davidson diagonalization with overlap
     ethr =  1.41E-08,  avg # of iterations =  1.9

     negative rho (up, down):  8.653E-05 0.000E+00

     total cpu time spent up to now is       43.4 secs

     total energy              =    -446.24463755 Ry
     estimated scf accuracy    <       0.00000034 Ry

     iteration #  4     ecut=    65.00 Ry     beta= 0.70
     Davidson diagonalization with overlap
     ethr =  1.32E-09,  avg # of iterations =  2.0

     negative rho (up, down):  8.651E-05 0.000E+00

     total cpu time spent up to now is       44.7 secs

     total energy              =    -446.24463762 Ry
     estimated scf accuracy    <       0.00000003 Ry

     iteration #  5     ecut=    65.00 Ry     beta= 0.70
     Davidson diagonalization with overlap
     ethr =  1.33E-10,  avg # of iterations =  2.0

     negative rho (up, down):  8.650E-05 0.000E+00

     total cpu time spent up to now is       46.0 secs

     total energy              =    -446.24463763 Ry
     estimated scf accuracy    <          7.2E-09 Ry

     iteration #  6     ecut=    65.00 Ry     beta= 0.70
     Davidson diagonalization with overlap
     ethr =  2.77E-11,  avg # of iterations =  2.0

     negative rho (up, down):  8.650E-05 0.000E+00

     total cpu time spent up to now is       47.4 secs

     total energy              =    -446.24463763 Ry
     estimated scf accuracy    <          3.8E-10 Ry

     iteration #  7     ecut=    65.00 Ry     beta= 0.70
     Davidson diagonalization with overlap
     ethr =  1.45E-12,  avg # of iterations =  2.0

     negative rho (up, down):  8.650E-05 0.000E+00

     total cpu time spent up to now is       48.7 secs

     End of self-consistent calculation

          k = 0.0000 0.0000 0.0000 (  5509 PWs)   bands (ev):

   -45.8037 -24.3357 -23.4864 -23.4634 -21.1537 -13.6699  -3.7546  -2.9469
    -2.9149  -1.7877  -0.2249  -0.1410   3.3961   5.2402   5.4294   5.5903
     6.4357   6.5121   7.6189   8.4385  10.8670  13.5011  14.2504  14.4787
    15.3038  16.8909

          k = 0.0000 0.0733 0.0000 (  5513 PWs)   bands (ev):

   -45.8008 -24.3250 -23.5018 -23.4926 -21.1437 -13.6470  -3.7174  -2.9572
    -2.9471  -1.7754  -0.2952  -0.2548   3.4043   5.2982   5.3807   5.6850
     6.4661   6.4843   7.7417   8.6378  10.9916  13.5758  14.1744  14.3520
    15.1336  16.8554

          k = 0.0000 0.1465 0.0000 (  5517 PWs)   bands (ev):

   -45.7922 -24.2949 -23.6066 -23.5101 -21.1191 -13.5809  -3.6184  -3.0644
    -2.9495  -1.7567  -0.6902  -0.3370   3.4033   5.3055   5.4760   5.8183
     6.5406   6.6150   8.0797   9.0903  11.3545  13.4730  13.7831  14.6552
    14.8360  16.7492

          k = 0.0000 0.2198 0.0000 (  5578 PWs)   bands (ev):

   -45.7795 -24.2521 -23.7515 -23.5362 -21.0917 -13.4790  -3.4992  -3.1883
    -2.9578  -1.7862  -1.1674  -0.4521   3.3465   5.3280   5.7780   5.8596
     6.7920   6.9097   8.5643   9.6051  11.8214  13.0085  13.5555  15.0060
    15.1490  16.5723

          k = 0.0000 0.2930 0.0000 (  5568 PWs)   bands (ev):

   -45.7643 -24.2135 -23.8979 -23.5668 -21.0716 -13.3540  -3.4699  -3.2290
    -2.9741  -2.0216  -1.4655  -0.5769   3.2345   5.4872   5.9611   6.1923
     6.9824   7.4221   9.0968  10.0945  11.8610  12.9489  13.5328  15.5050
    15.7649  16.3602

          k = 0.0000 0.3663 0.0000 (  5564 PWs)   bands (ev):

   -45.7491 -24.2227 -23.9847 -23.5971 -21.0626 -13.2232  -3.5645  -3.1724
    -2.9972  -2.4346  -1.5265  -0.6912   3.1193   5.7086   6.1894   6.6606
     7.1848   8.0058   9.5537  10.5017  11.7254  12.7597  14.2311  15.1802
    15.7874  16.1541

          k = 0.0000 0.4395 0.0000 (  5574 PWs)   bands (ev):

   -45.7362 -24.2970 -23.9839 -23.6227 -21.0625 -13.1071  -3.6684  -3.1506
    -3.0216  -2.7722  -1.5302  -0.7810   3.0417   5.9258   6.4593   7.0102
     7.4874   8.6496   9.8513  10.8265  11.8201  12.6779  13.8979  14.7804
    15.3372  15.6494

          k = 0.0000 0.5128 0.0000 (  5570 PWs)   bands (ev):

   -45.7275 -24.3652 -23.9611 -23.6396 -21.0660 -13.0267  -3.7465  -3.2001
    -3.0401  -2.9321  -1.5248  -0.8376   3.0059   6.1086   6.6215   7.1483
     7.8537   9.3068  10.0544  11.1112  11.9037  12.5729  13.1266  14.5106
    14.9077  14.9423

          k = 0.0000-0.5860 0.0000 (  5570 PWs)   bands (ev):

   -45.7245 -24.3905 -23.9509 -23.6456 -21.0679 -12.9979  -3.7768  -3.2395
    -3.0470  -2.9644  -1.5220  -0.8569   2.9968   6.1896   6.6570   7.1835
     8.0146   9.6787  10.1232  11.3938  11.6306  12.3332  13.1865  14.1670
    14.7269  14.7460

          k = 0.0625 0.0366 0.0000 (  5517 PWs)   bands (ev):

   -45.8009 -24.3254 -23.5197 -23.4729 -21.1439 -13.6480  -3.7182  -2.9824
    -2.9201  -1.7768  -0.3601  -0.1833   3.4000   5.2267   5.4639   5.6788
     6.4131   6.5485   7.7352   8.6290  10.9867  13.5730  14.0288  14.5328
    15.1111  16.9129

          k = 0.0625 0.1099 0.0000 (  5529 PWs)   bands (ev):

   -45.7952 -24.3050 -23.5794 -23.4967 -21.1266 -13.6035  -3.6497  -3.0402
    -2.9387  -1.7612  -0.5906  -0.2828   3.4031   5.2553   5.4917   5.7950
     6.4484   6.6169   7.9663   8.9517  11.2332  13.5844  13.7882  14.5640
    14.9272  16.7945

          k = 0.0625 0.1831 0.0000 (  5544 PWs)   bands (ev):

   -45.7845 -24.2683 -23.6976 -23.5251 -21.1008 -13.5194  -3.5361  -3.1497
    -2.9537  -1.7623  -1.0012  -0.4102   3.3771   5.2463   5.7125   5.8708
     6.6355   6.8272   8.3790   9.4240  11.6898  13.1203  13.6453  14.6801
    15.1663  16.5853

          k = 0.0625 0.2564 0.0000 (  5587 PWs)   bands (ev):

   -45.7706 -24.2260 -23.8394 -23.5585 -21.0776 -13.4057  -3.4442  -3.2411
    -2.9740  -1.8766  -1.3851  -0.5523   3.3004   5.3347   5.8864   6.1292
     6.8575   7.2361   8.8925   9.9215  12.0313  12.8909  13.3489  15.1063
    15.6811  16.3551

          k = 0.0625 0.3296 0.0000 (  5568 PWs)   bands (ev):

   -45.7554 -24.2061 -23.9562 -23.5936 -21.0635 -13.2772  -3.4969  -3.2041
    -3.0035  -2.2278  -1.5195  -0.6915   3.1998   5.5561   6.0135   6.5713
     7.0652   7.7856   9.3987  10.3826  11.8595  12.8474  13.7262  15.3637
    15.8527  16.1770

          k = 0.0625 0.4029 0.0000 (  5570 PWs)   bands (ev):

   -45.7413 -24.2536 -23.9890 -23.6256 -21.0594 -13.1530  -3.6010  -3.1532
    -3.0409  -2.5974  -1.5380  -0.8110   3.1198   5.8352   6.2226   6.9212
     7.3303   8.4390   9.7870  10.7570  11.8115  12.6998  14.3494  14.5840
    15.3349  16.1231

          k = 0.0625 0.4761 0.0000 (  5581 PWs)   bands (ev):

   -45.7305 -24.3293 -23.9695 -23.6500 -21.0615 -13.0539  -3.6885  -3.1929
    -3.0616  -2.8184  -1.5351  -0.8977   3.0784   6.0715   6.4621   7.0852
     7.6343   9.1735  10.0419  11.0522  11.9290  12.6870  13.4043  14.5492
    14.8487  15.5824

          k = 0.0625 0.5494 0.0000 (  5577 PWs)   bands (ev):

   -45.7246 -24.3760 -23.9512 -23.6631 -21.0644 -12.9987  -3.7404  -3.2699
    -3.0637  -2.8911  -1.5309  -0.9431   3.0651   6.2108   6.6093   7.1431
     7.8346   9.8068  10.2075  11.3182  11.8181  12.4172  13.1249  14.1735
    14.6814  14.9809

          k = 0.1250 0.0733 0.0000 (  5552 PWs)   bands (ev):

   -45.7929 -24.2966 -23.6201 -23.4903 -21.1195 -13.5847  -3.6210  -3.0837
    -2.9239  -1.7618  -0.7398  -0.2635   3.3860   5.2070   5.6114   5.8017
     6.5112   6.6720   8.0594   9.0706  11.3359  13.4276  13.7306  14.7885
    14.8275  16.8481

          k = 0.1250 0.1465 0.0000 (  5578 PWs)   bands (ev):

   -45.7851 -24.2697 -23.7039 -23.5141 -21.1011 -13.5223  -3.5378  -3.1584
    -2.9406  -1.7666  -1.0256  -0.3669   3.3621   5.2266   5.7583   5.8608
     6.6357   6.8411   8.3663   9.4141  11.6764  13.0980  13.6258  14.6868
    15.2088  16.6288

          k = 0.1250 0.2198 0.0000 (  5576 PWs)   bands (ev):

   -45.7732 -24.2325 -23.8175 -23.5519 -21.0799 -13.4262  -3.4339  -3.2481
    -2.9715  -1.8354  -1.3461  -0.5345   3.3227   5.2364   5.9043   6.1428
     6.7826   7.1894   8.8117   9.8586  12.1947  12.7003  13.3251  14.9063
    15.7189  16.3366

          k = 0.1250 0.2930 0.0000 (  5574 PWs)   bands (ev):

   -45.7592 -24.2030 -23.9273 -23.5974 -21.0635 -13.3084  -3.4269  -3.2460
    -3.0169  -2.0824  -1.5177  -0.7251   3.2765   5.3469   6.0119   6.5508
     6.9798   7.6943   9.3127  10.3336  12.2376  12.8467  13.1289  15.1414
    15.7515  16.6907

          k = 0.1250 0.3663 0.0000 (  5561 PWs)   bands (ev):

   -45.7451 -24.2193 -23.9826 -23.6431 -21.0553 -13.1853  -3.5172  -3.1691
    -3.0771  -2.4131  -1.5572  -0.9060   3.2426   5.5964   6.1419   6.8155
     7.2786   8.3597   9.7739  10.7864  12.0256  12.7298  13.7932  14.6754
    15.5252  16.1073

          k = 0.1250 0.4395 0.0000 (  5584 PWs)   bands (ev):

   -45.7332 -24.2824 -23.9739 -23.6820 -21.0540 -13.0764  -3.5999  -3.2024
    -3.0895  -2.6535  -1.5621  -1.0544   3.2332   5.9496   6.2598   6.9694
     7.5187   9.1714  10.1247  11.1508  12.0092  12.6804  13.8656  14.3077
    14.7749  16.0008

          k = 0.1250 0.5128 0.0000 (  5588 PWs)   bands (ev):

   -45.7252 -24.3378 -23.9519 -23.7082 -21.0560 -13.0011  -3.6548  -3.3119
    -3.0704  -2.7608  -1.5601  -1.1518   3.2407   6.2639   6.3780   7.0710
     7.5936   9.9980  10.3771  11.3798  12.0237  12.6634  13.0989  14.1577
    14.6307  15.5165

          k = 0.1250 0.5860 0.0000 (  5602 PWs)   bands (ev):

   -45.7224 -24.3584 -23.9424 -23.7174 -21.0571 -12.9742  -3.6741  -3.3608
    -3.0658  -2.7868  -1.5590  -1.1857   3.2464   6.3179   6.5223   7.0964
     7.5923  10.2954  10.6646  11.6090  11.7151  12.3977  13.1384  14.0022
    14.7520  14.9852

          k = 0.1250 0.0000 0.0000 (  5528 PWs)   bands (ev):

   -45.7957 -24.3062 -23.5887 -23.4827 -21.1268 -13.6063  -3.6517  -3.0549
    -2.9191  -1.7648  -0.6215  -0.2361   3.3936   5.1755   5.5991   5.7791
     6.4540   6.6365   7.9497   8.9352  11.2200  13.5531  13.7350  14.6699
    14.9377  16.8651

          k = 0.1875 0.1099 0.0000 (  5569 PWs)   bands (ev):

   -45.7809 -24.2557 -23.7606 -23.5142 -21.0920 -13.4872  -3.5033  -3.2029
    -2.9309  -1.7984  -1.2007  -0.3698   3.3129   5.2799   5.8274   5.9017
     6.8331   6.8960   8.5303   9.5826  11.7916  12.9660  13.5147  14.9643
    15.2883  16.6731

          k = 0.1875 0.1831 0.0000 (  5570 PWs)   bands (ev):

   -45.7718 -24.2294 -23.8461 -23.5403 -21.0777 -13.4130  -3.4471  -3.2510
    -2.9537  -1.8931  -1.4051  -0.4817   3.2675   5.3301   5.8864   6.1678
     6.8852   7.2274   8.8672   9.9088  12.0185  12.8443  13.3193  15.0826
    15.7572  16.4046

          k = 0.1875 0.2564 0.0000 (  5566 PWs)   bands (ev):

   -45.7600 -24.2051 -23.9303 -23.5876 -21.0634 -13.3128  -3.4292  -3.2488
    -3.0072  -2.0946  -1.5231  -0.6875   3.2574   5.3516   6.0116   6.5604
     6.9968   7.6877   9.3004  10.3304  12.2453  12.8230  13.0955  15.1285
    15.7606  16.6096

          k = 0.1875 0.3296 0.0000 (  5581 PWs)   bands (ev):

   -45.7471 -24.2086 -23.9776 -23.6477 -21.0532 -13.2000  -3.4750  -3.1845
    -3.0882  -2.3354  -1.5732  -0.9359   3.2942   5.4451   6.1953   6.7319
     7.2879   8.3353   9.7668  10.8025  12.3214  12.6956  13.3226  14.6092
    15.8702  15.9862

          k = 0.1875 0.4029 0.0000 (  5574 PWs)   bands (ev):

   -45.7351 -24.2487 -23.9746 -23.7084 -21.0483 -13.0914  -3.5341  -3.2013
    -3.1119  -2.5258  -1.6008  -1.1710   3.3650   5.6594   6.3536   6.8076
     7.5243   9.1698  10.1992  11.2608  12.2801  12.6000  13.8375  14.0587
    14.9640  15.7789

          k = 0.1875 0.4761 0.0000 (  5577 PWs)   bands (ev):

   -45.7260 -24.2938 -23.9525 -23.7576 -21.0474 -13.0052  -3.5847  -3.3085
    -3.0721  -2.6299  -1.6252  -1.3466   3.4412   5.9798   6.3997   6.9521
     7.5417  10.0833  10.5288  11.5795  12.1819  12.7162  13.4905  14.1089
    14.4614  15.6023

          k = 0.1875 0.5494 0.0000 (  5610 PWs)   bands (ev):

   -45.7210 -24.3203 -23.9364 -23.7854 -21.0479 -12.9573  -3.6161  -3.3755
    -3.0557  -2.6675  -1.6479  -1.4333   3.4902   6.2775   6.3979   7.0772
     7.4105  10.5284  11.1170  11.6906  12.0385  12.5722  13.1662  14.0745
    14.6024  15.3481

          k = 0.1875-0.0366 0.0000 (  5566 PWs)   bands (ev):

   -45.7858 -24.2714 -23.7041 -23.5076 -21.1010 -13.5265  -3.5400  -3.1627
    -2.9298  -1.7707  -1.0236  -0.3517   3.3558   5.1782   5.8206   5.8650
     6.6854   6.8076   8.3453   9.4001  11.6605  13.0892  13.6101  14.7087
    15.2479  16.6408

          k = 0.2500 0.1465 0.0000 (  5581 PWs)   bands (ev):

   -45.7667 -24.2190 -23.9030 -23.5420 -21.0712 -13.3677  -3.4746  -3.2390
    -2.9446  -2.0429  -1.4816  -0.4846   3.1902   5.4777   5.9359   6.2777
     7.0291   7.3959   9.0540  10.0755  11.8464  12.8979  13.4673  15.4437
    15.8786  16.3717

          k = 0.2500 0.2198 0.0000 (  5574 PWs)   bands (ev):

   -45.7576 -24.2114 -23.9614 -23.5701 -21.0630 -13.2900  -3.5022  -3.2101
    -2.9782  -2.2508  -1.5321  -0.6024   3.1552   5.5621   6.0066   6.6085
     7.1047   7.7643   9.3661  10.3747  11.8487  12.8077  13.6385  15.3023
    15.8564  16.1382

          k = 0.2500 0.2930 0.0000 (  5579 PWs)   bands (ev):

   -45.7468 -24.2232 -23.9865 -23.6258 -21.0545 -13.1953  -3.5216  -3.1679
    -3.0644  -2.4285  -1.5644  -0.8422   3.2097   5.6014   6.1421   6.8305
     7.3004   8.3478   9.7552  10.7898  12.0225  12.7107  13.7042  14.6368
    15.4368  16.1007

          k = 0.2500 0.3663 0.0000 (  5575 PWs)   bands (ev):

   -45.7360 -24.2504 -23.9768 -23.6998 -21.0477 -13.0970  -3.5356  -3.1916
    -3.1162  -2.5310  -1.6021  -1.1421   3.3497   5.6575   6.3581   6.8121
     7.5308   9.1645  10.1920  11.2694  12.2895  12.5924  13.7883  14.0121
    14.8905  15.8247

          k = 0.2500 0.4395 0.0000 (  5580 PWs)   bands (ev):

   -45.7269 -24.2737 -23.9538 -23.7760 -21.0433 -13.0106  -3.5649  -3.2870
    -3.0749  -2.5666  -1.6784  -1.4016   3.5311   5.7973   6.4774   6.8654
     7.5587  10.0919  10.5910  11.6460  12.4143  12.6470  13.7000  14.0680
    14.3055  15.2012

          k = 0.2500 0.5128 0.0000 (  5598 PWs)   bands (ev):

   -45.7208 -24.2850 -23.9342 -23.8348 -21.0411 -12.9512  -3.6163  -3.3143
    -3.0449  -2.5654  -1.8200  -1.5176   3.6839   6.0218   6.4433   7.0104
     7.4188  10.6548  11.1526  11.7145  12.5320  12.9418  13.3344  13.9406
    14.3821  14.9963

          k = 0.2500 0.5860 0.0000 (  5600 PWs)   bands (ev):

   -45.7186 -24.2877 -23.9266 -23.8574 -21.0405 -12.9301  -3.6423  -3.3133
    -3.0337  -2.5587  -1.8955  -1.5421   3.7433   6.1673   6.4183   7.0254
     7.3463  10.6680  11.6996  12.0897  12.1283  12.7517  13.3858  13.9107
    14.5301  15.2657

          k = 0.2500-0.0733 0.0000 (  5572 PWs)   bands (ev):

   -45.7728 -24.2309 -23.8415 -23.5388 -21.0770 -13.4182  -3.4480  -3.2501
    -2.9479  -1.8892  -1.3949  -0.4863   3.2701   5.3030   5.8931   6.2038
     6.9064   7.2073   8.8470   9.8981  12.0134  12.8525  13.3207  15.1016
    15.7364  16.3878

          k = 0.2500 0.0000 0.0000 (  5584 PWs)   bands (ev):

   -45.7749 -24.2359 -23.8140 -23.5428 -21.0791 -13.4357  -3.4369  -3.2508
    -2.9557  -1.8391  -1.3370  -0.5144   3.3132   5.1972   5.9228   6.1976
     6.8227   7.1612   8.7742   9.8388  12.1691  12.7095  13.3145  14.9119
    15.7345  16.3389

          k = 0.3125 0.1831 0.0000 (  5578 PWs)   bands (ev):

   -45.7524 -24.2274 -23.9894 -23.5694 -21.0610 -13.2426  -3.5697  -3.1767
    -2.9642  -2.4498  -1.5418  -0.5899   3.0709   5.7204   6.1660   6.7108
     7.2314   7.9713   9.5101  10.4918  11.7016  12.7129  14.1117  15.0521
    15.8946  16.0665

          k = 0.3125 0.2564 0.0000 (  5570 PWs)   bands (ev):

   -45.7444 -24.2577 -23.9951 -23.5983 -21.0578 -13.1717  -3.6075  -3.1517
    -3.0147  -2.6121  -1.5527  -0.7103   3.0706   5.8475   6.2074   6.9539
     7.3641   8.4122   9.7566  10.7591  11.7798  12.6540  14.1931  14.4881
    15.3704  16.0566

          k = 0.3125 0.3296 0.0000 (  5585 PWs)   bands (ev):

   -45.7358 -24.2851 -23.9797 -23.6598 -21.0522 -13.0923  -3.6053  -3.1835
    -3.0907  -2.6588  -1.5726  -0.9759   3.1947   5.9486   6.2593   6.9896
     7.5328   9.1547  10.1076  11.1694  11.9836  12.6486  13.7535  14.2102
    14.7337  15.9401

          k = 0.3125 0.4029 0.0000 (  5580 PWs)   bands (ev):

   -45.7278 -24.2946 -23.9569 -23.7433 -21.0457 -13.0166  -3.5850  -3.2993
    -3.0739  -2.6296  -1.6232  -1.3065   3.4198   5.9625   6.4126   6.9606
     7.5491  10.0628  10.5203  11.6134  12.1913  12.6905  13.3692  14.0748
    14.3781  15.6501

          k = 0.3125 0.4761 0.0000 (  5583 PWs)   bands (ev):

   -45.7217 -24.2844 -23.9366 -23.8288 -21.0400 -12.9570  -3.6133  -3.3122
    -3.0453  -2.5639  -1.8039  -1.5167   3.6785   6.0048   6.4512   7.0145
     7.4239  10.6295  11.1513  11.7349  12.5751  12.8996  13.2400  13.9755
    14.3432  15.0190

          k = 0.3125 0.5494 0.0000 (  5590 PWs)   bands (ev):

   -45.7184 -24.2679 -23.9250 -23.8870 -21.0369 -12.9242  -3.6601  -3.2651
    -3.0189  -2.4839  -2.0450  -1.5664   3.8608   6.0848   6.4266   6.9427
     7.3976  10.6684  11.6943  12.0816  12.8775  13.0174  13.1486  13.6087
    14.5545  15.2414

          k = 0.3125-0.1099 0.0000 (  5584 PWs)   bands (ev):

   -45.7585 -24.2105 -23.9571 -23.5714 -21.0618 -13.2954  -3.4992  -3.2098
    -2.9746  -2.2335  -1.5300  -0.6168   3.1655   5.5550   6.0140   6.6132
     7.1068   7.7531   9.3483  10.3646  11.8557  12.8117  13.6636  15.3080
    15.8230  16.1388

          k = 0.3125-0.0366 0.0000 (  5590 PWs)   bands (ev):

   -45.7618 -24.2061 -23.9225 -23.5859 -21.0615 -13.3235  -3.4258  -3.2494
    -2.9971  -2.0728  -1.5167  -0.6980   3.2658   5.3288   6.0339   6.5804
     7.0059   7.6674   9.2649  10.3130  12.2595  12.8291  13.1085  15.1160
    15.7013  16.6205

          k = 0.3750 0.2198 0.0000 (  5571 PWs)   bands (ev):

   -45.7403 -24.2977 -23.9918 -23.5925 -21.0596 -13.1319  -3.6749  -3.1467
    -2.9850  -2.7798  -1.5488  -0.6728   2.9918   5.9422   6.4468   7.0427
     7.5131   8.6069   9.8137  10.8181  11.7710  12.6159  13.7583  14.6680
    15.4483  15.5401

          k = 0.3750 0.2930 0.0000 (  5581 PWs)   bands (ev):

   -45.7344 -24.3301 -23.9779 -23.6203 -21.0586 -13.0778  -3.6969  -3.1766
    -3.0455  -2.8178  -1.5531  -0.7917   3.0286   6.0887   6.4419   7.1220
     7.6404   9.1438  10.0178  11.0502  11.8694  12.6162  13.2891  14.4713
    14.8248  15.5536

          k = 0.3750 0.3663 0.0000 (  5592 PWs)   bands (ev):

   -45.7286 -24.3375 -23.9597 -23.6837 -21.0529 -13.0222  -3.6606  -3.2927
    -3.0680  -2.7521  -1.5735  -1.0695   3.2031   6.2797   6.3540   7.0994
     7.5921   9.9614  10.3736  11.3986  11.9622  12.5832  13.0311  14.1163
    14.5429  15.4776

          k = 0.3750 0.4395 0.0000 (  5582 PWs)   bands (ev):

   -45.7236 -24.3180 -23.9426 -23.7691 -21.0449 -12.9739  -3.6132  -3.3651
    -3.0549  -2.6572  -1.6379  -1.4011   3.4718   6.2404   6.4176   7.0986
     7.4100  10.4722  11.1213  11.7415  11.9725  12.5287  13.1089  14.0085
    14.5615  15.2996

          k = 0.3750 0.5128 0.0000 (  5587 PWs)   bands (ev):

   -45.7203 -24.2831 -23.9307 -23.8504 -21.0382 -12.9409  -3.6359  -3.3069
    -3.0327  -2.5474  -1.8740  -1.5496   3.7436   6.1412   6.4217   7.0312
     7.3552  10.6152  11.7357  12.0049  12.0933  12.8267  13.3368  13.8955
    14.5281  15.2213

          k = 0.3750 0.5860 0.0000 (  5590 PWs)   bands (ev):

   -45.7191 -24.2635 -23.9264 -23.8870 -21.0356 -12.9293  -3.6570  -3.2599
    -3.0173  -2.4695  -2.0473  -1.5724   3.8679   6.0810   6.4180   6.9404
     7.4029  10.6391  11.7109  11.9677  12.9559  12.9737  13.2886  13.5238
    14.5312  15.2116

          k = 0.3750-0.1465 0.0000 (  5575 PWs)   bands (ev):

   -45.7452 -24.2531 -23.9945 -23.6005 -21.0564 -13.1764  -3.6031  -3.1521
    -3.0122  -2.5934  -1.5532  -0.7267   3.0832   5.8525   6.2201   6.9437
     7.3542   8.3951   9.7378  10.7479  11.7867  12.6552  14.2166  14.5231
    15.3205  16.0859

          k = 0.3750-0.0733 0.0000 (  5593 PWs)   bands (ev):

   -45.7485 -24.2169 -23.9832 -23.6285 -21.0520 -13.2056  -3.5142  -3.1691
    -3.0557  -2.3940  -1.5643  -0.8680   3.2297   5.5958   6.1578   6.8399
     7.2789   8.3216   9.7198  10.7704  12.0420  12.7153  13.7497  14.6177
    15.4499  16.0589

          k = 0.3750 0.0000 0.0000 (  5588 PWs)   bands (ev):

   -45.7497 -24.2039 -23.9735 -23.6448 -21.0500 -13.2157  -3.4678  -3.1853
    -3.0737  -2.2997  -1.5739  -0.9451   3.3057   5.4327   6.2186   6.7498
     7.2720   8.3031   9.7180  10.7812  12.3639  12.7060  13.3083  14.5739
    15.8143  15.9543

          k = 0.4375 0.2564 0.0000 (  5577 PWs)   bands (ev):

   -45.7321 -24.3634 -23.9711 -23.6079 -21.0622 -13.0552  -3.7554  -3.1864
    -3.0011  -2.9363  -1.5459  -0.7252   2.9549   6.1222   6.6251   7.1854
     7.8396   9.2576  10.0220  11.0857  11.8241  12.4660  13.0564  14.4129
    14.8159  15.0627

          k = 0.4375 0.3296 0.0000 (  5565 PWs)   bands (ev):

   -45.7291 -24.3741 -23.9612 -23.6328 -21.0604 -13.0262  -3.7497  -3.2488
    -3.0492  -2.8783  -1.5511  -0.8373   3.0174   6.2247   6.6053   7.1813
     7.8115   9.7606  10.1965  11.2887  11.7148  12.3257  13.0769  14.1103
    14.6049  15.0315

          k = 0.4375 0.4029 0.0000 (  5585 PWs)   bands (ev):

   -45.7263 -24.3547 -23.9514 -23.6933 -21.0530 -12.9987  -3.6785  -3.3391
    -3.0610  -2.7687  -1.5734  -1.1087   3.2141   6.3246   6.5178   7.1289
     7.5707  10.2195  10.6744  11.5850  11.6372  12.3389  13.0960  13.9389
    14.6836  14.9905

          k = 0.4375 0.4761 0.0000 (  5581 PWs)   bands (ev):

   -45.7241 -24.3135 -23.9434 -23.7710 -21.0439 -12.9772  -3.6112  -3.3590
    -3.0536  -2.6468  -1.6377  -1.4133   3.4805   6.2618   6.4013   7.1147
     7.3836  10.4502  11.0315  11.7283  12.0461  12.5378  13.1058  14.0253
    14.5738  15.3221

          k = 0.4375 0.5494 0.0000 (  5578 PWs)   bands (ev):

   -45.7230 -24.2749 -23.9385 -23.8315 -21.0377 -12.9654  -3.6093  -3.2991
    -3.0426  -2.5374  -1.8109  -1.5327   3.6954   6.0141   6.4280   7.0395
     7.3960  10.5889  11.0293  11.7566  12.5355  12.9825  13.2952  13.9525
    14.3418  15.0342

          k = 0.4375-0.1831 0.0000 (  5572 PWs)   bands (ev):

   -45.7349 -24.3259 -23.9785 -23.6223 -21.0575 -13.0811  -3.6928  -3.1766
    -3.0441  -2.8051  -1.5538  -0.8042   3.0385   6.0874   6.4703   7.1117
     7.6271   9.1124   9.9960  11.0418  11.8781  12.6116  13.3041  14.5145
    14.7967  15.5754

          k = 0.4375-0.1099 0.0000 (  5590 PWs)   bands (ev):

   -45.7371 -24.2758 -23.9804 -23.6637 -21.0498 -13.1004  -3.5977  -3.1805
    -3.0854  -2.6306  -1.5735  -1.0027   3.2155   5.9607   6.2652   7.0031
     7.4952   9.1107  10.0637  11.1484  12.0015  12.6419  13.7837  14.2587
    14.7402  15.9592

          k = 0.4375-0.0366 0.0000 (  5575 PWs)   bands (ev):

   -45.7383 -24.2383 -23.9773 -23.7025 -21.0442 -13.1107  -3.5268  -3.1805
    -3.1120  -2.4886  -1.6037  -1.1713   3.3739   5.6554   6.3587   6.8456
     7.4871   9.1142  10.1323  11.2441  12.3213  12.5958  13.8069  14.0247
    14.9262  15.7748

          k =-0.5000-0.2930 0.0000 (  5572 PWs)   bands (ev):

   -45.7292 -24.3879 -23.9617 -23.6133 -21.0636 -13.0277  -3.7869  -3.2222
    -3.0072  -2.9670  -1.5441  -0.7431   2.9454   6.2000   6.6696   7.2230
     7.9826   9.6210  10.1068  11.3540  11.5146  12.2436  13.1260  14.0899
    14.6124  14.8919

          k =-0.5000-0.2198 0.0000 (  5585 PWs)   bands (ev):

   -45.7293 -24.3725 -23.9615 -23.6336 -21.0600 -13.0274  -3.7480  -3.2485
    -3.0488  -2.8743  -1.5514  -0.8419   3.0211   6.2206   6.6242   7.1748
     7.8075   9.7332  10.1883  11.2805  11.7372  12.3244  13.0701  14.1205
    14.6345  15.0141

          k =-0.5000-0.1465 0.0000 (  5588 PWs)   bands (ev):

   -45.7293 -24.3315 -23.9606 -23.6864 -21.0514 -13.0267  -3.6556  -3.2883
    -3.0661  -2.7381  -1.5739  -1.0862   3.2159   6.2708   6.3866   7.1046
     7.5629   9.9118  10.3254  11.3840  11.9986  12.5822  13.0401  14.1416
    14.5738  15.4873

          k =-0.5000-0.0733 0.0000 (  5587 PWs)   bands (ev):

   -45.7293 -24.2833 -23.9586 -23.7475 -21.0429 -13.0260  -3.5790  -3.2862
    -3.0708  -2.5996  -1.6235  -1.3358   3.4419   5.9786   6.3938   6.9994
     7.4991  10.0068  10.4376  11.5931  12.2066  12.6981  13.4228  14.0947
    14.4209  15.6511

          k =-0.5000 0.0000 0.0000 (  5570 PWs)   bands (ev):

   -45.7293 -24.2602 -23.9570 -23.7767 -21.0394 -13.0257  -3.5580  -3.2673
    -3.0726  -2.5268  -1.6783  -1.4258   3.5521   5.7957   6.4541   6.9204
     7.5102  10.0266  10.4928  11.6447  12.3801  12.7225  13.7075  14.0574
    14.3210  15.2133

     highest occupied, lowest unoccupied level (ev):     3.8679    5.1755

!    total energy              =    -446.24463763 Ry
     total all-electron energy =     -8320.714917 Ry
     estimated scf accuracy    <          5.3E-12 Ry

     The total energy is the sum of the following terms:
     one-electron contribution =    -301.95873946 Ry
     hartree contribution      =     159.01949899 Ry
     xc contribution           =     -38.49480104 Ry
     ewald contribution        =       1.81332196 Ry
     one-center paw contrib.   =    -266.62391808 Ry

     convergence has been achieved in   7 iterations

     negative rho (up, down):  8.650E-05 0.000E+00

     Forces acting on atoms (cartesian axes, Ry/au):

     atom    1 type  1   force =     0.00000000   -0.00014960   -0.00000058
     atom    2 type  2   force =     0.00000000   -0.00010893   -0.00078337
     atom    3 type  3   force =     0.00000000    0.00025853    0.00078395
     The non-local contrib.  to forces
     atom    1 type  1   force =     0.00000000   -0.00322107   -0.02207295
     atom    2 type  2   force =     0.00000000   -0.02047292   -1.07439452
     atom    3 type  3   force =     0.00000000   -0.00087128    0.22325465
     The ionic contribution  to forces
     atom    1 type  1   force =    -0.00000001   -0.16637518   -0.28796251
     atom    2 type  2   force =     0.00000001    0.11224364   26.27975280
     atom    3 type  3   force =     0.00000000    0.05413154  -25.99179028
     The local contribution  to forces
     atom    1 type  1   force =    -0.00000000    0.16934640    0.30619816
     atom    2 type  2   force =     0.00000032   -0.09191752  -25.20970757
     atom    3 type  3   force =     0.00000004   -0.05295190   25.77682259
     The core correction contribution to forces
     atom    1 type  1   force =     0.00000088    0.00012378    0.00374977
     atom    2 type  2   force =     0.00000042    0.00006214    0.00347925
     atom    3 type  3   force =     0.00006581   -0.00002591   -0.00759124
     The Hubbard contrib.    to forces
     atom    1 type  1   force =     0.00000000    0.00000000    0.00000000
     atom    2 type  2   force =     0.00000000    0.00000000    0.00000000
     atom    3 type  3   force =     0.00000000    0.00000000    0.00000000
     The SCF correction term to forces
     atom    1 type  1   force =     0.00000000    0.00000055   -0.00000118
     atom    2 type  2   force =    -0.00000000   -0.00000018   -0.00000145
     atom    3 type  3   force =     0.00000000    0.00000017    0.00000011

     Total force =     0.001153     Total SCF correction =     0.000002
     Energy error            =      1.2E-05 Ry
     Gradient error          =      7.8E-04 Ry/Bohr

     number of scf cycles    =   4
     number of bfgs steps    =   3

     energy             old  =    -446.2446256382 Ry
     energy             new  =    -446.2446376297 Ry

     CASE: energy            _new < energy            _old

     new trust radius        =       0.0042575388 bohr
     new conv_thr            =       0.0000000001 Ry


ATOMIC_POSITIONS (angstrom)
Zr            0.0000000000       -0.0020774464        9.5703908268
F            -0.0000000020        1.8812435308       10.8957056243
Cl           -0.0000000020        1.8838546242        7.8200784574



     Writing config-only to output data dir ./tmp/ZrFCl.save/
     NEW-OLD atomic charge density approx. for the potential

     Check: negative core charge=   -0.000005

     negative rho (up, down):  8.692E-05 0.000E+00

     total cpu time spent up to now is       49.2 secs

     Self-consistent Calculation

     iteration #  1     ecut=    65.00 Ry     beta= 0.70
     Davidson diagonalization with overlap
     ethr =  1.00E-06,  avg # of iterations =  3.0

     Threshold (ethr) on eigenvalues was too large:
     Diagonalizing with lowered threshold

     Davidson diagonalization with overlap
     ethr =  1.05E-08,  avg # of iterations =  2.3

     negative rho (up, down):  8.724E-05 0.000E+00

     total cpu time spent up to now is       52.3 secs

     total energy              =    -446.24463980 Ry
     estimated scf accuracy    <       0.00000291 Ry

     iteration #  2     ecut=    65.00 Ry     beta= 0.70
     Davidson diagonalization with overlap
     ethr =  1.12E-08,  avg # of iterations =  2.0

     negative rho (up, down):  8.698E-05 0.000E+00

     total cpu time spent up to now is       53.7 secs

     total energy              =    -446.24463991 Ry
     estimated scf accuracy    <       0.00000486 Ry

     iteration #  3     ecut=    65.00 Ry     beta= 0.70
     Davidson diagonalization with overlap
     ethr =  1.12E-08,  avg # of iterations =  1.9

     negative rho (up, down):  8.689E-05 0.000E+00

     total cpu time spent up to now is       55.0 secs

     total energy              =    -446.24464101 Ry
     estimated scf accuracy    <       0.00000028 Ry

     iteration #  4     ecut=    65.00 Ry     beta= 0.70
     Davidson diagonalization with overlap
     ethr =  1.06E-09,  avg # of iterations =  2.0

     negative rho (up, down):  8.687E-05 0.000E+00

     total cpu time spent up to now is       56.3 secs

     total energy              =    -446.24464106 Ry
     estimated scf accuracy    <       0.00000003 Ry

     iteration #  5     ecut=    65.00 Ry     beta= 0.70
     Davidson diagonalization with overlap
     ethr =  1.06E-10,  avg # of iterations =  2.0

     negative rho (up, down):  8.686E-05 0.000E+00

     total cpu time spent up to now is       57.7 secs

     total energy              =    -446.24464107 Ry
     estimated scf accuracy    <          5.6E-09 Ry

     iteration #  6     ecut=    65.00 Ry     beta= 0.70
     Davidson diagonalization with overlap
     ethr =  2.17E-11,  avg # of iterations =  2.0

     negative rho (up, down):  8.685E-05 0.000E+00

     total cpu time spent up to now is       59.0 secs

     total energy              =    -446.24464107 Ry
     estimated scf accuracy    <          3.0E-10 Ry

     iteration #  7     ecut=    65.00 Ry     beta= 0.70
     Davidson diagonalization with overlap
     ethr =  1.17E-12,  avg # of iterations =  2.0

     negative rho (up, down):  8.685E-05 0.000E+00

     total cpu time spent up to now is       60.3 secs

     End of self-consistent calculation

          k = 0.0000 0.0000 0.0000 (  5509 PWs)   bands (ev):

   -45.7959 -24.3313 -23.4793 -23.4562 -21.1567 -13.6698  -3.7594  -2.9549
    -2.9223  -1.7856  -0.2299  -0.1443   3.4088   5.2493   5.4402   5.5916
     6.4423   6.5153   7.6167   8.4375  10.8667  13.4948  14.2548  14.4832
    15.3222  16.8962

          k = 0.0000 0.0733 0.0000 (  5513 PWs)   bands (ev):

   -45.7929 -24.3206 -23.4948 -23.4855 -21.1466 -13.6470  -3.7223  -2.9646
    -2.9551  -1.7733  -0.2983  -0.2599   3.4167   5.3072   5.3915   5.6864
     6.4693   6.4912   7.7398   8.6365  10.9916  13.5701  14.1793  14.3564
    15.1499  16.8606

          k = 0.0000 0.1465 0.0000 (  5517 PWs)   bands (ev):

   -45.7844 -24.2904 -23.6000 -23.5031 -21.1216 -13.5809  -3.6235  -3.0713
    -2.9573  -1.7548  -0.6926  -0.3419   3.4144   5.3167   5.4848   5.8204
     6.5435   6.6224   8.0789   9.0884  11.3556  13.4767  13.7821  14.6590
    14.8464  16.7546

          k = 0.0000 0.2198 0.0000 (  5578 PWs)   bands (ev):

   -45.7716 -24.2477 -23.7453 -23.5292 -21.0940 -13.4792  -3.5049  -3.1944
    -2.9654  -1.7850  -1.1683  -0.4568   3.3561   5.3391   5.7862   5.8635
     6.8004   6.9118   8.5653   9.6028  11.8243  13.0123  13.5593  15.0081
    15.1519  16.5779

          k = 0.0000 0.2930 0.0000 (  5568 PWs)   bands (ev):

   -45.7565 -24.2092 -23.8917 -23.5598 -21.0737 -13.3544  -3.4763  -3.2340
    -2.9815  -2.0226  -1.4636  -0.5813   3.2430   5.4966   5.9674   6.1998
     6.9918   7.4243   9.1000  10.0925  11.8646  12.9549  13.5340  15.5052
    15.7662  16.3666

          k = 0.0000 0.3663 0.0000 (  5564 PWs)   bands (ev):

   -45.7412 -24.2190 -23.9782 -23.5902 -21.0646 -13.2237  -3.5707  -3.1771
    -3.0044  -2.4360  -1.5238  -0.6953   3.1274   5.7156   6.1977   6.6677
     7.1950   8.0093   9.5593  10.5001  11.7273  12.7664  14.2311  15.1804
    15.7912  16.1551

          k = 0.0000 0.4395 0.0000 (  5574 PWs)   bands (ev):

   -45.7283 -24.2934 -23.9773 -23.6158 -21.0646 -13.1079  -3.6739  -3.1547
    -3.0286  -2.7740  -1.5274  -0.7847   3.0499   5.9320   6.4671   7.0187
     7.4963   8.6561   9.8564  10.8255  11.8228  12.6827  13.8965  14.7806
    15.3422  15.6550

          k = 0.0000 0.5128 0.0000 (  5570 PWs)   bands (ev):

   -45.7196 -24.3617 -23.9544 -23.6327 -21.0681 -13.0276  -3.7513  -3.2029
    -3.0471  -2.9351  -1.5220  -0.8412   3.0143   6.1155   6.6279   7.1584
     7.8611   9.3171  10.0561  11.1128  11.9075  12.5735  13.1262  14.5121
    14.9131  14.9462

          k = 0.0000-0.5860 0.0000 (  5570 PWs)   bands (ev):

   -45.7166 -24.3871 -23.9442 -23.6387 -21.0700 -12.9988  -3.7814  -3.2418
    -3.0540  -2.9680  -1.5193  -0.8604   3.0053   6.1972   6.6626   7.1940
     8.0216   9.6903  10.1251  11.3992  11.6275  12.3360  13.1849  14.1721
    14.7324  14.7469

          k = 0.0625 0.0366 0.0000 (  5517 PWs)   bands (ev):

   -45.7931 -24.3210 -23.5128 -23.4658 -21.1467 -13.6479  -3.7231  -2.9902
    -2.9275  -1.7747  -0.3646  -0.1868   3.4122   5.2363   5.4745   5.6802
     6.4189   6.5525   7.7334   8.6280  10.9867  13.5673  14.0339  14.5372
    15.1264  16.9186

          k = 0.0625 0.1099 0.0000 (  5529 PWs)   bands (ev):

   -45.7874 -24.3006 -23.5727 -23.4896 -21.1292 -13.6035  -3.6547  -3.0474
    -2.9464  -1.7593  -0.5938  -0.2872   3.4145   5.2658   5.5013   5.7970
     6.4525   6.6228   7.9652   8.9501  11.2339  13.5854  13.7888  14.5687
    14.9382  16.7999

          k = 0.0625 0.1831 0.0000 (  5544 PWs)   bands (ev):

   -45.7767 -24.2639 -23.6913 -23.5181 -21.1032 -13.5196  -3.5414  -3.1564
    -2.9612  -1.7608  -1.0030  -0.4147   3.3870   5.2577   5.7208   5.8742
     6.6410   6.8320   8.3793   9.4218  11.6918  13.1253  13.6478  14.6826
    15.1706  16.5907

          k = 0.0625 0.2564 0.0000 (  5587 PWs)   bands (ev):

   -45.7627 -24.2216 -23.8333 -23.5515 -21.0797 -13.4060  -3.4503  -3.2466
    -2.9813  -1.8767  -1.3844  -0.5566   3.3090   5.3459   5.8910   6.1370
     6.8661   7.2385   8.8948   9.9193  12.0352  12.8948  13.3533  15.1058
    15.6831  16.3610

          k = 0.0625 0.3296 0.0000 (  5568 PWs)   bands (ev):

   -45.7475 -24.2021 -23.9499 -23.5866 -21.0655 -13.2777  -3.5032  -3.2090
    -3.0106  -2.2291  -1.5171  -0.6954   3.2076   5.5656   6.0197   6.5785
     7.0752   7.7882   9.4035  10.3808  11.8622  12.8541  13.7272  15.3653
    15.8541  16.1772

          k = 0.0625 0.4029 0.0000 (  5570 PWs)   bands (ev):

   -45.7334 -24.2500 -23.9824 -23.6187 -21.0615 -13.1537  -3.6067  -3.1579
    -3.0478  -2.5989  -1.5354  -0.8145   3.1276   5.8423   6.2306   6.9291
     7.3398   8.4434   9.7932  10.7555  11.8133  12.7054  14.3492  14.5855
    15.3382  16.1266

          k = 0.0625 0.4761 0.0000 (  5581 PWs)   bands (ev):

   -45.7226 -24.3258 -23.9628 -23.6431 -21.0636 -13.0547  -3.6937  -3.1971
    -3.0676  -2.8210  -1.5325  -0.9009   3.0864   6.0780   6.4695   7.0946
     7.6429   9.1807  10.0458  11.0523  11.9326  12.6900  13.4030  14.5516
    14.8517  15.5878

          k = 0.0625 0.5494 0.0000 (  5577 PWs)   bands (ev):

   -45.7167 -24.3725 -23.9445 -23.6563 -21.0665 -12.9996  -3.7451  -3.2734
    -3.0694  -2.8947  -1.5283  -0.9462   3.0733   6.2183   6.6149   7.1533
     7.8433   9.8163  10.2096  11.3206  11.8195  12.4188  13.1245  14.1770
    14.6842  14.9850

          k = 0.1250 0.0733 0.0000 (  5552 PWs)   bands (ev):

   -45.7851 -24.2921 -23.6136 -23.4832 -21.1220 -13.5847  -3.6260  -3.0910
    -2.9312  -1.7600  -0.7431  -0.2671   3.3965   5.2177   5.6210   5.8046
     6.5153   6.6771   8.0587   9.0692  11.3367  13.4320  13.7296  14.7944
    14.8337  16.8531

          k = 0.1250 0.1465 0.0000 (  5578 PWs)   bands (ev):

   -45.7772 -24.2652 -23.6977 -23.5070 -21.1034 -13.5224  -3.5430  -3.1652
    -2.9479  -1.7653  -1.0275  -0.3708   3.3716   5.2380   5.7669   5.8646
     6.6404   6.8460   8.3666   9.4122  11.6781  13.1032  13.6281  14.6891
    15.2127  16.6343

          k = 0.1250 0.2198 0.0000 (  5576 PWs)   bands (ev):

   -45.7654 -24.2281 -23.8114 -23.5449 -21.0820 -13.4264  -3.4396  -3.2542
    -2.9787  -1.8354  -1.3460  -0.5383   3.3308   5.2483   5.9087   6.1505
     6.7903   7.1923   8.8138   9.8563  12.1976  12.7052  13.3299  14.9051
    15.7212  16.3423

          k = 0.1250 0.2930 0.0000 (  5574 PWs)   bands (ev):

   -45.7513 -24.1988 -23.9212 -23.5905 -21.0655 -13.3088  -3.4333  -3.2511
    -3.0238  -2.0838  -1.5156  -0.7285   3.2837   5.3586   6.0167   6.5578
     6.9896   7.6967   9.3171  10.3313  12.2409  12.8533  13.1311  15.1422
    15.7527  16.6925

          k = 0.1250 0.3663 0.0000 (  5561 PWs)   bands (ev):

   -45.7373 -24.2156 -23.9760 -23.6363 -21.0572 -13.1859  -3.5232  -3.1742
    -3.0837  -2.4144  -1.5550  -0.9089   3.2493   5.6069   6.1478   6.8236
     7.2876   8.3627   9.7804  10.7844  12.0274  12.7354  13.7955  14.6793
    15.5254  16.1073

          k = 0.1250 0.4395 0.0000 (  5584 PWs)   bands (ev):

   -45.7253 -24.2789 -23.9673 -23.6753 -21.0560 -13.0772  -3.6054  -3.2080
    -3.0948  -2.6553  -1.5600  -1.0567   3.2401   5.9579   6.2671   6.9786
     7.5275   9.1752  10.1314  11.1495  12.0119  12.6842  13.8669  14.3102
    14.7770  16.0046

          k = 0.1250 0.5128 0.0000 (  5588 PWs)   bands (ev):

   -45.7173 -24.3343 -23.9451 -23.7015 -21.0579 -13.0021  -3.6598  -3.3167
    -3.0754  -2.7635  -1.5582  -1.1538   3.2480   6.2707   6.3854   7.0807
     7.6037  10.0031  10.3814  11.3804  12.0285  12.6644  13.0988  14.1606
    14.6325  15.5211

          k = 0.1250 0.5860 0.0000 (  5602 PWs)   bands (ev):

   -45.7145 -24.3549 -23.9356 -23.7107 -21.0591 -12.9752  -3.6789  -3.3653
    -3.0707  -2.7898  -1.5571  -1.1876   3.2539   6.3259   6.5271   7.1065
     7.6034  10.2997  10.6711  11.6135  11.7120  12.4016  13.1382  14.0043
    14.7555  14.9881

          k = 0.1250 0.0000 0.0000 (  5528 PWs)   bands (ev):

   -45.7879 -24.3018 -23.5821 -23.4756 -21.1294 -13.6063  -3.6566  -3.0625
    -2.9264  -1.7630  -0.6254  -0.2393   3.4044   5.1860   5.6091   5.7815
     6.4592   6.6405   7.9487   8.9341  11.2205  13.5554  13.7346  14.6756
    14.9463  16.8696

          k = 0.1875 0.1099 0.0000 (  5569 PWs)   bands (ev):

   -45.7731 -24.2513 -23.7545 -23.5071 -21.0942 -13.4874  -3.5086  -3.2094
    -2.9380  -1.7979  -1.2018  -0.3733   3.3212   5.2915   5.8320   5.9104
     6.8394   6.8989   8.5315   9.5812  11.7940  12.9701  13.5178  14.9651
    15.2913  16.6779

          k = 0.1875 0.1831 0.0000 (  5570 PWs)   bands (ev):

   -45.7640 -24.2250 -23.8401 -23.5333 -21.0798 -13.4133  -3.4530  -3.2567
    -2.9607  -1.8940  -1.4041  -0.4853   3.2751   5.3417   5.8915   6.1758
     6.8929   7.2300   8.8697   9.9071  12.0223  12.8478  13.3231  15.0821
    15.7590  16.4101

          k = 0.1875 0.2564 0.0000 (  5566 PWs)   bands (ev):

   -45.7521 -24.2010 -23.9242 -23.5807 -21.0654 -13.3133  -3.4355  -3.2540
    -3.0140  -2.0963  -1.5209  -0.6906   3.2640   5.3635   6.0169   6.5675
     7.0064   7.6900   9.3049  10.3283  12.2490  12.8281  13.0980  15.1296
    15.7617  16.6115

          k = 0.1875 0.3296 0.0000 (  5581 PWs)   bands (ev):

   -45.7392 -24.2049 -23.9711 -23.6409 -21.0551 -13.2006  -3.4810  -3.1897
    -3.0946  -2.3369  -1.5711  -0.9382   3.3000   5.4569   6.2010   6.7400
     7.2969   8.3378   9.7735  10.8002  12.3235  12.7000  13.3258  14.6139
    15.8699  15.9864

          k = 0.1875 0.4029 0.0000 (  5574 PWs)   bands (ev):

   -45.7272 -24.2453 -23.9679 -23.7017 -21.0502 -13.0922  -3.5397  -3.2074
    -3.1170  -2.5271  -1.5993  -1.1723   3.3706   5.6700   6.3604   6.8167
     7.5330   9.1720  10.2072  11.2587  12.2819  12.6033  13.8414  14.0636
    14.9635  15.7789

          k = 0.1875 0.4761 0.0000 (  5577 PWs)   bands (ev):

   -45.7181 -24.2904 -23.9457 -23.7510 -21.0492 -13.0061  -3.5902  -3.3139
    -3.0770  -2.6316  -1.6247  -1.3467   3.4471   5.9880   6.4081   6.9613
     7.5517  10.0845  10.5362  11.5788  12.1863  12.7190  13.4916  14.1105
    14.4637  15.6016

          k = 0.1875 0.5494 0.0000 (  5610 PWs)   bands (ev):

   -45.7131 -24.3170 -23.9295 -23.7788 -21.0498 -12.9583  -3.6216  -3.3802
    -3.0604  -2.6696  -1.6483  -1.4323   3.4965   6.2826   6.4074   7.0866
     7.4228  10.5323  11.1210  11.6912  12.0425  12.5737  13.1674  14.0758
    14.6048  15.3497

          k = 0.1875-0.0366 0.0000 (  5566 PWs)   bands (ev):

   -45.7780 -24.2669 -23.6980 -23.5005 -21.1033 -13.5267  -3.5451  -3.1696
    -2.9368  -1.7696  -1.0259  -0.3548   3.3645   5.1899   5.8269   5.8718
     6.6894   6.8124   8.3459   9.3988  11.6619  13.0946  13.6120  14.7098
    15.2522  16.6454

          k = 0.2500 0.1465 0.0000 (  5581 PWs)   bands (ev):

   -45.7588 -24.2147 -23.8971 -23.5349 -21.0732 -13.3681  -3.4808  -3.2441
    -2.9515  -2.0447  -1.4795  -0.4878   3.1971   5.4883   5.9424   6.2856
     7.0371   7.3985   9.0577  10.0746  11.8497  12.9022  13.4686  15.4433
    15.8802  16.3740

          k = 0.2500 0.2198 0.0000 (  5574 PWs)   bands (ev):

   -45.7497 -24.2075 -23.9552 -23.5631 -21.0649 -13.2906  -3.5084  -3.2149
    -2.9850  -2.2525  -1.5296  -0.6056   3.1617   5.5725   6.0134   6.6159
     7.1140   7.7670   9.3713  10.3737  11.8513  12.8125  13.6396  15.3043
    15.8569  16.1384

          k = 0.2500 0.2930 0.0000 (  5579 PWs)   bands (ev):

   -45.7389 -24.2196 -23.9800 -23.6189 -21.0564 -13.1960  -3.5275  -3.1728
    -3.0709  -2.4300  -1.5621  -0.8447   3.2155   5.6123   6.1488   6.8382
     7.3095   8.3506   9.7622  10.7882  12.0246  12.7144  13.7063  14.6408
    15.4367  16.1011

          k = 0.2500 0.3663 0.0000 (  5575 PWs)   bands (ev):

   -45.7281 -24.2470 -23.9701 -23.6930 -21.0495 -13.0978  -3.5413  -3.1976
    -3.1212  -2.5323  -1.6005  -1.1435   3.3548   5.6683   6.3658   6.8206
     7.5397   9.1665  10.2004  11.2673  12.2922  12.5941  13.7915  14.0174
    14.8899  15.8254

          k = 0.2500 0.4395 0.0000 (  5580 PWs)   bands (ev):

   -45.7190 -24.2704 -23.9470 -23.7693 -21.0451 -13.0115  -3.5706  -3.2923
    -3.0798  -2.5679  -1.6783  -1.4010   3.5360   5.8068   6.4870   6.8735
     7.5688  10.0919  10.5996  11.6448  12.4159  12.6515  13.7038  14.0703
    14.3055  15.1994

          k = 0.2500 0.5128 0.0000 (  5598 PWs)   bands (ev):

   -45.7128 -24.2819 -23.9274 -23.8282 -21.0429 -12.9522  -3.6223  -3.3190
    -3.0497  -2.5669  -1.8211  -1.5154   3.6889   6.0284   6.4539   7.0192
     7.4310  10.6589  11.1544  11.7157  12.5360  12.9447  13.3345  13.9412
    14.3849  14.9945

          k = 0.2500 0.5860 0.0000 (  5600 PWs)   bands (ev):

   -45.7107 -24.2846 -23.9197 -23.8508 -21.0423 -12.9311  -3.6483  -3.3179
    -3.0384  -2.5604  -1.8966  -1.5397   3.7485   6.1711   6.4296   7.0360
     7.3590  10.6728  11.7022  12.0916  12.1257  12.7559  13.3877  13.9125
    14.5301  15.2667

          k = 0.2500-0.0733 0.0000 (  5572 PWs)   bands (ev):

   -45.7649 -24.2264 -23.8357 -23.5317 -21.0790 -13.4185  -3.4538  -3.2559
    -2.9547  -1.8904  -1.3941  -0.4893   3.2771   5.3150   5.8988   6.2114
     6.9129   7.2107   8.8498   9.8969  12.0166  12.8561  13.3239  15.0997
    15.7394  16.3926

          k = 0.2500 0.0000 0.0000 (  5584 PWs)   bands (ev):

   -45.7670 -24.2314 -23.8082 -23.5357 -21.0812 -13.4360  -3.4424  -3.2570
    -2.9624  -1.8397  -1.3371  -0.5171   3.3201   5.2096   5.9287   6.2047
     6.8285   7.1650   8.7767   9.8374  12.1711  12.7147  13.3181  14.9093
    15.7381  16.3435

          k = 0.3125 0.1831 0.0000 (  5578 PWs)   bands (ev):

   -45.7445 -24.2238 -23.9830 -23.5624 -21.0629 -13.2433  -3.5757  -3.1813
    -2.9709  -2.4515  -1.5392  -0.5929   3.0772   5.7289   6.1747   6.7178
     7.2406   7.9752   9.5162  10.4916  11.7030  12.7173  14.1126  15.0509
    15.8975  16.0676

          k = 0.3125 0.2564 0.0000 (  5570 PWs)   bands (ev):

   -45.7365 -24.2543 -23.9885 -23.5913 -21.0597 -13.1724  -3.6133  -3.1562
    -3.0212  -2.6135  -1.5503  -0.7131   3.0767   5.8560   6.2157   6.9618
     7.3732   8.4166   9.7634  10.7585  11.7813  12.6575  14.1951  14.4865
    15.3734  16.0600

          k = 0.3125 0.3296 0.0000 (  5585 PWs)   bands (ev):

   -45.7279 -24.2818 -23.9730 -23.6529 -21.0541 -13.0932  -3.6108  -3.1889
    -3.0958  -2.6603  -1.5705  -0.9780   3.2003   5.9577   6.2678   6.9982
     7.5419   9.1582  10.1151  11.1684  11.9863  12.6505  13.7541  14.2125
    14.7354  15.9441

          k = 0.3125 0.4029 0.0000 (  5580 PWs)   bands (ev):

   -45.7199 -24.2914 -23.9500 -23.7366 -21.0475 -13.0175  -3.5906  -3.3045
    -3.0787  -2.6310  -1.6221  -1.3071   3.4249   5.9709   6.4227   6.9689
     7.5595  10.0639  10.5282  11.6122  12.1959  12.6918  13.3699  14.0773
    14.3794  15.6505

          k = 0.3125 0.4761 0.0000 (  5583 PWs)   bands (ev):

   -45.7138 -24.2813 -23.9297 -23.8222 -21.0418 -12.9581  -3.6192  -3.3170
    -3.0500  -2.5653  -1.8047  -1.5149   3.6831   6.0114   6.4625   7.0231
     7.4363  10.6337  11.1529  11.7361  12.5781  12.9030  13.2403  13.9763
    14.3457  15.0169

          k = 0.3125 0.5494 0.0000 (  5590 PWs)   bands (ev):

   -45.7104 -24.2650 -23.9180 -23.8803 -21.0386 -12.9253  -3.6661  -3.2699
    -3.0236  -2.4855  -2.0454  -1.5642   3.8652   6.0884   6.4386   6.9544
     7.4102  10.6733  11.6966  12.0798  12.8761  13.0167  13.1540  13.6136
    14.5543  15.2424

          k = 0.3125-0.1099 0.0000 (  5584 PWs)   bands (ev):

   -45.7506 -24.2066 -23.9510 -23.5643 -21.0637 -13.2960  -3.5054  -3.2146
    -2.9811  -2.2355  -1.5275  -0.6195   3.1715   5.5658   6.0214   6.6195
     7.1152   7.7568   9.3536  10.3640  11.8579  12.8162  13.6644  15.3091
    15.8238  16.1382

          k = 0.3125-0.0366 0.0000 (  5590 PWs)   bands (ev):

   -45.7539 -24.2019 -23.9166 -23.5789 -21.0634 -13.3240  -3.4321  -3.2544
    -3.0035  -2.0750  -1.5146  -0.7003   3.2714   5.3412   6.0410   6.5857
     7.0140   7.6711   9.2698  10.3118  12.2627  12.8333  13.1103  15.1161
    15.7030  16.6212

          k = 0.3750 0.2198 0.0000 (  5571 PWs)   bands (ev):

   -45.7324 -24.2944 -23.9851 -23.5856 -21.0616 -13.1327  -3.6805  -3.1507
    -2.9915  -2.7812  -1.5464  -0.6756   2.9981   5.9504   6.4551   7.0505
     7.5217   8.6140   9.8192  10.8184  11.7728  12.6187  13.7580  14.6670
    15.4524  15.5441

          k = 0.3750 0.2930 0.0000 (  5581 PWs)   bands (ev):

   -45.7265 -24.3269 -23.9711 -23.6134 -21.0606 -13.0787  -3.7023  -3.1806
    -3.0511  -2.8199  -1.5510  -0.7942   3.0348   6.0974   6.4494   7.1311
     7.6491   9.1510  10.0225  11.0510  11.8724  12.6174  13.2882  14.4720
    14.8281  15.5577

          k = 0.3750 0.3663 0.0000 (  5592 PWs)   bands (ev):

   -45.7207 -24.3344 -23.9528 -23.6769 -21.0548 -13.0232  -3.6659  -3.2973
    -3.0728  -2.7542  -1.5717  -1.0713   3.2089   6.2875   6.3626   7.1085
     7.6024   9.9667  10.3783  11.3993  11.9667  12.5829  13.0306  14.1189
    14.5446  15.4812

          k = 0.3750 0.4395 0.0000 (  5582 PWs)   bands (ev):

   -45.7157 -24.3149 -23.9357 -23.7624 -21.0467 -12.9749  -3.6187  -3.3698
    -3.0594  -2.6589  -1.6373  -1.4012   3.4770   6.2455   6.4290   7.1074
     7.4226  10.4767  11.1245  11.7412  11.9764  12.5307  13.1094  14.0105
    14.5635  15.3008

          k = 0.3750 0.5128 0.0000 (  5587 PWs)   bands (ev):

   -45.7124 -24.2802 -23.9238 -23.8437 -21.0400 -12.9420  -3.6417  -3.3116
    -3.0373  -2.5487  -1.8746  -1.5477   3.7482   6.1450   6.4336   7.0418
     7.3682  10.6196  11.7387  12.0036  12.0929  12.8317  13.3391  13.8975
    14.5277  15.2221

          k = 0.3750 0.5860 0.0000 (  5590 PWs)   bands (ev):

   -45.7112 -24.2607 -23.9194 -23.8802 -21.0374 -12.9304  -3.6630  -3.2647
    -3.0220  -2.4710  -2.0474  -1.5704   3.8720   6.0844   6.4301   6.9523
     7.4157  10.6436  11.7137  11.9659  12.9557  12.9711  13.2956  13.5286
    14.5304  15.2118

          k = 0.3750-0.1465 0.0000 (  5575 PWs)   bands (ev):

   -45.7373 -24.2498 -23.9879 -23.5936 -21.0583 -13.1772  -3.6089  -3.1566
    -3.0184  -2.5951  -1.5508  -0.7292   3.0892   5.8613   6.2291   6.9501
     7.3631   8.4005   9.7442  10.7478  11.7879  12.6588  14.2190  14.5213
    15.3229  16.0887

          k = 0.3750-0.0733 0.0000 (  5593 PWs)   bands (ev):

   -45.7406 -24.2134 -23.9767 -23.6215 -21.0538 -13.2063  -3.5201  -3.1739
    -3.0617  -2.3959  -1.5621  -0.8699   3.2349   5.6071   6.1659   6.8459
     7.2871   8.3258   9.7266  10.7696  12.0437  12.7189  13.7512  14.6221
    15.4488  16.0586

          k = 0.3750 0.0000 0.0000 (  5588 PWs)   bands (ev):

   -45.7418 -24.2003 -23.9672 -23.6378 -21.0518 -13.2164  -3.4739  -3.1903
    -3.0795  -2.3016  -1.5718  -0.9467   3.3104   5.4449   6.2270   6.7553
     7.2799   8.3069   9.7249  10.7799  12.3665  12.7084  13.3107  14.5790
    15.8124  15.9544

          k = 0.4375 0.2564 0.0000 (  5577 PWs)   bands (ev):

   -45.7242 -24.3602 -23.9643 -23.6009 -21.0642 -13.0562  -3.7606  -3.1891
    -3.0074  -2.9386  -1.5438  -0.7278   2.9613   6.1315   6.6318   7.1946
     7.8467   9.2690  10.0237  11.0879  11.8271  12.4655  13.0562  14.4137
    14.8192  15.0664

          k = 0.4375 0.3296 0.0000 (  5565 PWs)   bands (ev):

   -45.7212 -24.3710 -23.9544 -23.6259 -21.0624 -13.0273  -3.7547  -3.2519
    -3.0544  -2.8814  -1.5491  -0.8396   3.0237   6.2347   6.6111   7.1909
     7.8201   9.7714  10.1983  11.2910  11.7159  12.3267  13.0759  14.1132
    14.6064  15.0350

          k = 0.4375 0.4029 0.0000 (  5585 PWs)   bands (ev):

   -45.7184 -24.3516 -23.9445 -23.6865 -21.0550 -12.9998  -3.6835  -3.3432
    -3.0657  -2.7712  -1.5718  -1.1103   3.2200   6.3345   6.5234   7.1383
     7.5818  10.2254  10.6796  11.5841  11.6391  12.3424  13.0949  13.9414
    14.6861  14.9923

          k = 0.4375 0.4761 0.0000 (  5581 PWs)   bands (ev):

   -45.7162 -24.3105 -23.9365 -23.7643 -21.0457 -12.9783  -3.6167  -3.3636
    -3.0582  -2.6485  -1.6371  -1.4132   3.4857   6.2668   6.4125   7.1237
     7.3962  10.4544  11.0345  11.7283  12.0505  12.5401  13.1065  14.0268
    14.5756  15.3231

          k = 0.4375 0.5494 0.0000 (  5578 PWs)   bands (ev):

   -45.7151 -24.2721 -23.9316 -23.8247 -21.0395 -12.9665  -3.6150  -3.3039
    -3.0473  -2.5387  -1.8114  -1.5309   3.6998   6.0206   6.4392   7.0485
     7.4085  10.5924  11.0308  11.7586  12.5380  12.9878  13.2954  13.9535
    14.3429  15.0316

          k = 0.4375-0.1831 0.0000 (  5572 PWs)   bands (ev):

   -45.7270 -24.3227 -23.9717 -23.6154 -21.0595 -13.0821  -3.6981  -3.1803
    -3.0495  -2.8075  -1.5517  -0.8065   3.0446   6.0961   6.4785   7.1198
     7.6354   9.1206   9.9997  11.0430  11.8811  12.6131  13.3035  14.5147
    14.8003  15.5786

          k = 0.4375-0.1099 0.0000 (  5590 PWs)   bands (ev):

   -45.7292 -24.2726 -23.9737 -23.6568 -21.0517 -13.1013  -3.6032  -3.1854
    -3.0904  -2.6325  -1.5716  -1.0044   3.2209   5.9700   6.2744   7.0108
     7.5036   9.1155  10.0700  11.1483  12.0040  12.6446  13.7849  14.2604
    14.7413  15.9616

          k = 0.4375-0.0366 0.0000 (  5575 PWs)   bands (ev):

   -45.7304 -24.2351 -23.9706 -23.6957 -21.0459 -13.1116  -3.5325  -3.1860
    -3.1169  -2.4902  -1.6021  -1.1722   3.3784   5.6663   6.3683   6.8527
     7.4952   9.1172  10.1400  11.2431  12.3235  12.5982  13.8087  14.0308
    14.9247  15.7743

          k =-0.5000-0.2930 0.0000 (  5572 PWs)   bands (ev):

   -45.7213 -24.3848 -23.9549 -23.6063 -21.0657 -13.0287  -3.7918  -3.2243
    -3.0136  -2.9698  -1.5421  -0.7456   2.9518   6.2101   6.6755   7.2327
     7.9892   9.6346  10.1081  11.3582  11.5123  12.2455  13.1245  14.0937
    14.6130  14.8958

          k =-0.5000-0.2198 0.0000 (  5585 PWs)   bands (ev):

   -45.7214 -24.3694 -23.9547 -23.6266 -21.0620 -13.0284  -3.7530  -3.2514
    -3.0540  -2.8775  -1.5494  -0.8442   3.0273   6.2305   6.6304   7.1841
     7.8159   9.7445  10.1896  11.2826  11.7386  12.3255  13.0695  14.1230
    14.6367  15.0168

          k =-0.5000-0.1465 0.0000 (  5588 PWs)   bands (ev):

   -45.7214 -24.3285 -23.9538 -23.6796 -21.0533 -13.0277  -3.6608  -3.2925
    -3.0708  -2.7404  -1.5721  -1.0877   3.2216   6.2794   6.3949   7.1134
     7.5729   9.9184  10.3284  11.3850  12.0035  12.5826  13.0400  14.1432
    14.5758  15.4897

          k =-0.5000-0.0733 0.0000 (  5587 PWs)   bands (ev):

   -45.7214 -24.2803 -23.9518 -23.7407 -21.0447 -13.0270  -3.5845  -3.2911
    -3.0756  -2.6012  -1.6225  -1.3361   3.4467   5.9871   6.4041   7.0078
     7.5090  10.0088  10.4438  11.5929  12.2112  12.7012  13.4234  14.0965
    14.4215  15.6506

          k =-0.5000 0.0000 0.0000 (  5570 PWs)   bands (ev):

   -45.7214 -24.2572 -23.9501 -23.7699 -21.0412 -13.0267  -3.5637  -3.2724
    -3.0774  -2.5282  -1.6781  -1.4250   3.5563   5.8053   6.4648   6.9283
     7.5199  10.0273  10.5001  11.6447  12.3814  12.7286  13.7105  14.0599
    14.3195  15.2106

     highest occupied, lowest unoccupied level (ev):     3.8720    5.1860

!    total energy              =    -446.24464107 Ry
     total all-electron energy =     -8320.714921 Ry
     estimated scf accuracy    <          4.5E-12 Ry

     The total energy is the sum of the following terms:
     one-electron contribution =    -302.38366478 Ry
     hartree contribution      =     159.23409896 Ry
     xc contribution           =     -38.49686105 Ry
     ewald contribution        =       2.02577415 Ry
     one-center paw contrib.   =    -266.62398835 Ry

     convergence has been achieved in   7 iterations

     negative rho (up, down):  8.685E-05 0.000E+00

     Forces acting on atoms (cartesian axes, Ry/au):

     atom    1 type  1   force =     0.00000000    0.00009012   -0.00000476
     atom    2 type  2   force =     0.00000000   -0.00012752    0.00000125
     atom    3 type  3   force =     0.00000000    0.00003740    0.00000351
     The non-local contrib.  to forces
     atom    1 type  1   force =     0.00000000   -0.00306442   -0.02208949
     atom    2 type  2   force =     0.00000000   -0.02026847   -1.07191123
     atom    3 type  3   force =     0.00000000   -0.00097147    0.22279316
     The ionic contribution  to forces
     atom    1 type  1   force =    -0.00000001   -0.16320230   -0.27847754
     atom    2 type  2   force =     0.00000001    0.11097093   26.29289831
     atom    3 type  3   force =     0.00000000    0.05223137  -26.01442077
     The local contribution  to forces
     atom    1 type  1   force =     0.00000000    0.16625472    0.29671177
     atom    2 type  2   force =     0.00000032   -0.09086983  -25.22454355
     atom    3 type  3   force =     0.00000004   -0.05118027   25.79909920
     The core correction contribution to forces
     atom    1 type  1   force =     0.00000093    0.00012340    0.00376008
     atom    2 type  2   force =     0.00000050    0.00006182    0.00346769
     atom    3 type  3   force =     0.00006525   -0.00002055   -0.00755951
     The Hubbard contrib.    to forces
     atom    1 type  1   force =     0.00000000    0.00000000    0.00000000
     atom    2 type  2   force =     0.00000000    0.00000000    0.00000000
     atom    3 type  3   force =     0.00000000    0.00000000    0.00000000
     The SCF correction term to forces
     atom    1 type  1   force =     0.00000000    0.00000049   -0.00000097
     atom    2 type  2   force =    -0.00000000   -0.00000021   -0.00000137
     atom    3 type  3   force =    -0.00000000    0.00000009    0.00000004

     Total force =     0.000161     Total SCF correction =     0.000002
     Energy error            =      3.4E-06 Ry
     Gradient error          =      1.3E-04 Ry/Bohr

     number of scf cycles    =   5
     number of bfgs steps    =   4

     energy             old  =    -446.2446376297 Ry
     energy             new  =    -446.2446410728 Ry

     CASE: energy            _new < energy            _old

     new trust radius        =       0.0001284140 bohr
     new conv_thr            =            1.0E-10 Ry


ATOMIC_POSITIONS (angstrom)
Zr            0.0000000000       -0.0020312424        9.5703883056
F            -0.0000000020        1.8811757608       10.8957006305
Cl           -0.0000000020        1.8838761902        7.8200859724



     Writing config-only to output data dir ./tmp/ZrFCl.save/
     NEW-OLD atomic charge density approx. for the potential

     Check: negative core charge=   -0.000005

     negative rho (up, down):  8.686E-05 0.000E+00

     total cpu time spent up to now is       60.8 secs

     Self-consistent Calculation

     iteration #  1     ecut=    65.00 Ry     beta= 0.70
     Davidson diagonalization with overlap
     ethr =  1.00E-06,  avg # of iterations =  1.5

     Threshold (ethr) on eigenvalues was too large:
     Diagonalizing with lowered threshold

     Davidson diagonalization with overlap
     ethr =  6.31E-12,  avg # of iterations =  4.0

     negative rho (up, down):  8.686E-05 0.000E+00

     total cpu time spent up to now is       63.9 secs

     total energy              =    -446.24464110 Ry
     estimated scf accuracy    <          9.1E-10 Ry

     iteration #  2     ecut=    65.00 Ry     beta= 0.70
     Davidson diagonalization with overlap
     ethr =  3.50E-12,  avg # of iterations =  2.0

     negative rho (up, down):  8.686E-05 0.000E+00

     total cpu time spent up to now is       65.2 secs

     total energy              =    -446.24464110 Ry
     estimated scf accuracy    <          1.7E-10 Ry

     iteration #  3     ecut=    65.00 Ry     beta= 0.70
     Davidson diagonalization with overlap
     ethr =  6.69E-13,  avg # of iterations =  2.0

     negative rho (up, down):  8.686E-05 0.000E+00

     total cpu time spent up to now is       66.6 secs

     total energy              =    -446.24464110 Ry
     estimated scf accuracy    <          2.9E-10 Ry

     iteration #  4     ecut=    65.00 Ry     beta= 0.70
     Davidson diagonalization with overlap
     ethr =  6.69E-13,  avg # of iterations =  1.1

     negative rho (up, down):  8.686E-05 0.000E+00

     total cpu time spent up to now is       67.8 secs

     End of self-consistent calculation

          k = 0.0000 0.0000 0.0000 (  5509 PWs)   bands (ev):

   -45.7959 -24.3313 -23.4793 -23.4562 -21.1567 -13.6698  -3.7594  -2.9548
    -2.9224  -1.7856  -0.2300  -0.1444   3.4089   5.2494   5.4402   5.5916
     6.4422   6.5155   7.6167   8.4375  10.8667  13.4948  14.2548  14.4833
    15.3223  16.8962

          k = 0.0000 0.0733 0.0000 (  5513 PWs)   bands (ev):

   -45.7929 -24.3206 -23.4948 -23.4855 -21.1465 -13.6470  -3.7224  -2.9646
    -2.9550  -1.7733  -0.2984  -0.2599   3.4167   5.3073   5.3915   5.6864
     6.4695   6.4911   7.7398   8.6365  10.9916  13.5701  14.1793  14.3563
    15.1499  16.8607

          k = 0.0000 0.1465 0.0000 (  5517 PWs)   bands (ev):

   -45.7844 -24.2904 -23.6000 -23.5030 -21.1216 -13.5810  -3.6235  -3.0714
    -2.9573  -1.7548  -0.6927  -0.3420   3.4144   5.3167   5.4849   5.8205
     6.5435   6.6223   8.0789   9.0884  11.3556  13.4768  13.7821  14.6589
    14.8464  16.7546

          k = 0.0000 0.2198 0.0000 (  5578 PWs)   bands (ev):

   -45.7716 -24.2477 -23.7453 -23.5292 -21.0939 -13.4792  -3.5048  -3.1945
    -2.9653  -1.7850  -1.1684  -0.4568   3.3560   5.3391   5.7863   5.8636
     6.8003   6.9118   8.5653   9.6028  11.8244  13.0123  13.5593  15.0081
    15.1519  16.5778

          k = 0.0000 0.2930 0.0000 (  5568 PWs)   bands (ev):

   -45.7564 -24.2092 -23.8918 -23.5598 -21.0736 -13.3544  -3.4763  -3.2340
    -2.9814  -2.0226  -1.4636  -0.5813   3.2428   5.4966   5.9675   6.1999
     6.9917   7.4243   9.1000  10.0925  11.8647  12.9550  13.5339  15.5051
    15.7662  16.3666

          k = 0.0000 0.3663 0.0000 (  5564 PWs)   bands (ev):

   -45.7412 -24.2190 -23.9782 -23.5902 -21.0646 -13.2238  -3.5707  -3.1770
    -3.0043  -2.4360  -1.5238  -0.6953   3.1273   5.7156   6.1979   6.6678
     7.1949   8.0093   9.5593  10.5002  11.7273  12.7664  14.2311  15.1803
    15.7912  16.1551

          k = 0.0000 0.4395 0.0000 (  5574 PWs)   bands (ev):

   -45.7283 -24.2935 -23.9773 -23.6157 -21.0645 -13.1079  -3.6739  -3.1547
    -3.0285  -2.7740  -1.5274  -0.7848   3.0498   5.9321   6.4672   7.0187
     7.4962   8.6562   9.8564  10.8256  11.8228  12.6826  13.8966  14.7806
    15.3421  15.6550

          k = 0.0000 0.5128 0.0000 (  5570 PWs)   bands (ev):

   -45.7196 -24.3618 -23.9543 -23.6327 -21.0681 -13.0276  -3.7514  -3.2029
    -3.0470  -2.9351  -1.5221  -0.8412   3.0141   6.1157   6.6279   7.1584
     7.8610   9.3171  10.0561  11.1129  11.9075  12.5735  13.1263  14.5121
    14.9131  14.9462

          k = 0.0000-0.5860 0.0000 (  5570 PWs)   bands (ev):

   -45.7165 -24.3871 -23.9442 -23.6387 -21.0700 -12.9988  -3.7814  -3.2418
    -3.0539  -2.9680  -1.5194  -0.8604   3.0051   6.1973   6.6626   7.1940
     8.0215   9.6905  10.1250  11.3991  11.6276  12.3360  13.1849  14.1720
    14.7324  14.7470

          k = 0.0625 0.0366 0.0000 (  5517 PWs)   bands (ev):

   -45.7931 -24.3210 -23.5128 -23.4658 -21.1467 -13.6480  -3.7231  -2.9902
    -2.9276  -1.7747  -0.3647  -0.1868   3.4122   5.2364   5.4744   5.6802
     6.4188   6.5526   7.7334   8.6280  10.9867  13.5673  14.0338  14.5373
    15.1265  16.9186

          k = 0.0625 0.1099 0.0000 (  5529 PWs)   bands (ev):

   -45.7874 -24.3006 -23.5727 -23.4896 -21.1292 -13.6035  -3.6547  -3.0474
    -2.9463  -1.7593  -0.5938  -0.2872   3.4145   5.2659   5.5014   5.7970
     6.4526   6.6228   7.9652   8.9501  11.2339  13.5854  13.7888  14.5687
    14.9382  16.7999

          k = 0.0625 0.1831 0.0000 (  5544 PWs)   bands (ev):

   -45.7767 -24.2639 -23.6913 -23.5181 -21.1032 -13.5196  -3.5414  -3.1564
    -2.9611  -1.7608  -1.0031  -0.4147   3.3870   5.2577   5.7208   5.8744
     6.6409   6.8320   8.3793   9.4218  11.6918  13.1253  13.6478  14.6826
    15.1706  16.5906

          k = 0.0625 0.2564 0.0000 (  5587 PWs)   bands (ev):

   -45.7627 -24.2216 -23.8333 -23.5515 -21.0797 -13.4060  -3.4503  -3.2467
    -2.9813  -1.8768  -1.3844  -0.5566   3.3089   5.3459   5.8911   6.1371
     6.8660   7.2385   8.8948   9.9193  12.0353  12.8948  13.3533  15.1058
    15.6831  16.3609

          k = 0.0625 0.3296 0.0000 (  5568 PWs)   bands (ev):

   -45.7475 -24.2021 -23.9499 -23.5866 -21.0655 -13.2777  -3.5032  -3.2090
    -3.0105  -2.2291  -1.5171  -0.6954   3.2075   5.5656   6.0199   6.5786
     7.0750   7.7882   9.4035  10.3808  11.8622  12.8542  13.7271  15.3653
    15.8540  16.1772

          k = 0.0625 0.4029 0.0000 (  5570 PWs)   bands (ev):

   -45.7334 -24.2501 -23.9824 -23.6187 -21.0614 -13.1537  -3.6067  -3.1579
    -3.0477  -2.5989  -1.5354  -0.8145   3.1274   5.8423   6.2308   6.9291
     7.3397   8.4434   9.7932  10.7555  11.8134  12.7054  14.3492  14.5854
    15.3382  16.1266

          k = 0.0625 0.4761 0.0000 (  5581 PWs)   bands (ev):

   -45.7226 -24.3258 -23.9628 -23.6431 -21.0635 -13.0548  -3.6937  -3.1971
    -3.0675  -2.8210  -1.5325  -0.9010   3.0862   6.0781   6.4695   7.0946
     7.6428   9.1807  10.0458  11.0524  11.9327  12.6899  13.4031  14.5515
    14.8517  15.5877

          k = 0.0625 0.5494 0.0000 (  5577 PWs)   bands (ev):

   -45.7167 -24.3726 -23.9445 -23.6563 -21.0665 -12.9997  -3.7452  -3.2734
    -3.0693  -2.8947  -1.5284  -0.9462   3.0732   6.2184   6.6149   7.1533
     7.8432   9.8164  10.2096  11.3207  11.8195  12.4188  13.1245  14.1770
    14.6842  14.9850

          k = 0.1250 0.0733 0.0000 (  5552 PWs)   bands (ev):

   -45.7851 -24.2921 -23.6136 -23.4832 -21.1220 -13.5848  -3.6260  -3.0909
    -2.9313  -1.7600  -0.7432  -0.2671   3.3965   5.2178   5.6209   5.8046
     6.5153   6.6772   8.0587   9.0692  11.3367  13.4320  13.7295  14.7945
    14.8338  16.8531

          k = 0.1250 0.1465 0.0000 (  5578 PWs)   bands (ev):

   -45.7772 -24.2652 -23.6977 -23.5070 -21.1034 -13.5224  -3.5430  -3.1652
    -2.9479  -1.7653  -1.0276  -0.3709   3.3716   5.2380   5.7669   5.8647
     6.6405   6.8460   8.3666   9.4122  11.6781  13.1032  13.6281  14.6891
    15.2126  16.6343

          k = 0.1250 0.2198 0.0000 (  5576 PWs)   bands (ev):

   -45.7654 -24.2281 -23.8114 -23.5449 -21.0820 -13.4265  -3.4396  -3.2542
    -2.9786  -1.8354  -1.3460  -0.5384   3.3308   5.2483   5.9087   6.1506
     6.7903   7.1923   8.8139   9.8563  12.1976  12.7053  13.3299  14.9051
    15.7212  16.3422

          k = 0.1250 0.2930 0.0000 (  5574 PWs)   bands (ev):

   -45.7513 -24.1988 -23.9212 -23.5904 -21.0654 -13.3088  -3.4333  -3.2511
    -3.0237  -2.0838  -1.5156  -0.7285   3.2836   5.3587   6.0168   6.5579
     6.9895   7.6967   9.3171  10.3313  12.2409  12.8533  13.1311  15.1422
    15.7526  16.6924

          k = 0.1250 0.3663 0.0000 (  5561 PWs)   bands (ev):

   -45.7372 -24.2157 -23.9760 -23.6362 -21.0572 -13.1859  -3.5232  -3.1742
    -3.0836  -2.4145  -1.5550  -0.9089   3.2492   5.6069   6.1479   6.8236
     7.2876   8.3627   9.7805  10.7844  12.0275  12.7354  13.7955  14.6793
    15.5254  16.1073

          k = 0.1250 0.4395 0.0000 (  5584 PWs)   bands (ev):

   -45.7253 -24.2789 -23.9672 -23.6752 -21.0560 -13.0772  -3.6054  -3.2079
    -3.0947  -2.6553  -1.5600  -1.0567   3.2400   5.9579   6.2672   6.9786
     7.5274   9.1752  10.1314  11.1495  12.0119  12.6842  13.8669  14.3101
    14.7770  16.0046

          k = 0.1250 0.5128 0.0000 (  5588 PWs)   bands (ev):

   -45.7173 -24.3344 -23.9451 -23.7014 -21.0579 -13.0021  -3.6598  -3.3166
    -3.0753  -2.7634  -1.5582  -1.1538   3.2479   6.2708   6.3855   7.0807
     7.6036  10.0032  10.3814  11.3805  12.0285  12.6644  13.0989  14.1605
    14.6326  15.5211

          k = 0.1250 0.5860 0.0000 (  5602 PWs)   bands (ev):

   -45.7144 -24.3550 -23.9356 -23.7107 -21.0591 -12.9752  -3.6790  -3.3652
    -3.0706  -2.7898  -1.5571  -1.1877   3.2537   6.3261   6.5271   7.1065
     7.6033  10.2998  10.6710  11.6135  11.7120  12.4016  13.1383  14.0042
    14.7556  14.9881

          k = 0.1250 0.0000 0.0000 (  5528 PWs)   bands (ev):

   -45.7879 -24.3018 -23.5821 -23.4756 -21.1294 -13.6063  -3.6566  -3.0624
    -2.9264  -1.7630  -0.6254  -0.2394   3.4045   5.1861   5.6090   5.7815
     6.4591   6.6407   7.9487   8.9341  11.2205  13.5554  13.7345  14.6756
    14.9464  16.8696

          k = 0.1875 0.1099 0.0000 (  5569 PWs)   bands (ev):

   -45.7731 -24.2512 -23.7545 -23.5071 -21.0942 -13.4875  -3.5086  -3.2093
    -2.9381  -1.7979  -1.2018  -0.3733   3.3213   5.2915   5.8319   5.9104
     6.8395   6.8989   8.5315   9.5812  11.7940  12.9701  13.5178  14.9651
    15.2913  16.6779

          k = 0.1875 0.1831 0.0000 (  5570 PWs)   bands (ev):

   -45.7640 -24.2250 -23.8401 -23.5333 -21.0798 -13.4133  -3.4530  -3.2567
    -2.9607  -1.8941  -1.4041  -0.4853   3.2751   5.3417   5.8915   6.1759
     6.8929   7.2300   8.8697   9.9071  12.0223  12.8478  13.3231  15.0821
    15.7590  16.4101

          k = 0.1875 0.2564 0.0000 (  5566 PWs)   bands (ev):

   -45.7521 -24.2010 -23.9242 -23.5806 -21.0653 -13.3133  -3.4355  -3.2540
    -3.0139  -2.0963  -1.5209  -0.6907   3.2640   5.3635   6.0169   6.5675
     7.0064   7.6900   9.3050  10.3283  12.2489  12.8282  13.0980  15.1296
    15.7618  16.6115

          k = 0.1875 0.3296 0.0000 (  5581 PWs)   bands (ev):

   -45.7392 -24.2049 -23.9711 -23.6409 -21.0550 -13.2007  -3.4810  -3.1897
    -3.0946  -2.3369  -1.5711  -0.9382   3.3000   5.4569   6.2010   6.7399
     7.2969   8.3378   9.7735  10.8002  12.3235  12.7000  13.3258  14.6139
    15.8699  15.9864

          k = 0.1875 0.4029 0.0000 (  5574 PWs)   bands (ev):

   -45.7272 -24.2453 -23.9679 -23.7017 -21.0501 -13.0922  -3.5397  -3.2073
    -3.1170  -2.5272  -1.5993  -1.1723   3.3705   5.6700   6.3606   6.8166
     7.5330   9.1720  10.2073  11.2587  12.2820  12.6033  13.8414  14.0636
    14.9635  15.7789

          k = 0.1875 0.4761 0.0000 (  5577 PWs)   bands (ev):

   -45.7180 -24.2904 -23.9457 -23.7510 -21.0492 -13.0061  -3.5902  -3.3138
    -3.0770  -2.6316  -1.6247  -1.3467   3.4470   5.9880   6.4083   6.9612
     7.5517  10.0845  10.5363  11.5788  12.1863  12.7190  13.4916  14.1105
    14.4637  15.6016

          k = 0.1875 0.5494 0.0000 (  5610 PWs)   bands (ev):

   -45.7131 -24.3170 -23.9295 -23.7788 -21.0497 -12.9584  -3.6216  -3.3802
    -3.0604  -2.6696  -1.6483  -1.4324   3.4964   6.2826   6.4075   7.0865
     7.4228  10.5324  11.1210  11.6912  12.0424  12.5737  13.1675  14.0758
    14.6048  15.3496

          k = 0.1875-0.0366 0.0000 (  5566 PWs)   bands (ev):

   -45.7780 -24.2669 -23.6980 -23.5005 -21.1033 -13.5267  -3.5451  -3.1696
    -2.9369  -1.7696  -1.0260  -0.3549   3.3646   5.1899   5.8269   5.8717
     6.6893   6.8126   8.3459   9.3987  11.6619  13.0946  13.6120  14.7098
    15.2523  16.6454

          k = 0.2500 0.1465 0.0000 (  5581 PWs)   bands (ev):

   -45.7588 -24.2147 -23.8971 -23.5349 -21.0732 -13.3681  -3.4808  -3.2441
    -2.9516  -2.0447  -1.4795  -0.4879   3.1971   5.4884   5.9424   6.2856
     7.0372   7.3985   9.0577  10.0746  11.8497  12.9022  13.4686  15.4434
    15.8801  16.3739

          k = 0.2500 0.2198 0.0000 (  5574 PWs)   bands (ev):

   -45.7497 -24.2075 -23.9552 -23.5631 -21.0649 -13.2906  -3.5084  -3.2149
    -2.9850  -2.2526  -1.5296  -0.6056   3.1618   5.5725   6.0133   6.6159
     7.1140   7.7670   9.3713  10.3737  11.8513  12.8125  13.6396  15.3042
    15.8569  16.1384

          k = 0.2500 0.2930 0.0000 (  5579 PWs)   bands (ev):

   -45.7389 -24.2196 -23.9799 -23.6189 -21.0564 -13.1960  -3.5275  -3.1728
    -3.0709  -2.4300  -1.5621  -0.8447   3.2155   5.6124   6.1488   6.8383
     7.3095   8.3507   9.7623  10.7882  12.0246  12.7144  13.7063  14.6408
    15.4368  16.1010

          k = 0.2500 0.3663 0.0000 (  5575 PWs)   bands (ev):

   -45.7281 -24.2470 -23.9701 -23.6930 -21.0495 -13.0978  -3.5413  -3.1976
    -3.1212  -2.5323  -1.6005  -1.1435   3.3548   5.6683   6.3659   6.8206
     7.5397   9.1666  10.2004  11.2673  12.2922  12.5941  13.7916  14.0174
    14.8899  15.8254

          k = 0.2500 0.4395 0.0000 (  5580 PWs)   bands (ev):

   -45.7190 -24.2704 -23.9470 -23.7693 -21.0451 -13.0115  -3.5706  -3.2923
    -3.0798  -2.5680  -1.6784  -1.4010   3.5359   5.8068   6.4871   6.8735
     7.5688  10.0919  10.5997  11.6448  12.4159  12.6516  13.7038  14.0703
    14.3055  15.1994

          k = 0.2500 0.5128 0.0000 (  5598 PWs)   bands (ev):

   -45.7128 -24.2819 -23.9273 -23.8281 -21.0429 -12.9523  -3.6223  -3.3190
    -3.0497  -2.5669  -1.8211  -1.5154   3.6889   6.0284   6.4540   7.0192
     7.4311  10.6589  11.1545  11.7157  12.5360  12.9447  13.3345  13.9412
    14.3849  14.9945

          k = 0.2500 0.5860 0.0000 (  5600 PWs)   bands (ev):

   -45.7107 -24.2846 -23.9197 -23.8508 -21.0423 -12.9311  -3.6483  -3.3179
    -3.0384  -2.5604  -1.8966  -1.5397   3.7484   6.1711   6.4297   7.0360
     7.3591  10.6728  11.7022  12.0916  12.1257  12.7559  13.3878  13.9125
    14.5301  15.2666

          k = 0.2500-0.0733 0.0000 (  5572 PWs)   bands (ev):

   -45.7649 -24.2264 -23.8357 -23.5317 -21.0790 -13.4186  -3.4538  -3.2559
    -2.9547  -1.8904  -1.3941  -0.4893   3.2772   5.3151   5.8987   6.2114
     6.9130   7.2107   8.8498   9.8968  12.0166  12.8561  13.3239  15.0997
    15.7394  16.3927

          k = 0.2500 0.0000 0.0000 (  5584 PWs)   bands (ev):

   -45.7670 -24.2314 -23.8082 -23.5357 -21.0811 -13.4360  -3.4424  -3.2570
    -2.9625  -1.8397  -1.3371  -0.5172   3.3202   5.2096   5.9287   6.2046
     6.8286   7.1651   8.7767   9.8373  12.1711  12.7146  13.3181  14.9094
    15.7381  16.3437

          k = 0.3125 0.1831 0.0000 (  5578 PWs)   bands (ev):

   -45.7445 -24.2238 -23.9830 -23.5624 -21.0629 -13.2433  -3.5757  -3.1813
    -2.9709  -2.4515  -1.5392  -0.5930   3.0773   5.7289   6.1746   6.7178
     7.2407   7.9752   9.5162  10.4916  11.7030  12.7173  14.1126  15.0509
    15.8975  16.0676

          k = 0.3125 0.2564 0.0000 (  5570 PWs)   bands (ev):

   -45.7365 -24.2543 -23.9885 -23.5913 -21.0597 -13.1724  -3.6133  -3.1562
    -3.0213  -2.6135  -1.5503  -0.7132   3.0768   5.8560   6.2156   6.9618
     7.3732   8.4167   9.7634  10.7585  11.7813  12.6576  14.1951  14.4865
    15.3734  16.0600

          k = 0.3125 0.3296 0.0000 (  5585 PWs)   bands (ev):

   -45.7279 -24.2818 -23.9730 -23.6529 -21.0541 -13.0932  -3.6108  -3.1889
    -3.0958  -2.6603  -1.5705  -0.9780   3.2004   5.9577   6.2677   6.9982
     7.5419   9.1582  10.1151  11.1684  11.9863  12.6505  13.7542  14.2125
    14.7354  15.9440

          k = 0.3125 0.4029 0.0000 (  5580 PWs)   bands (ev):

   -45.7199 -24.2914 -23.9500 -23.7366 -21.0475 -13.0176  -3.5906  -3.3045
    -3.0787  -2.6311  -1.6221  -1.3071   3.4249   5.9709   6.4227   6.9690
     7.5594  10.0640  10.5283  11.6123  12.1960  12.6918  13.3699  14.0773
    14.3794  15.6505

          k = 0.3125 0.4761 0.0000 (  5583 PWs)   bands (ev):

   -45.7137 -24.2813 -23.9297 -23.8221 -21.0418 -12.9581  -3.6191  -3.3170
    -3.0500  -2.5653  -1.8047  -1.5149   3.6831   6.0114   6.4626   7.0231
     7.4363  10.6337  11.1529  11.7361  12.5782  12.9031  13.2403  13.9763
    14.3457  15.0169

          k = 0.3125 0.5494 0.0000 (  5590 PWs)   bands (ev):

   -45.7104 -24.2650 -23.9180 -23.8803 -21.0386 -12.9253  -3.6661  -3.2699
    -3.0235  -2.4855  -2.0454  -1.5643   3.8651   6.0884   6.4387   6.9544
     7.4102  10.6733  11.6966  12.0798  12.8762  13.0166  13.1540  13.6136
    14.5543  15.2423

          k = 0.3125-0.1099 0.0000 (  5584 PWs)   bands (ev):

   -45.7506 -24.2065 -23.9510 -23.5643 -21.0637 -13.2960  -3.5054  -3.2146
    -2.9812  -2.2356  -1.5275  -0.6195   3.1717   5.5658   6.0213   6.6195
     7.1154   7.7568   9.3536  10.3640  11.8579  12.8162  13.6644  15.3091
    15.8238  16.1382

          k = 0.3125-0.0366 0.0000 (  5590 PWs)   bands (ev):

   -45.7539 -24.2019 -23.9166 -23.5789 -21.0634 -13.3240  -3.4321  -3.2544
    -3.0036  -2.0750  -1.5146  -0.7004   3.2715   5.3412   6.0409   6.5857
     7.0142   7.6710   9.2698  10.3118  12.2627  12.8333  13.1103  15.1161
    15.7029  16.6213

          k = 0.3750 0.2198 0.0000 (  5571 PWs)   bands (ev):

   -45.7323 -24.2944 -23.9851 -23.5856 -21.0616 -13.1327  -3.6805  -3.1508
    -2.9916  -2.7812  -1.5464  -0.6756   2.9982   5.9504   6.4551   7.0505
     7.5217   8.6141   9.8192  10.8184  11.7728  12.6187  13.7579  14.6670
    15.4523  15.5442

          k = 0.3750 0.2930 0.0000 (  5581 PWs)   bands (ev):

   -45.7265 -24.3269 -23.9711 -23.6134 -21.0605 -13.0788  -3.7022  -3.1806
    -3.0511  -2.8199  -1.5510  -0.7942   3.0349   6.0974   6.4494   7.1312
     7.6490   9.1511  10.0225  11.0510  11.8724  12.6174  13.2882  14.4720
    14.8280  15.5578

          k = 0.3750 0.3663 0.0000 (  5592 PWs)   bands (ev):

   -45.7206 -24.3343 -23.9528 -23.6769 -21.0548 -13.0232  -3.6658  -3.2973
    -3.0728  -2.7542  -1.5717  -1.0713   3.2090   6.2875   6.3626   7.1086
     7.6024   9.9667  10.3783  11.3993  11.9667  12.5830  13.0306  14.1189
    14.5445  15.4812

          k = 0.3750 0.4395 0.0000 (  5582 PWs)   bands (ev):

   -45.7157 -24.3149 -23.9357 -23.7624 -21.0467 -12.9749  -3.6186  -3.3698
    -3.0595  -2.6589  -1.6373  -1.4012   3.4771   6.2455   6.4290   7.1075
     7.4227  10.4767  11.1246  11.7412  11.9764  12.5307  13.1093  14.0105
    14.5634  15.3009

          k = 0.3750 0.5128 0.0000 (  5587 PWs)   bands (ev):

   -45.7124 -24.2802 -23.9237 -23.8437 -21.0400 -12.9420  -3.6417  -3.3116
    -3.0373  -2.5487  -1.8746  -1.5477   3.7482   6.1451   6.4337   7.0419
     7.3682  10.6196  11.7387  12.0036  12.0929  12.8317  13.3391  13.8975
    14.5277  15.2221

          k = 0.3750 0.5860 0.0000 (  5590 PWs)   bands (ev):

   -45.7112 -24.2607 -23.9194 -23.8802 -21.0373 -12.9304  -3.6630  -3.2648
    -3.0220  -2.4710  -2.0474  -1.5704   3.8721   6.0844   6.4301   6.9524
     7.4157  10.6435  11.7137  11.9660  12.9557  12.9711  13.2956  13.5286
    14.5304  15.2119

          k = 0.3750-0.1465 0.0000 (  5575 PWs)   bands (ev):

   -45.7373 -24.2498 -23.9879 -23.5936 -21.0583 -13.1772  -3.6089  -3.1566
    -3.0185  -2.5951  -1.5508  -0.7292   3.0893   5.8613   6.2291   6.9501
     7.3632   8.4005   9.7442  10.7478  11.7879  12.6588  14.2189  14.5213
    15.3230  16.0887

          k = 0.3750-0.0733 0.0000 (  5593 PWs)   bands (ev):

   -45.7406 -24.2134 -23.9767 -23.6215 -21.0538 -13.2063  -3.5201  -3.1739
    -3.0617  -2.3958  -1.5621  -0.8699   3.2350   5.6071   6.1659   6.8459
     7.2873   8.3257   9.7266  10.7696  12.0436  12.7189  13.7512  14.6221
    15.4488  16.0586

          k = 0.3750 0.0000 0.0000 (  5588 PWs)   bands (ev):

   -45.7418 -24.2003 -23.9672 -23.6378 -21.0518 -13.2164  -3.4738  -3.1903
    -3.0796  -2.3016  -1.5718  -0.9467   3.3105   5.4449   6.2269   6.7554
     7.2800   8.3068   9.7248  10.7799  12.3665  12.7084  13.3107  14.5790
    15.8125  15.9544

          k = 0.4375 0.2564 0.0000 (  5577 PWs)   bands (ev):

   -45.7242 -24.3602 -23.9643 -23.6009 -21.0642 -13.0562  -3.7606  -3.1891
    -3.0075  -2.9386  -1.5438  -0.7278   2.9614   6.1315   6.6318   7.1947
     7.8468   9.2690  10.0237  11.0879  11.8271  12.4656  13.0562  14.4137
    14.8192  15.0664

          k = 0.4375 0.3296 0.0000 (  5565 PWs)   bands (ev):

   -45.7211 -24.3709 -23.9544 -23.6259 -21.0624 -13.0273  -3.7547  -3.2519
    -3.0544  -2.8815  -1.5491  -0.8396   3.0238   6.2346   6.6111   7.1910
     7.8201   9.7714  10.1984  11.2910  11.7159  12.3267  13.0759  14.1133
    14.6064  15.0350

          k = 0.4375 0.4029 0.0000 (  5585 PWs)   bands (ev):

   -45.7183 -24.3516 -23.9445 -23.6865 -21.0549 -12.9998  -3.6835  -3.3432
    -3.0657  -2.7712  -1.5718  -1.1103   3.2201   6.3345   6.5235   7.1383
     7.5819  10.2254  10.6797  11.5841  11.6391  12.3424  13.0948  13.9414
    14.6861  14.9923

          k = 0.4375 0.4761 0.0000 (  5581 PWs)   bands (ev):

   -45.7162 -24.3105 -23.9365 -23.7643 -21.0457 -12.9783  -3.6167  -3.3637
    -3.0582  -2.6485  -1.6371  -1.4132   3.4858   6.2668   6.4125   7.1238
     7.3963  10.4543  11.0345  11.7283  12.0505  12.5401  13.1065  14.0269
    14.5756  15.3231

          k = 0.4375 0.5494 0.0000 (  5578 PWs)   bands (ev):

   -45.7150 -24.2720 -23.9316 -23.8247 -21.0395 -12.9665  -3.6150  -3.3040
    -3.0473  -2.5387  -1.8115  -1.5309   3.6998   6.0207   6.4392   7.0486
     7.4085  10.5924  11.0307  11.7586  12.5380  12.9878  13.2954  13.9535
    14.3430  15.0316

          k = 0.4375-0.1831 0.0000 (  5572 PWs)   bands (ev):

   -45.7270 -24.3227 -23.9717 -23.6153 -21.0595 -13.0821  -3.6981  -3.1803
    -3.0496  -2.8075  -1.5517  -0.8065   3.0447   6.0961   6.4785   7.1198
     7.6356   9.1206   9.9997  11.0429  11.8811  12.6131  13.3035  14.5148
    14.8003  15.5786

          k = 0.4375-0.1099 0.0000 (  5590 PWs)   bands (ev):

   -45.7292 -24.2726 -23.9737 -23.6568 -21.0517 -13.1013  -3.6032  -3.1854
    -3.0905  -2.6325  -1.5716  -1.0044   3.2210   5.9701   6.2744   7.0109
     7.5037   9.1154  10.0700  11.1482  12.0039  12.6446  13.7849  14.2605
    14.7413  15.9616

          k = 0.4375-0.0366 0.0000 (  5575 PWs)   bands (ev):

   -45.7303 -24.2351 -23.9706 -23.6957 -21.0459 -13.1116  -3.5325  -3.1861
    -3.1169  -2.4902  -1.6022  -1.1722   3.3785   5.6664   6.3682   6.8528
     7.4953   9.1172  10.1400  11.2430  12.3234  12.5982  13.8088  14.0308
    14.9247  15.7743

          k =-0.5000-0.2930 0.0000 (  5572 PWs)   bands (ev):

   -45.7213 -24.3848 -23.9549 -23.6063 -21.0657 -13.0287  -3.7918  -3.2243
    -3.0136  -2.9699  -1.5421  -0.7456   2.9519   6.2101   6.6755   7.2328
     7.9893   9.6346  10.1081  11.3582  11.5123  12.2455  13.1245  14.0938
    14.6130  14.8958

          k =-0.5000-0.2198 0.0000 (  5585 PWs)   bands (ev):

   -45.7213 -24.3694 -23.9547 -23.6266 -21.0620 -13.0285  -3.7530  -3.2515
    -3.0540  -2.8775  -1.5494  -0.8442   3.0274   6.2305   6.6304   7.1841
     7.8160   9.7445  10.1896  11.2826  11.7387  12.3255  13.0695  14.1230
    14.6367  15.0168

          k =-0.5000-0.1465 0.0000 (  5588 PWs)   bands (ev):

   -45.7214 -24.3284 -23.9538 -23.6796 -21.0533 -13.0278  -3.6608  -3.2926
    -3.0708  -2.7404  -1.5721  -1.0878   3.2217   6.2794   6.3950   7.1134
     7.5730   9.9183  10.3284  11.3850  12.0035  12.5826  13.0400  14.1433
    14.5758  15.4897

          k =-0.5000-0.0733 0.0000 (  5587 PWs)   bands (ev):

   -45.7214 -24.2803 -23.9518 -23.7407 -21.0447 -13.0270  -3.5845  -3.2912
    -3.0756  -2.6012  -1.6226  -1.3361   3.4468   5.9871   6.4041   7.0079
     7.5091  10.0088  10.4437  11.5929  12.2112  12.7011  13.4234  14.0965
    14.4216  15.6506

          k =-0.5000 0.0000 0.0000 (  5570 PWs)   bands (ev):

   -45.7214 -24.2572 -23.9501 -23.7699 -21.0412 -13.0268  -3.5637  -3.2724
    -3.0774  -2.5282  -1.6781  -1.4251   3.5564   5.8053   6.4647   6.9284
     7.5200  10.0272  10.5000  11.6446  12.3815  12.7285  13.7106  14.0599
    14.3195  15.2107

     highest occupied, lowest unoccupied level (ev):     3.8721    5.1861

!    total energy              =    -446.24464110 Ry
     total all-electron energy =     -8320.714921 Ry
     estimated scf accuracy    <          3.2E-12 Ry

     The total energy is the sum of the following terms:
     one-electron contribution =    -302.38494049 Ry
     hartree contribution      =     159.23473894 Ry
     xc contribution           =     -38.49686771 Ry
     ewald contribution        =       2.02641677 Ry
     one-center paw contrib.   =    -266.62398861 Ry

     convergence has been achieved in   4 iterations

     negative rho (up, down):  8.686E-05 0.000E+00

     Forces acting on atoms (cartesian axes, Ry/au):

     atom    1 type  1   force =     0.00000000    0.00007130   -0.00000372
     atom    2 type  2   force =     0.00000000   -0.00011274    0.00000340
     atom    3 type  3   force =     0.00000000    0.00004144    0.00000032
     The non-local contrib.  to forces
     atom    1 type  1   force =     0.00000000   -0.00308226   -0.02209046
     atom    2 type  2   force =     0.00000000   -0.02032356   -1.07191150
     atom    3 type  3   force =     0.00000000   -0.00096954    0.22279060
     The ionic contribution  to forces
     atom    1 type  1   force =    -0.00000001   -0.16371236   -0.27846347
     atom    2 type  2   force =     0.00000001    0.11142273   26.29296234
     atom    3 type  3   force =     0.00000000    0.05228963  -26.01449887
     The local contribution  to forces
     atom    1 type  1   force =     0.00000000    0.16676357    0.29668993
     atom    2 type  2   force =     0.00000032   -0.09125239  -25.22460858
     atom    3 type  3   force =     0.00000004   -0.05123663   25.79917472
     The core correction contribution to forces
     atom    1 type  1   force =     0.00000094    0.00012348    0.00376002
     atom    2 type  2   force =     0.00000050    0.00006195    0.00346769
     atom    3 type  3   force =     0.00006522   -0.00002091   -0.00755928
     The Hubbard contrib.    to forces
     atom    1 type  1   force =     0.00000000    0.00000000    0.00000000
     atom    2 type  2   force =     0.00000000    0.00000000    0.00000000
     atom    3 type  3   force =     0.00000000    0.00000000    0.00000000
     The SCF correction term to forces
     atom    1 type  1   force =    -0.00000000    0.00000008    0.00000814
     atom    2 type  2   force =     0.00000000   -0.00000026    0.00000133
     atom    3 type  3   force =    -0.00000000    0.00000011    0.00000103

     Total force =     0.000140     Total SCF correction =     0.000008
     Energy error            =      2.4E-08 Ry
     Gradient error          =      1.1E-04 Ry/Bohr

     number of scf cycles    =   6
     number of bfgs steps    =   5

     energy             old  =    -446.2446410728 Ry
     energy             new  =    -446.2446410969 Ry

     CASE: energy            _new < energy            _old


     WARNING: bfgs curvature condition failed, Theta= 0.923
     new trust radius        =       0.0001412554 bohr
     new conv_thr            =            1.0E-10 Ry


ATOMIC_POSITIONS (angstrom)
Zr            0.0000000000       -0.0019849999        9.5703858086
F            -0.0000000020        1.8811011022       10.8956969519
Cl           -0.0000000020        1.8839046063        7.8200921480



     Writing config-only to output data dir ./tmp/ZrFCl.save/
     NEW-OLD atomic charge density approx. for the potential

     Check: negative core charge=   -0.000005

     negative rho (up, down):  8.687E-05 0.000E+00

     total cpu time spent up to now is       68.2 secs

     Self-consistent Calculation

     iteration #  1     ecut=    65.00 Ry     beta= 0.70
     Davidson diagonalization with overlap
     ethr =  1.00E-06,  avg # of iterations =  1.4

     Threshold (ethr) on eigenvalues was too large:
     Diagonalizing with lowered threshold

     Davidson diagonalization with overlap
     ethr =  7.30E-12,  avg # of iterations =  4.0

     negative rho (up, down):  8.687E-05 0.000E+00

     total cpu time spent up to now is       71.3 secs

     total energy              =    -446.24464112 Ry
     estimated scf accuracy    <          1.1E-09 Ry

     iteration #  2     ecut=    65.00 Ry     beta= 0.70
     Davidson diagonalization with overlap
     ethr =  4.11E-12,  avg # of iterations =  2.0

     negative rho (up, down):  8.687E-05 0.000E+00

     total cpu time spent up to now is       72.6 secs

     total energy              =    -446.24464112 Ry
     estimated scf accuracy    <          2.4E-10 Ry

     iteration #  3     ecut=    65.00 Ry     beta= 0.70
     Davidson diagonalization with overlap
     ethr =  9.21E-13,  avg # of iterations =  2.0

     negative rho (up, down):  8.687E-05 0.000E+00

     total cpu time spent up to now is       73.9 secs

     total energy              =    -446.24464112 Ry
     estimated scf accuracy    <          4.0E-10 Ry

     iteration #  4     ecut=    65.00 Ry     beta= 0.70
     Davidson diagonalization with overlap
     ethr =  9.21E-13,  avg # of iterations =  1.1

     negative rho (up, down):  8.687E-05 0.000E+00

     total cpu time spent up to now is       75.1 secs

     End of self-consistent calculation

          k = 0.0000 0.0000 0.0000 (  5509 PWs)   bands (ev):

   -45.7959 -24.3313 -23.4793 -23.4562 -21.1567 -13.6698  -3.7594  -2.9548
    -2.9225  -1.7856  -0.2300  -0.1444   3.4089   5.2495   5.4401   5.5916
     6.4420   6.5157   7.6166   8.4375  10.8667  13.4948  14.2547  14.4834
    15.3224  16.8963

          k = 0.0000 0.0733 0.0000 (  5513 PWs)   bands (ev):

   -45.7929 -24.3206 -23.4948 -23.4855 -21.1465 -13.6470  -3.7224  -2.9647
    -2.9550  -1.7733  -0.2984  -0.2599   3.4167   5.3074   5.3914   5.6864
     6.4697   6.4909   7.7398   8.6366  10.9916  13.5701  14.1794  14.3563
    15.1500  16.8607

          k = 0.0000 0.1465 0.0000 (  5517 PWs)   bands (ev):

   -45.7844 -24.2904 -23.6000 -23.5030 -21.1216 -13.5810  -3.6235  -3.0715
    -2.9572  -1.7548  -0.6928  -0.3420   3.4144   5.3167   5.4850   5.8206
     6.5436   6.6221   8.0789   9.0884  11.3557  13.4768  13.7821  14.6589
    14.8463  16.7546

          k = 0.0000 0.2198 0.0000 (  5578 PWs)   bands (ev):

   -45.7716 -24.2477 -23.7453 -23.5292 -21.0939 -13.4793  -3.5048  -3.1946
    -2.9652  -1.7850  -1.1684  -0.4568   3.3559   5.3391   5.7864   5.8637
     6.8001   6.9119   8.5653   9.6028  11.8244  13.0124  13.5593  15.0080
    15.1518  16.5778

          k = 0.0000 0.2930 0.0000 (  5568 PWs)   bands (ev):

   -45.7564 -24.2092 -23.8918 -23.5598 -21.0736 -13.3544  -3.4763  -3.2341
    -2.9813  -2.0226  -1.4636  -0.5813   3.2427   5.4966   5.9677   6.2000
     6.9915   7.4243   9.1000  10.0926  11.8648  12.9550  13.5339  15.5051
    15.7662  16.3665

          k = 0.0000 0.3663 0.0000 (  5564 PWs)   bands (ev):

   -45.7412 -24.2190 -23.9782 -23.5901 -21.0645 -13.2238  -3.5707  -3.1770
    -3.0042  -2.4361  -1.5238  -0.6953   3.1271   5.7156   6.1980   6.6678
     7.1947   8.0093   9.5593  10.5002  11.7274  12.7664  14.2311  15.1803
    15.7911  16.1551

          k = 0.0000 0.4395 0.0000 (  5574 PWs)   bands (ev):

   -45.7282 -24.2935 -23.9772 -23.6157 -21.0645 -13.1079  -3.6739  -3.1546
    -3.0284  -2.7740  -1.5274  -0.7848   3.0496   5.9322   6.4673   7.0187
     7.4961   8.6562   9.8564  10.8256  11.8229  12.6826  13.8966  14.7806
    15.3421  15.6549

          k = 0.0000 0.5128 0.0000 (  5570 PWs)   bands (ev):

   -45.7196 -24.3618 -23.9543 -23.6327 -21.0681 -13.0276  -3.7514  -3.2029
    -3.0469  -2.9351  -1.5221  -0.8412   3.0140   6.1158   6.6280   7.1583
     7.8610   9.3172  10.0561  11.1130  11.9075  12.5734  13.1264  14.5121
    14.9131  14.9462

          k = 0.0000-0.5860 0.0000 (  5570 PWs)   bands (ev):

   -45.7165 -24.3872 -23.9442 -23.6387 -21.0700 -12.9989  -3.7815  -3.2418
    -3.0538  -2.9680  -1.5194  -0.8604   3.0050   6.1975   6.6626   7.1939
     8.0215   9.6906  10.1250  11.3991  11.6277  12.3361  13.1850  14.1719
    14.7324  14.7470

          k = 0.0625 0.0366 0.0000 (  5517 PWs)   bands (ev):

   -45.7931 -24.3210 -23.5128 -23.4658 -21.1467 -13.6480  -3.7231  -2.9901
    -2.9277  -1.7747  -0.3647  -0.1869   3.4122   5.2365   5.4744   5.6803
     6.4187   6.5527   7.7334   8.6280  10.9867  13.5672  14.0338  14.5373
    15.1266  16.9186

          k = 0.0625 0.1099 0.0000 (  5529 PWs)   bands (ev):

   -45.7873 -24.3006 -23.5727 -23.4896 -21.1292 -13.6035  -3.6547  -3.0475
    -2.9463  -1.7593  -0.5938  -0.2872   3.4145   5.2659   5.5014   5.7971
     6.4526   6.6227   7.9652   8.9501  11.2339  13.5854  13.7888  14.5687
    14.9382  16.7999

          k = 0.0625 0.1831 0.0000 (  5544 PWs)   bands (ev):

   -45.7767 -24.2638 -23.6913 -23.5180 -21.1032 -13.5196  -3.5414  -3.1565
    -2.9611  -1.7608  -1.0031  -0.4147   3.3869   5.2577   5.7209   5.8745
     6.6409   6.8319   8.3793   9.4218  11.6918  13.1254  13.6478  14.6826
    15.1705  16.5906

          k = 0.0625 0.2564 0.0000 (  5587 PWs)   bands (ev):

   -45.7627 -24.2216 -23.8334 -23.5515 -21.0797 -13.4060  -3.4503  -3.2467
    -2.9812  -1.8768  -1.3845  -0.5566   3.3088   5.3459   5.8912   6.1372
     6.8659   7.2386   8.8948   9.9193  12.0353  12.8949  13.3533  15.1058
    15.6831  16.3609

          k = 0.0625 0.3296 0.0000 (  5568 PWs)   bands (ev):

   -45.7475 -24.2021 -23.9499 -23.5866 -21.0655 -13.2778  -3.5032  -3.2090
    -3.0105  -2.2292  -1.5171  -0.6955   3.2074   5.5656   6.0200   6.5786
     7.0749   7.7883   9.4035  10.3808  11.8623  12.8542  13.7271  15.3653
    15.8540  16.1772

          k = 0.0625 0.4029 0.0000 (  5570 PWs)   bands (ev):

   -45.7334 -24.2501 -23.9824 -23.6187 -21.0614 -13.1537  -3.6068  -3.1578
    -3.0476  -2.5989  -1.5354  -0.8145   3.1273   5.8423   6.2309   6.9291
     7.3396   8.4434   9.7933  10.7555  11.8134  12.7054  14.3493  14.5853
    15.3382  16.1266

          k = 0.0625 0.4761 0.0000 (  5581 PWs)   bands (ev):

   -45.7226 -24.3259 -23.9627 -23.6431 -21.0635 -13.0548  -3.6937  -3.1970
    -3.0675  -2.8209  -1.5325  -0.9010   3.0861   6.0782   6.4696   7.0946
     7.6427   9.1808  10.0458  11.0524  11.9327  12.6899  13.4031  14.5515
    14.8517  15.5876

          k = 0.0625 0.5494 0.0000 (  5577 PWs)   bands (ev):

   -45.7167 -24.3726 -23.9444 -23.6563 -21.0664 -12.9997  -3.7452  -3.2734
    -3.0692  -2.8946  -1.5284  -0.9462   3.0730   6.2185   6.6149   7.1533
     7.8432   9.8165  10.2096  11.3207  11.8195  12.4188  13.1246  14.1769
    14.6842  14.9850

          k = 0.1250 0.0733 0.0000 (  5552 PWs)   bands (ev):

   -45.7851 -24.2921 -23.6136 -23.4831 -21.1220 -13.5848  -3.6260  -3.0909
    -2.9313  -1.7601  -0.7432  -0.2672   3.3966   5.2179   5.6209   5.8046
     6.5152   6.6773   8.0587   9.0692  11.3367  13.4319  13.7295  14.7946
    14.8338  16.8531

          k = 0.1250 0.1465 0.0000 (  5578 PWs)   bands (ev):

   -45.7772 -24.2652 -23.6976 -23.5070 -21.1034 -13.5224  -3.5430  -3.1652
    -2.9479  -1.7653  -1.0276  -0.3709   3.3716   5.2380   5.7668   5.8648
     6.6405   6.8460   8.3666   9.4122  11.6781  13.1033  13.6281  14.6891
    15.2126  16.6343

          k = 0.1250 0.2198 0.0000 (  5576 PWs)   bands (ev):

   -45.7653 -24.2281 -23.8114 -23.5449 -21.0820 -13.4265  -3.4396  -3.2542
    -2.9786  -1.8354  -1.3460  -0.5384   3.3307   5.2483   5.9087   6.1507
     6.7903   7.1924   8.8139   9.8563  12.1976  12.7053  13.3299  14.9051
    15.7212  16.3421

          k = 0.1250 0.2930 0.0000 (  5574 PWs)   bands (ev):

   -45.7513 -24.1988 -23.9212 -23.5904 -21.0654 -13.3088  -3.4333  -3.2511
    -3.0237  -2.0839  -1.5156  -0.7286   3.2835   5.3587   6.0169   6.5579
     6.9895   7.6967   9.3171  10.3313  12.2410  12.8533  13.1311  15.1422
    15.7526  16.6924

          k = 0.1250 0.3663 0.0000 (  5561 PWs)   bands (ev):

   -45.7372 -24.2157 -23.9760 -23.6362 -21.0571 -13.1860  -3.5232  -3.1741
    -3.0835  -2.4145  -1.5550  -0.9089   3.2491   5.6069   6.1481   6.8235
     7.2876   8.3628   9.7805  10.7844  12.0275  12.7354  13.7955  14.6793
    15.5253  16.1074

          k = 0.1250 0.4395 0.0000 (  5584 PWs)   bands (ev):

   -45.7253 -24.2790 -23.9672 -23.6752 -21.0560 -13.0773  -3.6054  -3.2078
    -3.0947  -2.6554  -1.5601  -1.0567   3.2399   5.9580   6.2674   6.9785
     7.5274   9.1753  10.1315  11.1496  12.0120  12.6842  13.8669  14.3101
    14.7770  16.0046

          k = 0.1250 0.5128 0.0000 (  5588 PWs)   bands (ev):

   -45.7172 -24.3344 -23.9451 -23.7014 -21.0579 -13.0021  -3.6598  -3.3166
    -3.0753  -2.7634  -1.5583  -1.1539   3.2478   6.2709   6.3855   7.0807
     7.6036  10.0032  10.3814  11.3806  12.0286  12.6643  13.0990  14.1605
    14.6326  15.5210

          k = 0.1250 0.5860 0.0000 (  5602 PWs)   bands (ev):

   -45.7144 -24.3550 -23.9356 -23.7107 -21.0591 -12.9752  -3.6790  -3.3652
    -3.0706  -2.7898  -1.5572  -1.1877   3.2536   6.3262   6.5271   7.1065
     7.6033  10.2998  10.6710  11.6135  11.7120  12.4016  13.1384  14.0042
    14.7556  14.9880

          k = 0.1250 0.0000 0.0000 (  5528 PWs)   bands (ev):

   -45.7878 -24.3018 -23.5821 -23.4756 -21.1294 -13.6063  -3.6566  -3.0623
    -2.9265  -1.7630  -0.6254  -0.2394   3.4046   5.1861   5.6089   5.7815
     6.4589   6.6409   7.9487   8.9340  11.2205  13.5554  13.7345  14.6757
    14.9466  16.8696

          k = 0.1875 0.1099 0.0000 (  5569 PWs)   bands (ev):

   -45.7730 -24.2512 -23.7545 -23.5071 -21.0942 -13.4875  -3.5086  -3.2093
    -2.9381  -1.7979  -1.2018  -0.3734   3.3214   5.2915   5.8318   5.9104
     6.8396   6.8989   8.5315   9.5812  11.7940  12.9701  13.5178  14.9652
    15.2913  16.6780

          k = 0.1875 0.1831 0.0000 (  5570 PWs)   bands (ev):

   -45.7640 -24.2249 -23.8401 -23.5333 -21.0798 -13.4134  -3.4530  -3.2567
    -2.9607  -1.8941  -1.4042  -0.4853   3.2751   5.3417   5.8914   6.1760
     6.8930   7.2300   8.8697   9.9070  12.0223  12.8478  13.3231  15.0821
    15.7590  16.4100

          k = 0.1875 0.2564 0.0000 (  5566 PWs)   bands (ev):

   -45.7521 -24.2009 -23.9242 -23.5806 -21.0653 -13.3133  -3.4355  -3.2540
    -3.0139  -2.0963  -1.5209  -0.6907   3.2640   5.3635   6.0169   6.5675
     7.0064   7.6901   9.3050  10.3283  12.2489  12.8282  13.0980  15.1295
    15.7618  16.6115

          k = 0.1875 0.3296 0.0000 (  5581 PWs)   bands (ev):

   -45.7392 -24.2049 -23.9711 -23.6408 -21.0550 -13.2007  -3.4811  -3.1897
    -3.0945  -2.3370  -1.5711  -0.9382   3.2999   5.4570   6.2011   6.7399
     7.2969   8.3379   9.7736  10.8002  12.3235  12.7000  13.3258  14.6139
    15.8699  15.9864

          k = 0.1875 0.4029 0.0000 (  5574 PWs)   bands (ev):

   -45.7272 -24.2453 -23.9679 -23.7017 -21.0501 -13.0922  -3.5398  -3.2073
    -3.1170  -2.5272  -1.5993  -1.1724   3.3705   5.6701   6.3607   6.8165
     7.5330   9.1720  10.2073  11.2587  12.2820  12.6033  13.8413  14.0636
    14.9635  15.7789

          k = 0.1875 0.4761 0.0000 (  5577 PWs)   bands (ev):

   -45.7180 -24.2905 -23.9457 -23.7510 -21.0492 -13.0061  -3.5902  -3.3138
    -3.0770  -2.6317  -1.6247  -1.3467   3.4469   5.9881   6.4084   6.9612
     7.5517  10.0846  10.5363  11.5788  12.1863  12.7191  13.4916  14.1105
    14.4637  15.6016

          k = 0.1875 0.5494 0.0000 (  5610 PWs)   bands (ev):

   -45.7131 -24.3170 -23.9295 -23.7787 -21.0497 -12.9584  -3.6216  -3.3801
    -3.0604  -2.6696  -1.6484  -1.4324   3.4963   6.2826   6.4076   7.0865
     7.4228  10.5324  11.1210  11.6912  12.0424  12.5737  13.1676  14.0758
    14.6049  15.3496

          k = 0.1875-0.0366 0.0000 (  5566 PWs)   bands (ev):

   -45.7780 -24.2668 -23.6979 -23.5005 -21.1033 -13.5267  -3.5452  -3.1695
    -2.9370  -1.7696  -1.0259  -0.3549   3.3647   5.1900   5.8269   5.8715
     6.6893   6.8128   8.3459   9.3987  11.6619  13.0946  13.6120  14.7098
    15.2524  16.6455

          k = 0.2500 0.1465 0.0000 (  5581 PWs)   bands (ev):

   -45.7588 -24.2147 -23.8971 -23.5349 -21.0732 -13.3681  -3.4808  -3.2441
    -2.9516  -2.0448  -1.4795  -0.4879   3.1972   5.4884   5.9423   6.2856
     7.0373   7.3985   9.0577  10.0746  11.8497  12.9022  13.4686  15.4434
    15.8801  16.3738

          k = 0.2500 0.2198 0.0000 (  5574 PWs)   bands (ev):

   -45.7497 -24.2075 -23.9552 -23.5631 -21.0649 -13.2906  -3.5084  -3.2149
    -2.9850  -2.2526  -1.5296  -0.6056   3.1618   5.5725   6.0132   6.6160
     7.1141   7.7670   9.3713  10.3737  11.8513  12.8125  13.6396  15.3042
    15.8570  16.1383

          k = 0.2500 0.2930 0.0000 (  5579 PWs)   bands (ev):

   -45.7389 -24.2196 -23.9799 -23.6189 -21.0564 -13.1960  -3.5275  -3.1728
    -3.0709  -2.4300  -1.5621  -0.8447   3.2156   5.6124   6.1487   6.8383
     7.3095   8.3507   9.7623  10.7882  12.0246  12.7144  13.7063  14.6408
    15.4368  16.1010

          k = 0.2500 0.3663 0.0000 (  5575 PWs)   bands (ev):

   -45.7281 -24.2470 -23.9700 -23.6930 -21.0495 -13.0978  -3.5413  -3.1976
    -3.1212  -2.5323  -1.6005  -1.1435   3.3548   5.6683   6.3659   6.8206
     7.5396   9.1666  10.2005  11.2673  12.2922  12.5941  13.7916  14.0174
    14.8899  15.8253

          k = 0.2500 0.4395 0.0000 (  5580 PWs)   bands (ev):

   -45.7189 -24.2704 -23.9470 -23.7693 -21.0451 -13.0115  -3.5706  -3.2923
    -3.0798  -2.5680  -1.6784  -1.4010   3.5359   5.8068   6.4872   6.8735
     7.5688  10.0919  10.5997  11.6448  12.4159  12.6516  13.7038  14.0703
    14.3054  15.1994

          k = 0.2500 0.5128 0.0000 (  5598 PWs)   bands (ev):

   -45.7128 -24.2819 -23.9273 -23.8281 -21.0429 -12.9523  -3.6223  -3.3190
    -3.0497  -2.5669  -1.8211  -1.5154   3.6888   6.0284   6.4541   7.0192
     7.4311  10.6589  11.1545  11.7157  12.5360  12.9448  13.3346  13.9412
    14.3849  14.9945

          k = 0.2500 0.5860 0.0000 (  5600 PWs)   bands (ev):

   -45.7107 -24.2846 -23.9196 -23.8507 -21.0423 -12.9312  -3.6483  -3.3179
    -3.0383  -2.5605  -1.8966  -1.5397   3.7484   6.1711   6.4298   7.0359
     7.3591  10.6729  11.7022  12.0916  12.1256  12.7560  13.3879  13.9125
    14.5301  15.2665

          k = 0.2500-0.0733 0.0000 (  5572 PWs)   bands (ev):

   -45.7649 -24.2264 -23.8356 -23.5317 -21.0790 -13.4186  -3.4538  -3.2559
    -2.9548  -1.8904  -1.3941  -0.4894   3.2773   5.3151   5.8987   6.2113
     6.9131   7.2107   8.8498   9.8968  12.0166  12.8561  13.3239  15.0997
    15.7394  16.3929

          k = 0.2500 0.0000 0.0000 (  5584 PWs)   bands (ev):

   -45.7670 -24.2314 -23.8081 -23.5357 -21.0812 -13.4360  -3.4425  -3.2570
    -2.9626  -1.8397  -1.3371  -0.5172   3.3203   5.2097   5.9287   6.2045
     6.8287   7.1651   8.7767   9.8373  12.1711  12.7146  13.3182  14.9094
    15.7381  16.3439

          k = 0.3125 0.1831 0.0000 (  5578 PWs)   bands (ev):

   -45.7445 -24.2238 -23.9830 -23.5624 -21.0629 -13.2433  -3.5757  -3.1813
    -2.9710  -2.4515  -1.5392  -0.5930   3.0774   5.7290   6.1745   6.7178
     7.2408   7.9752   9.5162  10.4916  11.7029  12.7173  14.1125  15.0509
    15.8975  16.0676

          k = 0.3125 0.2564 0.0000 (  5570 PWs)   bands (ev):

   -45.7365 -24.2543 -23.9885 -23.5913 -21.0597 -13.1725  -3.6133  -3.1562
    -3.0213  -2.6135  -1.5503  -0.7132   3.0769   5.8561   6.2155   6.9619
     7.3732   8.4167   9.7635  10.7585  11.7813  12.6576  14.1950  14.4866
    15.3734  16.0599

          k = 0.3125 0.3296 0.0000 (  5585 PWs)   bands (ev):

   -45.7279 -24.2818 -23.9729 -23.6529 -21.0541 -13.0932  -3.6108  -3.1889
    -3.0958  -2.6604  -1.5705  -0.9780   3.2004   5.9577   6.2677   6.9983
     7.5418   9.1583  10.1152  11.1684  11.9863  12.6506  13.7542  14.2125
    14.7353  15.9440

          k = 0.3125 0.4029 0.0000 (  5580 PWs)   bands (ev):

   -45.7199 -24.2914 -23.9500 -23.7366 -21.0475 -13.0176  -3.5906  -3.3045
    -3.0787  -2.6311  -1.6221  -1.3071   3.4249   5.9709   6.4227   6.9690
     7.5594  10.0640  10.5283  11.6123  12.1961  12.6918  13.3699  14.0773
    14.3793  15.6505

          k = 0.3125 0.4761 0.0000 (  5583 PWs)   bands (ev):

   -45.7137 -24.2813 -23.9296 -23.8221 -21.0418 -12.9581  -3.6191  -3.3170
    -3.0501  -2.5653  -1.8047  -1.5149   3.6831   6.0114   6.4626   7.0231
     7.4364  10.6337  11.1530  11.7361  12.5782  12.9031  13.2403  13.9763
    14.3456  15.0169

          k = 0.3125 0.5494 0.0000 (  5590 PWs)   bands (ev):

   -45.7104 -24.2650 -23.9180 -23.8803 -21.0386 -12.9253  -3.6662  -3.2699
    -3.0236  -2.4855  -2.0454  -1.5643   3.8651   6.0884   6.4387   6.9544
     7.4103  10.6733  11.6966  12.0798  12.8762  13.0166  13.1540  13.6136
    14.5543  15.2423

          k = 0.3125-0.1099 0.0000 (  5584 PWs)   bands (ev):

   -45.7506 -24.2065 -23.9510 -23.5643 -21.0637 -13.2960  -3.5054  -3.2146
    -2.9813  -2.2356  -1.5275  -0.6196   3.1718   5.5658   6.0213   6.6195
     7.1155   7.7568   9.3536  10.3640  11.8579  12.8163  13.6644  15.3092
    15.8238  16.1382

          k = 0.3125-0.0366 0.0000 (  5590 PWs)   bands (ev):

   -45.7539 -24.2018 -23.9165 -23.5789 -21.0634 -13.3240  -3.4321  -3.2544
    -3.0037  -2.0750  -1.5146  -0.7004   3.2716   5.3413   6.0409   6.5856
     7.0143   7.6710   9.2698  10.3118  12.2627  12.8333  13.1103  15.1161
    15.7029  16.6213

          k = 0.3750 0.2198 0.0000 (  5571 PWs)   bands (ev):

   -45.7323 -24.2944 -23.9851 -23.5855 -21.0616 -13.1327  -3.6805  -3.1508
    -2.9917  -2.7812  -1.5464  -0.6756   2.9982   5.9504   6.4551   7.0506
     7.5218   8.6141   9.8192  10.8184  11.7728  12.6187  13.7579  14.6670
    15.4523  15.5442

          k = 0.3750 0.2930 0.0000 (  5581 PWs)   bands (ev):

   -45.7265 -24.3269 -23.9711 -23.6134 -21.0606 -13.0788  -3.7022  -3.1806
    -3.0512  -2.8199  -1.5510  -0.7943   3.0349   6.0974   6.4494   7.1313
     7.6490   9.1512  10.0225  11.0510  11.8724  12.6175  13.2881  14.4720
    14.8280  15.5578

          k = 0.3750 0.3663 0.0000 (  5592 PWs)   bands (ev):

   -45.7206 -24.3343 -23.9528 -23.6769 -21.0548 -13.0232  -3.6658  -3.2973
    -3.0728  -2.7543  -1.5717  -1.0713   3.2090   6.2876   6.3626   7.1087
     7.6024   9.9668  10.3783  11.3993  11.9668  12.5830  13.0306  14.1189
    14.5444  15.4813

          k = 0.3750 0.4395 0.0000 (  5582 PWs)   bands (ev):

   -45.7157 -24.3149 -23.9357 -23.7624 -21.0467 -12.9749  -3.6186  -3.3699
    -3.0595  -2.6589  -1.6373  -1.4012   3.4771   6.2454   6.4290   7.1075
     7.4227  10.4766  11.1246  11.7412  11.9765  12.5308  13.1093  14.0105
    14.5633  15.3009

          k = 0.3750 0.5128 0.0000 (  5587 PWs)   bands (ev):

   -45.7123 -24.2802 -23.9237 -23.8437 -21.0400 -12.9421  -3.6417  -3.3117
    -3.0373  -2.5488  -1.8747  -1.5477   3.7483   6.1451   6.4337   7.0420
     7.3682  10.6196  11.7388  12.0036  12.0930  12.8317  13.3390  13.8976
    14.5277  15.2222

          k = 0.3750 0.5860 0.0000 (  5590 PWs)   bands (ev):

   -45.7112 -24.2607 -23.9194 -23.8802 -21.0373 -12.9304  -3.6630  -3.2648
    -3.0220  -2.4710  -2.0474  -1.5704   3.8721   6.0845   6.4301   6.9525
     7.4157  10.6435  11.7137  11.9660  12.9557  12.9710  13.2956  13.5286
    14.5304  15.2120

          k = 0.3750-0.1465 0.0000 (  5575 PWs)   bands (ev):

   -45.7373 -24.2497 -23.9879 -23.5936 -21.0583 -13.1772  -3.6089  -3.1566
    -3.0186  -2.5950  -1.5508  -0.7293   3.0894   5.8614   6.2290   6.9501
     7.3634   8.4004   9.7442  10.7478  11.7879  12.6588  14.2189  14.5214
    15.3230  16.0888

          k = 0.3750-0.0733 0.0000 (  5593 PWs)   bands (ev):

   -45.7406 -24.2133 -23.9767 -23.6215 -21.0538 -13.2063  -3.5201  -3.1739
    -3.0618  -2.3958  -1.5621  -0.8700   3.2351   5.6072   6.1659   6.8460
     7.2874   8.3256   9.7265  10.7696  12.0436  12.7189  13.7512  14.6221
    15.4488  16.0586

          k = 0.3750 0.0000 0.0000 (  5588 PWs)   bands (ev):

   -45.7418 -24.2002 -23.9671 -23.6378 -21.0518 -13.2164  -3.4738  -3.1904
    -3.0797  -2.3016  -1.5718  -0.9467   3.3107   5.4449   6.2269   6.7555
     7.2801   8.3067   9.7248  10.7799  12.3664  12.7085  13.3107  14.5790
    15.8125  15.9543

          k = 0.4375 0.2564 0.0000 (  5577 PWs)   bands (ev):

   -45.7242 -24.3602 -23.9643 -23.6009 -21.0642 -13.0562  -3.7606  -3.1891
    -3.0076  -2.9387  -1.5438  -0.7279   2.9615   6.1315   6.6318   7.1947
     7.8468   9.2690  10.0237  11.0879  11.8271  12.4656  13.0561  14.4137
    14.8192  15.0664

          k = 0.4375 0.3296 0.0000 (  5565 PWs)   bands (ev):

   -45.7211 -24.3709 -23.9544 -23.6259 -21.0624 -13.0273  -3.7547  -3.2519
    -3.0545  -2.8815  -1.5491  -0.8397   3.0238   6.2346   6.6111   7.1911
     7.8201   9.7715  10.1984  11.2910  11.7159  12.3267  13.0759  14.1133
    14.6063  15.0351

          k = 0.4375 0.4029 0.0000 (  5585 PWs)   bands (ev):

   -45.7183 -24.3516 -23.9445 -23.6865 -21.0549 -12.9998  -3.6835  -3.3433
    -3.0658  -2.7712  -1.5718  -1.1104   3.2201   6.3344   6.5235   7.1384
     7.5819  10.2254  10.6797  11.5841  11.6391  12.3424  13.0948  13.9414
    14.6861  14.9924

          k = 0.4375 0.4761 0.0000 (  5581 PWs)   bands (ev):

   -45.7162 -24.3104 -23.9365 -23.7643 -21.0457 -12.9783  -3.6167  -3.3637
    -3.0582  -2.6486  -1.6371  -1.4132   3.4858   6.2668   6.4125   7.1238
     7.3963  10.4543  11.0345  11.7282  12.0505  12.5400  13.1064  14.0269
    14.5757  15.3231

          k = 0.4375 0.5494 0.0000 (  5578 PWs)   bands (ev):

   -45.7150 -24.2720 -23.9315 -23.8247 -21.0395 -12.9665  -3.6151  -3.3040
    -3.0473  -2.5387  -1.8115  -1.5309   3.6999   6.0207   6.4391   7.0488
     7.4085  10.5924  11.0307  11.7585  12.5380  12.9877  13.2953  13.9535
    14.3431  15.0317

          k = 0.4375-0.1831 0.0000 (  5572 PWs)   bands (ev):

   -45.7270 -24.3227 -23.9717 -23.6153 -21.0595 -13.0821  -3.6981  -3.1804
    -3.0496  -2.8075  -1.5517  -0.8066   3.0448   6.0961   6.4785   7.1198
     7.6357   9.1205   9.9998  11.0429  11.8811  12.6132  13.3034  14.5148
    14.8004  15.5787

          k = 0.4375-0.1099 0.0000 (  5590 PWs)   bands (ev):

   -45.7292 -24.2725 -23.9737 -23.6568 -21.0517 -13.1014  -3.6032  -3.1855
    -3.0905  -2.6325  -1.5716  -1.0044   3.2211   5.9701   6.2743   7.0109
     7.5039   9.1153  10.0699  11.1482  12.0039  12.6446  13.7849  14.2605
    14.7414  15.9617

          k = 0.4375-0.0366 0.0000 (  5575 PWs)   bands (ev):

   -45.7303 -24.2350 -23.9706 -23.6957 -21.0459 -13.1116  -3.5325  -3.1862
    -3.1169  -2.4902  -1.6022  -1.1723   3.3786   5.6664   6.3681   6.8529
     7.4954   9.1171  10.1399  11.2430  12.3234  12.5982  13.8088  14.0308
    14.9247  15.7744

          k =-0.5000-0.2930 0.0000 (  5572 PWs)   bands (ev):

   -45.7213 -24.3848 -23.9549 -23.6063 -21.0657 -13.0288  -3.7918  -3.2243
    -3.0137  -2.9699  -1.5421  -0.7457   2.9520   6.2101   6.6755   7.2328
     7.9893   9.6345  10.1081  11.3583  11.5123  12.2455  13.1244  14.0938
    14.6130  14.8958

          k =-0.5000-0.2198 0.0000 (  5585 PWs)   bands (ev):

   -45.7213 -24.3693 -23.9547 -23.6266 -21.0620 -13.0285  -3.7530  -3.2515
    -3.0541  -2.8775  -1.5494  -0.8442   3.0275   6.2304   6.6304   7.1841
     7.8161   9.7444  10.1896  11.2826  11.7387  12.3254  13.0695  14.1231
    14.6368  15.0168

          k =-0.5000-0.1465 0.0000 (  5588 PWs)   bands (ev):

   -45.7213 -24.3284 -23.9538 -23.6796 -21.0533 -13.0278  -3.6608  -3.2926
    -3.0709  -2.7404  -1.5721  -1.0878   3.2218   6.2794   6.3950   7.1134
     7.5732   9.9183  10.3284  11.3850  12.0034  12.5826  13.0399  14.1434
    14.5759  15.4897

          k =-0.5000-0.0733 0.0000 (  5587 PWs)   bands (ev):

   -45.7213 -24.2802 -23.9518 -23.7407 -21.0447 -13.0271  -3.5845  -3.2913
    -3.0756  -2.6012  -1.6226  -1.3361   3.4469   5.9872   6.4040   7.0080
     7.5092  10.0087  10.4437  11.5928  12.2111  12.7011  13.4234  14.0966
    14.4217  15.6506

          k =-0.5000 0.0000 0.0000 (  5570 PWs)   bands (ev):

   -45.7213 -24.2571 -23.9501 -23.7699 -21.0412 -13.0268  -3.5637  -3.2725
    -3.0775  -2.5282  -1.6781  -1.4251   3.5565   5.8053   6.4647   6.9286
     7.5201  10.0272  10.5000  11.6445  12.3815  12.7284  13.7107  14.0599
    14.3195  15.2107

     highest occupied, lowest unoccupied level (ev):     3.8721    5.1861

!    total energy              =    -446.24464112 Ry
     total all-electron energy =     -8320.714921 Ry
     estimated scf accuracy    <          1.3E-12 Ry

     The total energy is the sum of the following terms:
     one-electron contribution =    -302.38596106 Ry
     hartree contribution      =     159.23525447 Ry
     xc contribution           =     -38.49687476 Ry
     ewald contribution        =       2.02692910 Ry
     one-center paw contrib.   =    -266.62398887 Ry

     convergence has been achieved in   4 iterations

     negative rho (up, down):  8.687E-05 0.000E+00

     Forces acting on atoms (cartesian axes, Ry/au):

     atom    1 type  1   force =     0.00000000    0.00005338   -0.00000077
     atom    2 type  2   force =     0.00000000   -0.00009708    0.00000454
     atom    3 type  3   force =     0.00000000    0.00004371   -0.00000376
     The non-local contrib.  to forces
     atom    1 type  1   force =     0.00000000   -0.00309951   -0.02209083
     atom    2 type  2   force =     0.00000000   -0.02038073   -1.07190993
     atom    3 type  3   force =     0.00000000   -0.00096827    0.22278885
     The ionic contribution  to forces
     atom    1 type  1   force =    -0.00000001   -0.16423792   -0.27845716
     atom    2 type  2   force =     0.00000001    0.11190075   26.29301940
     atom    3 type  3   force =     0.00000000    0.05233717  -26.01456225
     The local contribution  to forces
     atom    1 type  1   force =     0.00000000    0.16728828    0.29669279
     atom    2 type  2   force =     0.00000032   -0.09165774  -25.22466388
     atom    3 type  3   force =     0.00000004   -0.05128290   25.79923588
     The core correction contribution to forces
     atom    1 type  1   force =     0.00000094    0.00012354    0.00376015
     atom    2 type  2   force =     0.00000049    0.00006208    0.00346768
     atom    3 type  3   force =     0.00006518   -0.00002123   -0.00755917
     The Hubbard contrib.    to forces
     atom    1 type  1   force =     0.00000000    0.00000000    0.00000000
     atom    2 type  2   force =     0.00000000    0.00000000    0.00000000
     atom    3 type  3   force =     0.00000000    0.00000000    0.00000000
     The SCF correction term to forces
     atom    1 type  1   force =    -0.00000000    0.00000008    0.00000270
     atom    2 type  2   force =     0.00000000   -0.00000036   -0.00000030
     atom    3 type  3   force =    -0.00000000    0.00000004    0.00000135

     Total force =     0.000119     Total SCF correction =     0.000003
     Energy error            =      2.2E-08 Ry
     Gradient error          =      9.7E-05 Ry/Bohr

     bfgs converged in   7 scf cycles and   6 bfgs steps
     (criteria: energy <  1.0E-05 Ry, force <  1.0E-04 Ry/Bohr)

     End of BFGS Geometry Optimization

     Final energy             =    -446.2446411191 Ry

     File ./tmp/ZrFCl.bfgs deleted, as requested
Begin final coordinates

ATOMIC_POSITIONS (angstrom)
Zr            0.0000000000       -0.0019849999        9.5703858086
F            -0.0000000020        1.8811011022       10.8956969519
Cl           -0.0000000020        1.8839046063        7.8200921480
End final coordinates



     Writing all to output data dir ./tmp/ZrFCl.save/

     init_run     :      0.57s CPU      0.61s WALL (       1 calls)
     electrons    :     69.74s CPU     71.51s WALL (       7 calls)
     update_pot   :      0.67s CPU      0.72s WALL (       6 calls)
     forces       :      1.51s CPU      1.52s WALL (       7 calls)

     Called by init_run:
     wfcinit      :      0.42s CPU      0.43s WALL (       1 calls)
     potinit      :      0.07s CPU      0.08s WALL (       1 calls)
     hinit0       :      0.06s CPU      0.07s WALL (       1 calls)

     Called by electrons:
     c_bands      :     59.25s CPU     60.38s WALL (      50 calls)
     sum_band     :      8.18s CPU      8.40s WALL (      50 calls)
     v_of_rho     :      0.15s CPU      0.15s WALL (      50 calls)
     newd         :      0.42s CPU      0.45s WALL (      50 calls)
     PAW_pot      :      2.32s CPU      2.80s WALL (      56 calls)
     mix_rho      :      0.01s CPU      0.01s WALL (      50 calls)

     Called by c_bands:
     init_us_2    :      0.49s CPU      0.50s WALL (    8322 calls)
     init_us_2:cp :      0.49s CPU      0.50s WALL (    8322 calls)
     cegterg      :     57.99s CPU     59.10s WALL (    3650 calls)

     Called by *egterg:
     cdiaghg      :      9.19s CPU      9.27s WALL (   11264 calls)
     h_psi        :     33.34s CPU     34.28s WALL (   12286 calls)
     s_psi        :      2.31s CPU      2.34s WALL (   12286 calls)
     g_psi        :      0.08s CPU      0.09s WALL (    8563 calls)

     Called by h_psi:
     h_psi:calbec :      3.83s CPU      3.93s WALL (   12286 calls)
     vloc_psi     :     27.13s CPU     27.93s WALL (   12286 calls)
     add_vuspsi   :      2.30s CPU      2.34s WALL (   12286 calls)

     General routines
     calbec       :      6.58s CPU      6.73s WALL (   18418 calls)
     fft          :      0.08s CPU      0.08s WALL (     640 calls)
     ffts         :      0.01s CPU      0.01s WALL (      50 calls)
     fftw         :     30.60s CPU     31.48s WALL (  533830 calls)

     Parallel routines

     PWSCF        :   1m13.70s CPU   1m15.86s WALL


   This run was terminated on:   9:12:32  18Sep2026            

=------------------------------------------------------------------------------=
   JOB DONE.
=------------------------------------------------------------------------------=
Note: The following floating-point exceptions are signalling: IEEE_INVALID_FLAG
