
     Program PWSCF v.7.2 starts on  7Aug2026 at 16:46:24 

     This program is part of the open-source Quantum ESPRESSO suite
     for quantum simulation of materials; please cite
         "P. Giannozzi et al., J. Phys.:Condens. Matter 21 395502 (2009);
         "P. Giannozzi et al., J. Phys.:Condens. Matter 29 465901 (2017);
         "P. Giannozzi et al., J. Chem. Phys. 152 154105 (2020);
          URL http://www.quantum-espresso.org", 
     in publications or presentations arising from this work. More details at
     http://www.quantum-espresso.org/quote

     Parallel version (MPI), running on    32 processors

     MPI processes distributed on     1 nodes
     222529 MiB available memory on the printing compute node when the environment starts

     Waiting for input...
     Reading input from standard input

     Current dimensions of program PWSCF are:
     Max number of different atomic species (ntypx) = 10
     Max number of k-points (npk) =  40000
     Max angular momentum in pseudopotentials (lmaxx) =  4
     file Zr.pbe-spn-kjpaw_psl.1.0.0.UPF: wavefunction(s)  4S 4P renormalized
     file F.pbe-n-kjpaw_psl.1.0.0.UPF: wavefunction(s)  2S 2P renormalized
     Message from routine setup:
     using ibrav=0 with symmetry is DISCOURAGED, use correct ibrav instead

     R & G space division:  proc/nbgrp/npool/nimage =      32
     Subspace diagonalization in iterative solution of the eigenvalue problem:
     a serial algorithm will be used


     Parallelization info
     --------------------
     sticks:   dense  smooth     PW     G-vecs:    dense   smooth      PW
     Min          18      18      5                 2326     2326     367
     Max          19      19      6                 2369     2369     396
     Sum         595     595    187                75107    75107   12119

     Using Slab Decomposition



     bravais-lattice index     =            0
     lattice parameter (alat)  =       5.8415  a.u.
     unit-cell volume          =    1066.2186 (a.u.)^3
     number of atoms/cell      =            3
     number of atomic types    =            2
     number of electrons       =        26.00
     number of Kohn-Sham states=           26
     kinetic-energy cutoff     =      65.0000  Ry
     charge density cutoff     =     260.0000  Ry
     scf convergence threshold =      1.0E-06
     mixing beta               =       0.7000
     number of iterations used =            8  plain     mixing
     Exchange-correlation= SLA  PW   PBX  PBC
                           (   1   4   3   4   0   0   0)

     celldm(1)=   5.841455  celldm(2)=   0.000000  celldm(3)=   0.000000
     celldm(4)=   0.000000  celldm(5)=   0.000000  celldm(6)=   0.000000

     crystal axes: (cart. coord. in units of alat)
               a(1) = (   1.000000  -0.000000  -0.000000 )  
               a(2) = (  -0.500000   0.866025  -0.000000 )  
               a(3) = (  -0.000000   0.000000   6.176644 )  

     reciprocal axes: (cart. coord. in units 2 pi/alat)
               b(1) = (  1.000000  0.577350  0.000000 )  
               b(2) = (  0.000000  1.154701  0.000000 )  
               b(3) = (  0.000000  0.000000  0.161900 )  


     PseudoPot. # 1 for Zr read from file:
     /mgpfs/home/rabdillah/repo/qe/pseudo/Zr.pbe-spn-kjpaw_psl.1.0.0.UPF
     MD5 check sum: 02112c41713a0468aff2bb39ef194e36
     Pseudo is Projector augmented-wave + core cor, Zval = 12.0
     Generated using &quot;atomic&quot; code by A. Dal Corso  v.6.2.2
     Shape of augmentation charge: PSQ
     Using radial grid of 1225 points,  6 beta functions with: 
                l(1) =   0
                l(2) =   0
                l(3) =   1
                l(4) =   1
                l(5) =   2
                l(6) =   2
     Q(r) pseudized with 0 coefficients 


     PseudoPot. # 2 for F  read from file:
     /mgpfs/home/rabdillah/repo/qe/pseudo/F.pbe-n-kjpaw_psl.1.0.0.UPF
     MD5 check sum: 66d718ea72839a4268ab2a9540e8cdd4
     Pseudo is Projector augmented-wave + core cor, Zval =  7.0
     Generated using &quot;atomic&quot; code by A. Dal Corso  v.6.3
     Shape of augmentation charge: PSQ
     Using radial grid of 1105 points,  4 beta functions with: 
                l(1) =   0
                l(2) =   0
                l(3) =   1
                l(4) =   1
     Q(r) pseudized with 0 coefficients 


     atomic species   valence    mass     pseudopotential
        Zr            12.00    91.22400     Zr( 1.00)
        F              7.00    18.99800     F ( 1.00)

     12 Sym. Ops. (no inversion) found



   Cartesian axes

     site n.     atom                  positions (alat units)
         1           Zr  tau(   1) = (   0.0000000   0.0000000   3.0883221  )
         2           F   tau(   2) = (  -0.0000000   0.5773503   3.5387422  )
         3           F   tau(   3) = (  -0.0000000   0.5773503   2.6379019  )

     number of k points=   102

     Number of k-points >= 100: set verbosity='high' to print them.

     Dense  grid:    75107 G-vectors     FFT dimensions: (  30,  30, 192)

     Estimated max dynamical RAM per process >      22.84 MB

     Estimated total dynamical RAM >     730.78 MB

     Check: negative core charge=   -0.000002

     Initial potential from superposition of free atoms

     starting charge      25.9978, renormalised to      26.0000

     negative rho (up, down):  1.122E-03 0.000E+00
     Starting wfcs are   21 randomized atomic wfcs +    5 random wfcs
     Checking if some PAW data can be deallocated... 

     total cpu time spent up to now is        1.3 secs

     Self-consistent Calculation

     iteration #  1     ecut=    65.00 Ry     beta= 0.70
     Davidson diagonalization with overlap
     ethr =  1.00E-02,  avg # of iterations =  8.2

     Threshold (ethr) on eigenvalues was too large:
     Diagonalizing with lowered threshold

     Davidson diagonalization with overlap
     ethr =  9.91E-04,  avg # of iterations =  1.0

     negative rho (up, down):  1.301E-03 0.000E+00

     total cpu time spent up to now is        8.3 secs

     total energy              =    -426.15784730 Ry
     estimated scf accuracy    <       0.26016306 Ry

     iteration #  2     ecut=    65.00 Ry     beta= 0.70
     Davidson diagonalization with overlap
     ethr =  1.00E-03,  avg # of iterations =  2.5

     negative rho (up, down):  1.309E-03 0.000E+00

     total cpu time spent up to now is       11.3 secs

     total energy              =    -426.16921688 Ry
     estimated scf accuracy    <       0.37617866 Ry

     iteration #  3     ecut=    65.00 Ry     beta= 0.70
     Davidson diagonalization with overlap
     ethr =  1.00E-03,  avg # of iterations =  2.0

     negative rho (up, down):  1.373E-03 0.000E+00

     total cpu time spent up to now is       14.1 secs

     total energy              =    -426.25817715 Ry
     estimated scf accuracy    <       0.01412391 Ry

     iteration #  4     ecut=    65.00 Ry     beta= 0.70
     Davidson diagonalization with overlap
     ethr =  5.43E-05,  avg # of iterations =  4.6

     negative rho (up, down):  1.436E-03 0.000E+00

     total cpu time spent up to now is       17.4 secs

     total energy              =    -426.26034317 Ry
     estimated scf accuracy    <       0.00040087 Ry

     iteration #  5     ecut=    65.00 Ry     beta= 0.70
     Davidson diagonalization with overlap
     c_bands:  1 eigenvalues not converged
     ethr =  1.54E-06,  avg # of iterations =  5.3

     negative rho (up, down):  1.438E-03 0.000E+00

     total cpu time spent up to now is       21.1 secs

     total energy              =    -426.26043599 Ry
     estimated scf accuracy    <       0.00000700 Ry

     iteration #  6     ecut=    65.00 Ry     beta= 0.70
     Davidson diagonalization with overlap
     ethr =  2.69E-08,  avg # of iterations =  3.3

     negative rho (up, down):  1.439E-03 0.000E+00

     total cpu time spent up to now is       24.0 secs

     End of self-consistent calculation

     Number of k-points >= 100: set verbosity='high' to print the bands.

     highest occupied, lowest unoccupied level (ev):    -0.4554    1.1086

!    total energy              =    -426.26043901 Ry
     total all-electron energy =     -7597.474854 Ry
     estimated scf accuracy    <       0.00000044 Ry

     The total energy is the sum of the following terms:
     one-electron contribution =   -1155.02750315 Ry
     hartree contribution      =     582.41217168 Ry
     xc contribution           =     -37.26097697 Ry
     ewald contribution        =     415.97864110 Ry
     one-center paw contrib.   =    -232.36277168 Ry

     convergence has been achieved in   6 iterations

     Writing all to output data dir ./out/ZrF2.save/

     init_run     :      1.01s CPU      1.06s WALL (       1 calls)
     electrons    :     22.36s CPU     22.73s WALL (       1 calls)

     Called by init_run:
     wfcinit      :      0.81s CPU      0.84s WALL (       1 calls)
     potinit      :      0.07s CPU      0.08s WALL (       1 calls)
     hinit0       :      0.09s CPU      0.09s WALL (       1 calls)

     Called by electrons:
     c_bands      :     19.78s CPU     20.05s WALL (       7 calls)
     sum_band     :      2.26s CPU      2.33s WALL (       7 calls)
     v_of_rho     :      0.03s CPU      0.03s WALL (       7 calls)
     newd         :      0.06s CPU      0.06s WALL (       7 calls)
     PAW_pot      :      0.28s CPU      0.31s WALL (       7 calls)
     mix_rho      :      0.00s CPU      0.00s WALL (       7 calls)

     Called by c_bands:
     init_us_2    :      0.12s CPU      0.12s WALL (    1530 calls)
     init_us_2:cp :      0.12s CPU      0.12s WALL (    1530 calls)
     cegterg      :     19.44s CPU     19.69s WALL (     714 calls)

     Called by *egterg:
     cdiaghg      :      2.88s CPU      2.91s WALL (    3366 calls)
     h_psi        :     11.37s CPU     11.58s WALL (    3570 calls)
     s_psi        :      0.59s CPU      0.60s WALL (    3570 calls)
     g_psi        :      0.03s CPU      0.03s WALL (    2754 calls)

     Called by h_psi:
     h_psi:calbec :      1.20s CPU      1.22s WALL (    3570 calls)
     vloc_psi     :      9.54s CPU      9.72s WALL (    3570 calls)
     add_vuspsi   :      0.59s CPU      0.60s WALL (    3570 calls)

     General routines
     calbec       :      1.61s CPU      1.64s WALL (    4284 calls)
     fft          :      0.02s CPU      0.02s WALL (      78 calls)
     ffts         :      0.00s CPU      0.00s WALL (       7 calls)
     fftw         :     10.62s CPU     10.84s WALL (  119320 calls)

     Parallel routines

     PWSCF        :     24.06s CPU     24.83s WALL


   This run was terminated on:  16:46:49   7Aug2026            

=------------------------------------------------------------------------------=
   JOB DONE.
=------------------------------------------------------------------------------=
