
     Program PWSCF v.7.2 starts on  7Aug2026 at 16:46:51 

     This program is part of the open-source Quantum ESPRESSO suite
     for quantum simulation of materials; please cite
         "P. Giannozzi et al., J. Phys.:Condens. Matter 21 395502 (2009);
         "P. Giannozzi et al., J. Phys.:Condens. Matter 29 465901 (2017);
         "P. Giannozzi et al., J. Chem. Phys. 152 154105 (2020);
          URL http://www.quantum-espresso.org", 
     in publications or presentations arising from this work. More details at
     http://www.quantum-espresso.org/quote

     Parallel version (MPI), running on    32 processors

     MPI processes distributed on     1 nodes
     223033 MiB available memory on the printing compute node when the environment starts

     Waiting for input...
     Reading input from standard input

     Current dimensions of program PWSCF are:
     Max number of different atomic species (ntypx) = 10
     Max number of k-points (npk) =  40000
     Max angular momentum in pseudopotentials (lmaxx) =  4

     Atomic positions and unit cell read from directory:
     ./out/ZrF2.save/
     Atomic positions from file used, from input discarded

     file Zr.pbe-spn-kjpaw_psl.1.0.0.UPF: wavefunction(s)  4S 4P renormalized
     file F.pbe-n-kjpaw_psl.1.0.0.UPF: wavefunction(s)  2S 2P renormalized
     Message from routine setup:
     using ibrav=0 with symmetry is DISCOURAGED, use correct ibrav instead

     R & G space division:  proc/nbgrp/npool/nimage =      32
     Subspace diagonalization in iterative solution of the eigenvalue problem:
     a serial algorithm will be used


     Parallelization info
     --------------------
     sticks:   dense  smooth     PW     G-vecs:    dense   smooth      PW
     Min          18      18      5                 2326     2326     369
     Max          19      19      6                 2369     2369     396
     Sum         595     595    187                75107    75107   12179

     Using Slab Decomposition



     bravais-lattice index     =            0
     lattice parameter (alat)  =       5.8415  a.u.
     unit-cell volume          =    1066.2186 (a.u.)^3
     number of atoms/cell      =            3
     number of atomic types    =            2
     number of electrons       =        26.00
     number of Kohn-Sham states=           26
     kinetic-energy cutoff     =      65.0000  Ry
     charge density cutoff     =     260.0000  Ry
     Exchange-correlation= SLA  PW   PBX  PBC
                           (   1   4   3   4   0   0   0)

     celldm(1)=   5.841455  celldm(2)=   0.000000  celldm(3)=   0.000000
     celldm(4)=   0.000000  celldm(5)=   0.000000  celldm(6)=   0.000000

     crystal axes: (cart. coord. in units of alat)
               a(1) = (   1.000000  -0.000000  -0.000000 )  
               a(2) = (  -0.500000   0.866025  -0.000000 )  
               a(3) = (  -0.000000   0.000000   6.176644 )  

     reciprocal axes: (cart. coord. in units 2 pi/alat)
               b(1) = (  1.000000  0.577350  0.000000 )  
               b(2) = (  0.000000  1.154701  0.000000 )  
               b(3) = (  0.000000  0.000000  0.161900 )  


     PseudoPot. # 1 for Zr read from file:
     /mgpfs/home/rabdillah/repo/qe/pseudo/Zr.pbe-spn-kjpaw_psl.1.0.0.UPF
     MD5 check sum: 02112c41713a0468aff2bb39ef194e36
     Pseudo is Projector augmented-wave + core cor, Zval = 12.0
     Generated using &quot;atomic&quot; code by A. Dal Corso  v.6.2.2
     Shape of augmentation charge: PSQ
     Using radial grid of 1225 points,  6 beta functions with: 
                l(1) =   0
                l(2) =   0
                l(3) =   1
                l(4) =   1
                l(5) =   2
                l(6) =   2
     Q(r) pseudized with 0 coefficients 


     PseudoPot. # 2 for F  read from file:
     /mgpfs/home/rabdillah/repo/qe/pseudo/F.pbe-n-kjpaw_psl.1.0.0.UPF
     MD5 check sum: 66d718ea72839a4268ab2a9540e8cdd4
     Pseudo is Projector augmented-wave + core cor, Zval =  7.0
     Generated using &quot;atomic&quot; code by A. Dal Corso  v.6.3
     Shape of augmentation charge: PSQ
     Using radial grid of 1105 points,  4 beta functions with: 
                l(1) =   0
                l(2) =   0
                l(3) =   1
                l(4) =   1
     Q(r) pseudized with 0 coefficients 


     atomic species   valence    mass     pseudopotential
        Zr            12.00    91.22400     Zr( 1.00)
        F              7.00    18.99800     F ( 1.00)

     12 Sym. Ops. (no inversion) found



   Cartesian axes

     site n.     atom                  positions (alat units)
         1           Zr  tau(   1) = (   0.0000000   0.0000000   3.0883221  )
         2           F   tau(   2) = (  -0.0000000   0.5773503   3.5387422  )
         3           F   tau(   3) = (  -0.0000000   0.5773503   2.6379019  )

     number of k points=    91
                       cart. coord. in units 2pi/alat
        k(    1) = (   0.0000000   0.0000000   0.0000000), wk =   0.0219780
        k(    2) = (   0.0166667   0.0096225   0.0000000), wk =   0.0219780
        k(    3) = (   0.0333333   0.0192450   0.0000000), wk =   0.0219780
        k(    4) = (   0.0500000   0.0288675   0.0000000), wk =   0.0219780
        k(    5) = (   0.0666667   0.0384900   0.0000000), wk =   0.0219780
        k(    6) = (   0.0833333   0.0481125   0.0000000), wk =   0.0219780
        k(    7) = (   0.1000000   0.0577350   0.0000000), wk =   0.0219780
        k(    8) = (   0.1166667   0.0673575   0.0000000), wk =   0.0219780
        k(    9) = (   0.1333333   0.0769800   0.0000000), wk =   0.0219780
        k(   10) = (   0.1500000   0.0866025   0.0000000), wk =   0.0219780
        k(   11) = (   0.1666667   0.0962250   0.0000000), wk =   0.0219780
        k(   12) = (   0.1833333   0.1058475   0.0000000), wk =   0.0219780
        k(   13) = (   0.2000000   0.1154701   0.0000000), wk =   0.0219780
        k(   14) = (   0.2166667   0.1250926   0.0000000), wk =   0.0219780
        k(   15) = (   0.2333333   0.1347151   0.0000000), wk =   0.0219780
        k(   16) = (   0.2500000   0.1443376   0.0000000), wk =   0.0219780
        k(   17) = (   0.2666667   0.1539601   0.0000000), wk =   0.0219780
        k(   18) = (   0.2833333   0.1635826   0.0000000), wk =   0.0219780
        k(   19) = (   0.3000000   0.1732051   0.0000000), wk =   0.0219780
        k(   20) = (   0.3166667   0.1828276   0.0000000), wk =   0.0219780
        k(   21) = (   0.3333333   0.1924501   0.0000000), wk =   0.0219780
        k(   22) = (   0.3500000   0.2020726   0.0000000), wk =   0.0219780
        k(   23) = (   0.3666667   0.2116951   0.0000000), wk =   0.0219780
        k(   24) = (   0.3833333   0.2213176   0.0000000), wk =   0.0219780
        k(   25) = (   0.4000000   0.2309401   0.0000000), wk =   0.0219780
        k(   26) = (   0.4166667   0.2405626   0.0000000), wk =   0.0219780
        k(   27) = (   0.4333333   0.2501851   0.0000000), wk =   0.0219780
        k(   28) = (   0.4500000   0.2598076   0.0000000), wk =   0.0219780
        k(   29) = (   0.4666667   0.2694301   0.0000000), wk =   0.0219780
        k(   30) = (   0.4833333   0.2790526   0.0000000), wk =   0.0219780
        k(   31) = (   0.5000000   0.2886751   0.0000000), wk =   0.0219780
        k(   32) = (   0.4944444   0.2982976   0.0000000), wk =   0.0219780
        k(   33) = (   0.4888889   0.3079201   0.0000000), wk =   0.0219780
        k(   34) = (   0.4833333   0.3175426   0.0000000), wk =   0.0219780
        k(   35) = (   0.4777778   0.3271652   0.0000000), wk =   0.0219780
        k(   36) = (   0.4722222   0.3367877   0.0000000), wk =   0.0219780
        k(   37) = (   0.4666667   0.3464102   0.0000000), wk =   0.0219780
        k(   38) = (   0.4611111   0.3560327   0.0000000), wk =   0.0219780
        k(   39) = (   0.4555556   0.3656552   0.0000000), wk =   0.0219780
        k(   40) = (   0.4500000   0.3752777   0.0000000), wk =   0.0219780
        k(   41) = (   0.4444444   0.3849002   0.0000000), wk =   0.0219780
        k(   42) = (   0.4388889   0.3945227   0.0000000), wk =   0.0219780
        k(   43) = (   0.4333333   0.4041452   0.0000000), wk =   0.0219780
        k(   44) = (   0.4277778   0.4137677   0.0000000), wk =   0.0219780
        k(   45) = (   0.4222222   0.4233902   0.0000000), wk =   0.0219780
        k(   46) = (   0.4166667   0.4330127   0.0000000), wk =   0.0219780
        k(   47) = (   0.4111111   0.4426352   0.0000000), wk =   0.0219780
        k(   48) = (   0.4055556   0.4522577   0.0000000), wk =   0.0219780
        k(   49) = (   0.4000000   0.4618802   0.0000000), wk =   0.0219780
        k(   50) = (   0.3944444   0.4715027   0.0000000), wk =   0.0219780
        k(   51) = (   0.3888889   0.4811252   0.0000000), wk =   0.0219780
        k(   52) = (   0.3833333   0.4907477   0.0000000), wk =   0.0219780
        k(   53) = (   0.3777778   0.5003702   0.0000000), wk =   0.0219780
        k(   54) = (   0.3722222   0.5099927   0.0000000), wk =   0.0219780
        k(   55) = (   0.3666667   0.5196152   0.0000000), wk =   0.0219780
        k(   56) = (   0.3611111   0.5292377   0.0000000), wk =   0.0219780
        k(   57) = (   0.3555556   0.5388603   0.0000000), wk =   0.0219780
        k(   58) = (   0.3500000   0.5484828   0.0000000), wk =   0.0219780
        k(   59) = (   0.3444444   0.5581053   0.0000000), wk =   0.0219780
        k(   60) = (   0.3388889   0.5677278   0.0000000), wk =   0.0219780
        k(   61) = (   0.3333333   0.5773503   0.0000000), wk =   0.0219780
        k(   62) = (   0.3222222   0.5581053   0.0000000), wk =   0.0219780
        k(   63) = (   0.3111111   0.5388603   0.0000000), wk =   0.0219780
        k(   64) = (   0.3000000   0.5196152   0.0000000), wk =   0.0219780
        k(   65) = (   0.2888889   0.5003702   0.0000000), wk =   0.0219780
        k(   66) = (   0.2777778   0.4811252   0.0000000), wk =   0.0219780
        k(   67) = (   0.2666667   0.4618802   0.0000000), wk =   0.0219780
        k(   68) = (   0.2555556   0.4426352   0.0000000), wk =   0.0219780
        k(   69) = (   0.2444444   0.4233902   0.0000000), wk =   0.0219780
        k(   70) = (   0.2333333   0.4041452   0.0000000), wk =   0.0219780
        k(   71) = (   0.2222222   0.3849002   0.0000000), wk =   0.0219780
        k(   72) = (   0.2111111   0.3656552   0.0000000), wk =   0.0219780
        k(   73) = (   0.2000000   0.3464102   0.0000000), wk =   0.0219780
        k(   74) = (   0.1888889   0.3271652   0.0000000), wk =   0.0219780
        k(   75) = (   0.1777778   0.3079201   0.0000000), wk =   0.0219780
        k(   76) = (   0.1666667   0.2886751   0.0000000), wk =   0.0219780
        k(   77) = (   0.1555556   0.2694301   0.0000000), wk =   0.0219780
        k(   78) = (   0.1444444   0.2501851   0.0000000), wk =   0.0219780
        k(   79) = (   0.1333333   0.2309401   0.0000000), wk =   0.0219780
        k(   80) = (   0.1222222   0.2116951   0.0000000), wk =   0.0219780
        k(   81) = (   0.1111111   0.1924501   0.0000000), wk =   0.0219780
        k(   82) = (   0.1000000   0.1732051   0.0000000), wk =   0.0219780
        k(   83) = (   0.0888889   0.1539601   0.0000000), wk =   0.0219780
        k(   84) = (   0.0777778   0.1347151   0.0000000), wk =   0.0219780
        k(   85) = (   0.0666667   0.1154701   0.0000000), wk =   0.0219780
        k(   86) = (   0.0555556   0.0962250   0.0000000), wk =   0.0219780
        k(   87) = (   0.0444444   0.0769800   0.0000000), wk =   0.0219780
        k(   88) = (   0.0333333   0.0577350   0.0000000), wk =   0.0219780
        k(   89) = (   0.0222222   0.0384900   0.0000000), wk =   0.0219780
        k(   90) = (   0.0111111   0.0192450   0.0000000), wk =   0.0219780
        k(   91) = (   0.0000000   0.0000000   0.0000000), wk =   0.0219780

     Dense  grid:    75107 G-vectors     FFT dimensions: (  30,  30, 192)

     Estimated max dynamical RAM per process >      10.30 MB

     Estimated total dynamical RAM >     329.44 MB

     Check: negative core charge=   -0.000002

     The potential is recalculated from file :
     ./out/ZrF2.save/charge-density


     negative rho (up, down):  1.439E-03 0.000E+00
     Starting wfcs are   21 randomized atomic wfcs +    5 random wfcs
     Checking if some PAW data can be deallocated... 

     Band Structure Calculation
     Davidson diagonalization with overlap

     ethr =  3.85E-09,  avg # of iterations = 30.8

     total cpu time spent up to now is       18.7 secs

     End of band structure calculation

          k = 0.0000 0.0000 0.0000 (  9459 PWs)   bands (ev):

   -50.1857 -29.1756 -27.6208 -27.6208 -26.1936 -25.0294  -8.6580  -7.3694
    -7.3694  -7.1912  -7.1912  -6.9890  -1.1404   1.1244   1.1244   1.1765
     3.0443   3.0443   3.1011   3.4346   4.3389   4.4916   6.3764   6.4951
     8.8954   9.7682

          k = 0.0167 0.0096 0.0000 (  9453 PWs)   bands (ev):

   -50.1853 -29.1739 -27.6283 -27.6215 -26.1881 -25.0312  -8.6550  -7.3741
    -7.3684  -7.1992  -7.1928  -6.9835  -1.1387   1.1230   1.1305   1.1857
     2.9742   3.0462   3.1668   3.4407   4.3454   4.5027   6.3870   6.5013
     8.9031   9.7742

          k = 0.0333 0.0192 0.0000 (  9473 PWs)   bands (ev):

   -50.1841 -29.1687 -27.6506 -27.6236 -26.1720 -25.0366  -8.6458  -7.3879
    -7.3655  -7.2209  -7.1975  -6.9693  -1.1336   1.1196   1.1486   1.2127
     2.8784   3.0518   3.2507   3.4590   4.3648   4.5353   6.4187   6.5198
     8.9261   9.7921

          k = 0.0500 0.0289 0.0000 (  9475 PWs)   bands (ev):

   -50.1820 -29.1602 -27.6863 -27.6271 -26.1464 -25.0455  -8.6309  -7.4105
    -7.3606  -7.2518  -7.2054  -6.9509  -1.1260   1.1157   1.1788   1.2568
     2.7789   3.0612   3.3331   3.4895   4.3971   4.5874   6.4708   6.5505
     8.9645   9.8216

          k = 0.0667 0.0385 0.0000 (  9467 PWs)   bands (ev):

   -50.1791 -29.1482 -27.7338 -27.6320 -26.1128 -25.0579  -8.6106  -7.4409
    -7.3540  -7.2884  -7.2163  -6.9316  -1.1168   1.1125   1.2210   1.3179
     2.6784   3.0741   3.4149   3.5320   4.4420   4.6563   6.5423   6.5933
     9.0181   9.8625

          k = 0.0833 0.0481 0.0000 (  9477 PWs)   bands (ev):

   -50.1754 -29.1330 -27.7914 -27.6381 -26.0729 -25.0738  -8.5855  -7.4785
    -7.3456  -7.3287  -7.2299  -6.9136  -1.1072   1.1116   1.2753   1.3961
     2.5789   3.0904   3.4978   3.5866   4.4993   4.7391   6.6320   6.6478
     9.0869   9.9144

          k = 0.1000 0.0577 0.0000 (  9457 PWs)   bands (ev):

   -50.1710 -29.1146 -27.8569 -27.6454 -26.0285 -25.0929  -8.5564  -7.5218
    -7.3713  -7.3357  -7.2462  -6.8978  -1.0988   1.1149   1.3416   1.4911
     2.4822   3.1097   3.5838   3.6530   4.5686   4.8334   6.7138   6.7381
     9.1707   9.9767

          k = 0.1167 0.0674 0.0000 (  9467 PWs)   bands (ev):

   -50.1659 -29.0931 -27.9288 -27.6539 -25.9809 -25.1153  -8.5241  -7.5697
    -7.4155  -7.3245  -7.2650  -6.8852  -1.0927   1.1240   1.4199   1.6027
     2.3900   3.1319   3.6745   3.7312   4.6498   4.9374   6.7910   6.8590
     9.2691  10.0489

          k = 0.1333 0.0770 0.0000 (  9475 PWs)   bands (ev):

   -50.1601 -29.0686 -28.0055 -27.6634 -25.9315 -25.1408  -8.4899  -7.6206
    -7.4605  -7.3121  -7.2860  -6.8759  -1.0901   1.1408   1.5099   1.7305
     2.3034   3.1565   3.7713   3.8211   4.7425   5.0499   6.8789   6.9927
     9.3818  10.1304

          k = 0.1500 0.0866 0.0000 (  9479 PWs)   bands (ev):

   -50.1538 -29.0413 -28.0857 -27.6738 -25.8812 -25.1692  -8.4551  -7.6729
    -7.5060  -7.3089  -7.2988  -6.8701  -1.0918   1.1668   1.6116   1.8737
     2.2234   3.1833   3.8753   3.9227   4.8464   5.1703   6.9774   7.1376
     9.5082  10.2205

          k = 0.1667 0.0962 0.0000 (  9491 PWs)   bands (ev):

   -50.1470 -29.0113 -28.1681 -27.6850 -25.8310 -25.2003  -8.4214  -7.7246
    -7.5517  -7.3335  -7.2849  -6.8679  -1.0980   1.2030   1.7247   2.0317
     2.1508   3.2118   3.9872   4.0359   4.9613   5.2982   7.0860   7.2922
     9.6478  10.3185

          k = 0.1833 0.1058 0.0000 (  9485 PWs)   bands (ev):

   -50.1397 -28.9789 -28.2517 -27.6968 -25.7813 -25.2340  -8.3907  -7.7736
    -7.5972  -7.3594  -7.2704  -6.8690  -1.1089   1.2502   1.8489   2.0859
     2.2038   3.2417   4.1078   4.1606   5.0869   5.4337   7.2045   7.4550
     9.7996  10.4238

          k = 0.2000 0.1155 0.0000 (  9495 PWs)   bands (ev):

   -50.1321 -28.9443 -28.3357 -27.7092 -25.7329 -25.2699  -8.3654  -7.8176
    -7.6423  -7.3863  -7.2557  -6.8733  -1.1238   1.3085   1.9838   2.0289
     2.3891   3.2726   4.2374   4.2967   5.2229   5.5771   7.3325   7.6250
     9.9629  10.5355

          k = 0.2167 0.1251 0.0000 (  9497 PWs)   bands (ev):

   -50.1242 -28.9077 -28.4191 -27.7220 -25.6859 -25.3079  -8.3481  -7.8538
    -7.6869  -7.4139  -7.2410  -6.8804  -1.1423   1.3777   1.9797   2.1288
     2.5868   3.3040   4.3765   4.4442   5.3691   5.7285   7.4696   7.8016
    10.1366  10.6527

          k = 0.2333 0.1347 0.0000 (  9487 PWs)   bands (ev):

   -50.1161 -28.8695 -28.5014 -27.7351 -25.6409 -25.3476  -8.3411  -7.8800
    -7.7306  -7.4419  -7.2264  -6.8900  -1.1633   1.4573   1.9381   2.2834
     2.7962   3.3357   4.5251   4.6031   5.5252   5.8882   7.6157   7.9840
    10.3196  10.7743

          k = 0.2500 0.1443 0.0000 (  9473 PWs)   bands (ev):

   -50.1079 -28.8299 -28.5818 -27.7482 -25.5980 -25.3887  -8.3456  -7.8950
    -7.7733  -7.4700  -7.2121  -6.9016  -1.1859   1.5463   1.9036   2.4465
     3.0165   3.3672   4.6836   4.7732   5.6909   6.0566   7.7705   8.1720
    10.5109  10.8988

          k = 0.2667 0.1540 0.0000 (  9481 PWs)   bands (ev):

   -50.0997 -28.7892 -28.6597 -27.7613 -25.5573 -25.4308  -8.3608  -7.8998
    -7.8149  -7.4979  -7.1983  -6.9148  -1.2092   1.6434   1.8758   2.6173
     3.2470   3.3982   4.8520   4.9545   5.8660   6.2338   7.9336   8.3652
    10.7090  11.0237

          k = 0.2833 0.1636 0.0000 (  9473 PWs)   bands (ev):

   -50.0915 -28.7480 -28.7346 -27.7743 -25.5192 -25.4735  -8.3840  -7.8967
    -7.8550  -7.5252  -7.1851  -6.9291  -1.2323   1.7472   1.8540   2.7943
     3.4284   3.4873   5.0304   5.1470   6.0501   6.4202   8.1047   8.5633
    10.9126  11.1447

          k = 0.3000 0.1732 0.0000 (  9489 PWs)   bands (ev):

   -50.0835 -28.8060 -28.7066 -27.7869 -25.5164 -25.4836  -8.4123  -7.8936
    -7.8889  -7.5518  -7.1727  -6.9441  -1.2547   1.8374   1.8560   2.9762
     3.4574   3.7366   5.2188   5.3503   6.2430   6.6157   8.2836   8.7661
    11.1191  11.2520

          k = 0.3167 0.1828 0.0000 (  9477 PWs)   bands (ev):

   -50.0758 -28.8734 -28.6654 -27.7990 -25.5591 -25.4507  -8.4428  -7.9303
    -7.8788  -7.5772  -7.1611  -6.9592  -1.2757   1.8255   1.9678   3.1610
     3.4851   3.9945   5.4171   5.5646   6.4444   6.8206   8.4699   8.9727
    11.3206  11.3223

          k = 0.3333 0.1925 0.0000 (  9477 PWs)   bands (ev):

   -50.0684 -28.9363 -28.6249 -27.8106 -25.6009 -25.4205  -8.4736  -7.9650
    -7.8684  -7.6013  -7.1504  -6.9743  -1.2950   1.8175   2.0806   3.3467
     3.5110   4.2601   5.6252   5.7894   6.6538   7.0348   8.6632   9.1820
    11.2935  11.4884

          k = 0.3500 0.2021 0.0000 (  9461 PWs)   bands (ev):

   -50.0614 -28.9945 -28.5858 -27.8214 -25.6413 -25.3931  -8.5033  -7.9973
    -7.8588  -7.6239  -7.1406  -6.9888  -1.3122   1.8126   2.1921   3.5309
     3.5351   4.5327   5.8430   6.0247   6.8708   7.2582   8.8625   9.3912
    11.1305  11.4191

          k = 0.3667 0.2117 0.0000 (  9443 PWs)   bands (ev):

   -50.0550 -29.0475 -28.5485 -27.8314 -25.6798 -25.3685  -8.5308  -8.0271
    -7.8505  -7.6446  -7.1318  -7.0024  -1.3274   1.8103   2.3002   3.5572
     3.7105   4.8109   6.0701   6.2701   7.0950   7.4904   9.0666   9.5943
    10.8805  11.1511

          k = 0.3833 0.2213 0.0000 (  9447 PWs)   bands (ev):

   -50.0491 -29.0950 -28.5137 -27.8405 -25.7157 -25.3468  -8.5557  -8.0542
    -7.8438  -7.6634  -7.1240  -7.0150  -1.3404   1.8098   2.4024   3.5769
     3.8824   5.0928   6.3061   6.5250   7.3256   7.7309   9.2721   9.7746
    10.5965  10.8786

          k = 0.4000 0.2309 0.0000 (  9441 PWs)   bands (ev):

   -50.0438 -29.1367 -28.4819 -27.8486 -25.7485 -25.3279  -8.5776  -8.0782
    -7.8388  -7.6801  -7.1173  -7.0262  -1.3514   1.8106   2.4966   3.5943
     4.0431   5.3756   6.5504   6.7886   7.5614   7.9784   9.4696   9.8820
    10.3098  10.6780

          k = 0.4167 0.2406 0.0000 (  9427 PWs)   bands (ev):

   -50.0393 -29.1724 -28.4537 -27.8556 -25.7776 -25.3119  -8.5962  -8.0989
    -7.8351  -7.6944  -7.1116  -7.0360  -1.3603   1.8122   2.5805   3.6093
     4.1886   5.6547   6.8019   7.0594   7.8006   8.2300   9.6134   9.8249
    10.0754  10.6428

          k = 0.4333 0.2502 0.0000 (  9423 PWs)   bands (ev):

   -50.0355 -29.2019 -28.4298 -27.8614 -25.8023 -25.2988  -8.6115  -8.1161
    -7.8327  -7.7063  -7.1070  -7.0442  -1.3674   1.8141   2.6521   3.6216
     4.3149   5.9233   7.0586   7.3348   8.0401   8.4783   9.5375   9.6299
    10.0601  10.4220

          k = 0.4500 0.2598 0.0000 (  9391 PWs)   bands (ev):

   -50.0324 -29.2251 -28.4105 -27.8660 -25.8221 -25.2886  -8.6233  -8.1297
    -7.8311  -7.7157  -7.1034  -7.0506  -1.3728   1.8160   2.7098   3.6312
     4.4183   6.1701   7.3169   7.6100   8.2741   8.6960   9.3059   9.4199
    10.0318  10.2435

          k = 0.4667 0.2694 0.0000 (  9391 PWs)   bands (ev):

   -50.0303 -29.2417 -28.3964 -27.8693 -25.8366 -25.2814  -8.6318  -8.1396
    -7.8303  -7.7224  -7.1008  -7.0553  -1.3765   1.8175   2.7521   3.6382
     4.4951   6.3775   7.5679   7.8748   8.4879   8.7775   9.0790   9.3456
     9.7153  10.3719

          k = 0.4833 0.2791 0.0000 (  9381 PWs)   bands (ev):

   -50.0290 -29.2517 -28.3878 -27.8713 -25.8454 -25.2770  -8.6369  -8.1455
    -7.8299  -7.7265  -7.0993  -7.0581  -1.3787   1.8185   2.7779   3.6424
     4.5424   6.5204   7.7855   8.1052   8.6162   8.6663   8.9573   9.4291
     9.4861  10.1928

          k = 0.5000 0.2887 0.0000 (  9352 PWs)   bands (ev):

   -50.0285 -29.2550 -28.3849 -27.8720 -25.8484 -25.2755  -8.6385  -8.1474
    -7.8297  -7.7278  -7.0987  -7.0590  -1.3794   1.8189   2.7866   3.6438
     4.5583   6.5722   7.8876   8.2198   8.5825   8.6003   9.0014   9.2694
     9.6117  10.0401

          k = 0.4944 0.2983 0.0000 (  9364 PWs)   bands (ev):

   -50.0285 -29.2546 -28.3846 -27.8733 -25.8487 -25.2750  -8.6372  -8.1497
    -7.8297  -7.7262  -7.0998  -7.0589  -1.3775   1.8206   2.7850   3.6424
     4.5480   6.5860   7.8891   8.2216   8.5842   8.6024   9.0033   9.2713
     9.6134  10.0417

          k = 0.4889 0.3079 0.0000 (  9370 PWs)   bands (ev):

   -50.0283 -29.2535 -28.3837 -27.8771 -25.8496 -25.2734  -8.6333  -8.1563
    -7.8295  -7.7214  -7.1029  -7.0587  -1.3718   1.8256   2.7804   3.6383
     4.5178   6.6265   7.8936   8.2271   8.5893   8.6088   9.0088   9.2769
     9.6188  10.0462

          k = 0.4833 0.3175 0.0000 (  9376 PWs)   bands (ev):

   -50.0281 -29.2516 -28.3822 -27.8834 -25.8510 -25.2707  -8.6269  -8.1670
    -7.8293  -7.7138  -7.1080  -7.0585  -1.3624   1.8341   2.7728   3.6315
     4.4703   6.6912   7.9012   8.2361   8.5979   8.6195   9.0181   9.2863
     9.6276  10.0539

          k = 0.4778 0.3272 0.0000 (  9366 PWs)   bands (ev):

   -50.0278 -29.2489 -28.3802 -27.8921 -25.8530 -25.2670  -8.6179  -8.1813
    -7.8290  -7.7037  -7.1151  -7.0581  -1.3491   1.8458   2.7619   3.6221
     4.4089   6.7767   7.9118   8.2487   8.6099   8.6345   9.0311   9.2996
     9.6400  10.0645

          k = 0.4722 0.3368 0.0000 (  9386 PWs)   bands (ev):

   -50.0273 -29.2455 -28.3775 -27.9032 -25.8556 -25.2624  -8.6064  -8.1986
    -7.8286  -7.6916  -7.1243  -7.0578  -1.3322   1.8608   2.7479   3.6101
     4.3371   6.8792   7.9254   8.2650   8.6253   8.6539   9.0477   9.3166
     9.6560  10.0780

          k = 0.4667 0.3464 0.0000 (  9382 PWs)   bands (ev):

   -50.0268 -29.2414 -28.3743 -27.9164 -25.8587 -25.2568  -8.5926  -8.2183
    -7.8282  -7.6779  -7.1353  -7.0575  -1.3115   1.8789   2.7305   3.5957
     4.2583   6.9955   7.9420   8.2848   8.6439   8.6778   9.0680   9.3374
     9.6755  10.0944

          k = 0.4611 0.3560 0.0000 (  9386 PWs)   bands (ev):

   -50.0262 -29.2366 -28.3706 -27.9318 -25.8623 -25.2505  -8.5765  -8.2400
    -7.8278  -7.6631  -7.1482  -7.0574  -1.2873   1.9000   2.7097   3.5789
     4.1753   7.1225   7.9616   8.3083   8.6659   8.7063   9.0920   9.3621
     9.6986  10.1136

          k = 0.4556 0.3657 0.0000 (  9388 PWs)   bands (ev):

   -50.0256 -29.2311 -28.3664 -27.9490 -25.8664 -25.2435  -8.5582  -8.2631
    -7.8273  -7.6475  -7.1629  -7.0575  -1.2596   1.9240   2.6855   3.5599
     4.0904   7.2576   7.9842   8.3353   8.6911   8.7395   9.1197   9.3907
     9.7251  10.1354

          k = 0.4500 0.3753 0.0000 (  9394 PWs)   bands (ev):

   -50.0248 -29.2250 -28.3617 -27.9680 -25.8710 -25.2358  -8.5378  -8.2874
    -7.8269  -7.6312  -7.1793  -7.0580  -1.2284   1.9507   2.6578   3.5387
     4.0054   7.3987   8.0098   8.3660   8.7194   8.7777   9.1509   9.4232
     9.7553  10.1597

          k = 0.4444 0.3849 0.0000 (  9394 PWs)   bands (ev):

   -50.0240 -29.2184 -28.3566 -27.9884 -25.8760 -25.2276  -8.5155  -8.3124
    -7.8264  -7.6144  -7.1973  -7.0588  -1.1940   1.9800   2.6266   3.5157
     3.9218   7.5438   8.0383   8.4004   8.7507   8.8211   9.1857   9.4598
     9.7889  10.1863

          k = 0.4389 0.3945 0.0000 (  9390 PWs)   bands (ev):

   -50.0232 -29.2112 -28.3511 -28.0102 -25.8814 -25.2191  -8.4915  -8.3378
    -7.8261  -7.5974  -7.2169  -7.0602  -1.1565   2.0116   2.5921   3.4909
     3.8407   7.6912   8.0698   8.4385   8.7850   8.8701   9.2240   9.5005
     9.8261  10.2151

          k = 0.4333 0.4041 0.0000 (  9380 PWs)   bands (ev):

   -50.0223 -29.2036 -28.3452 -28.0331 -25.8871 -25.2102  -8.4658  -8.3633
    -7.8257  -7.5802  -7.2378  -7.0621  -1.1161   2.0454   2.5545   3.4644
     3.7628   7.8389   8.1042   8.4803   8.8222   8.9250   9.2658   9.5454
     9.8667  10.2458

          k = 0.4278 0.4138 0.0000 (  9386 PWs)   bands (ev):

   -50.0213 -29.1956 -28.3390 -28.0568 -25.8931 -25.2012  -8.4387  -8.3888
    -7.8255  -7.5628  -7.2600  -7.0647  -1.0731   2.0811   2.5141   3.4366
     3.6887   7.9852   8.1415   8.5261   8.8620   8.9863   9.3110   9.5947
     9.9109  10.2780

          k = 0.4222 0.4234 0.0000 (  9380 PWs)   bands (ev):

   -50.0203 -29.1872 -28.3326 -28.0812 -25.8994 -25.1920  -8.4139  -8.4103
    -7.8254  -7.5454  -7.2834  -7.0681  -1.0277   2.1186   2.4713   3.4074
     3.6187   8.1280   8.1816   8.5761   8.9044   9.0544   9.3595   9.6485
     9.9585  10.3114

          k = 0.4167 0.4330 0.0000 (  9386 PWs)   bands (ev):

   -50.0193 -29.1786 -28.3260 -28.1059 -25.9059 -25.1829  -8.4385  -8.3808
    -7.8253  -7.5279  -7.3079  -7.0722  -0.9804   2.1575   2.4268   3.3771
     3.5529   8.2246   8.2654   8.6307   8.9490   9.1298   9.4111   9.7072
    10.0096  10.3455

          k = 0.4111 0.4426 0.0000 (  9394 PWs)   bands (ev):

   -50.0183 -29.1699 -28.3193 -28.1307 -25.9125 -25.1739  -8.4624  -8.3505
    -7.8255  -7.5104  -7.3332  -7.0772  -0.9316   2.1976   2.3814   3.3460
     3.4913   8.2704   8.3951   8.6904   8.9958   9.2126   9.4657   9.7710
    10.0641  10.3797

          k = 0.4056 0.4523 0.0000 (  9398 PWs)   bands (ev):

   -50.0173 -29.1611 -28.3125 -28.1553 -25.9192 -25.1651  -8.4854  -8.3195
    -7.8257  -7.4929  -7.3593  -7.0831  -0.8818   2.2386   2.3357   3.3140
     3.4337   8.3189   8.5149   8.7563   9.0443   9.3026   9.5229   9.8402
    10.1219  10.4134

          k = 0.4000 0.4619 0.0000 (  9384 PWs)   bands (ev):

   -50.0163 -29.1523 -28.3057 -28.1795 -25.9259 -25.1566  -8.5073  -8.2881
    -7.8259  -7.4754  -7.3859  -7.0898  -0.8315   2.2803   2.2907   3.2816
     3.3799   8.3702   8.6231   8.8290   9.0942   9.3988   9.5825   9.9151
    10.1829  10.4456

          k = 0.3944 0.4715 0.0000 (  9380 PWs)   bands (ev):

   -50.0153 -29.1437 -28.2989 -28.2030 -25.9325 -25.1485  -8.5281  -8.2565
    -7.8263  -7.4580  -7.4130  -7.0975  -0.7814   2.2473   2.3223   3.2487
     3.3298   8.4241   8.7198   8.9084   9.1449   9.4996   9.6440   9.9956
    10.2468  10.4755

          k = 0.3889 0.4811 0.0000 (  9388 PWs)   bands (ev):

   -50.0143 -29.1354 -28.2924 -28.2256 -25.9390 -25.1408  -8.5475  -8.2251
    -7.8267  -7.4407  -7.4402  -7.1061  -0.7322   2.2064   2.3643   3.2157
     3.2831   8.4807   8.8069   8.9929   9.1957   9.6028   9.7066  10.0813
    10.3129  10.5023

          k = 0.3833 0.4907 0.0000 (  9392 PWs)   bands (ev):

   -50.0134 -29.1275 -28.2860 -28.2469 -25.9452 -25.1337  -8.5655  -8.1941
    -7.8270  -7.4675  -7.4234  -7.1155  -0.6847   2.1688   2.4059   3.1828
     3.2397   8.5397   8.8874   9.0799   9.2458   9.7064   9.7696  10.1705
    10.3794  10.5263

          k = 0.3778 0.5004 0.0000 (  9396 PWs)   bands (ev):

   -50.0125 -29.1202 -28.2800 -28.2667 -25.9512 -25.1271  -8.5819  -8.1641
    -7.8270  -7.4944  -7.4064  -7.1257  -0.6396   2.1353   2.4469   3.1501
     3.1995   8.6012   8.9641   9.1670   9.2939   9.8088   9.8321  10.2605
    10.4402  10.5521

          k = 0.3722 0.5100 0.0000 (  9404 PWs)   bands (ev):

   -50.0117 -29.1135 -28.2848 -28.2744 -25.9567 -25.1212  -8.5967  -8.1353
    -7.8268  -7.5208  -7.3895  -7.1366  -0.5978   2.1064   2.4866   3.1182
     3.1626   8.6649   9.0388   9.2527   9.3383   9.8931   9.9092  10.3481
    10.4798  10.5943

          k = 0.3667 0.5196 0.0000 (  9402 PWs)   bands (ev):

   -50.0109 -29.1076 -28.3009 -28.2692 -25.9618 -25.1159  -8.6097  -8.1085
    -7.8259  -7.5463  -7.3731  -7.1481  -0.5601   2.0827   2.5246   3.0873
     3.1291   8.7307   9.1125   9.3355   9.3768   9.9522  10.0071  10.4317
    10.4906  10.6607

          k = 0.3611 0.5292 0.0000 (  9406 PWs)   bands (ev):

   -50.0103 -29.1026 -28.3148 -28.2647 -25.9664 -25.1114  -8.6209  -8.0842
    -7.8243  -7.5703  -7.3571  -7.1600  -0.5272   2.0642   2.5602   3.0580
     3.0993   8.7981   9.1855   9.4065   9.4136  10.0090  10.1027  10.4847
    10.5127  10.7408

          k = 0.3556 0.5389 0.0000 (  9398 PWs)   bands (ev):

   -50.0097 -29.0985 -28.3264 -28.2607 -25.9703 -25.1076  -8.6301  -8.0633
    -7.8218  -7.5923  -7.3419  -7.1719  -0.4997   2.0509   2.5925   3.0311
     3.0736   8.8665   9.2577   9.4240   9.4841  10.0641  10.1954  10.4720
    10.5937  10.8281

          k = 0.3500 0.5485 0.0000 (  9406 PWs)   bands (ev):

   -50.0093 -29.0954 -28.3355 -28.2575 -25.9734 -25.1046  -8.6374  -8.0464
    -7.8183  -7.6116  -7.3280  -7.1834  -0.4781   2.0423   2.6202   3.0077
     3.0524   8.9345   9.3290   9.4264   9.5421  10.1181  10.2831  10.4592
    10.6754  10.8628

          k = 0.3444 0.5581 0.0000 (  9398 PWs)   bands (ev):

   -50.0089 -29.0932 -28.3420 -28.2552 -25.9758 -25.1024  -8.6426  -8.0343
    -7.8145  -7.6268  -7.3163  -7.1935  -0.4627   2.0376   2.6418   2.9893
     3.0365   8.9991   9.3987   9.4130   9.5797  10.1710  10.3590  10.4510
    10.7020  10.7849

          k = 0.3389 0.5677 0.0000 (  9392 PWs)   bands (ev):

   -50.0087 -29.0920 -28.3458 -28.2537 -25.9773 -25.1011  -8.6458  -8.0271
    -7.8112  -7.6369  -7.3080  -7.2008  -0.4536   2.0358   2.6557   2.9774
     3.0265   9.0527   9.3895   9.4655   9.5859  10.2193  10.4038  10.4490
    10.6235  10.8673

          k = 0.3333 0.5774 0.0000 (  9384 PWs)   bands (ev):

   -50.0086 -29.0916 -28.3471 -28.2532 -25.9778 -25.1007  -8.6468  -8.0248
    -7.8099  -7.6404  -7.3049  -7.2036  -0.4506   2.0355   2.6604   2.9734
     3.0230   9.0767   9.3750   9.5125   9.5648  10.2448  10.4063  10.4501
    10.6050  10.9550

          k = 0.3222 0.5581 0.0000 (  9388 PWs)   bands (ev):

   -50.0090 -29.0928 -28.3422 -28.2553 -25.9756 -25.1025  -8.6425  -8.0329
    -7.8158  -7.6268  -7.3166  -7.1930  -0.4618   2.0339   2.6431   2.9879
     3.0376   8.9692   9.3170   9.4509   9.6678  10.0950  10.4174  10.4722
    10.6046  10.8855

          k = 0.3111 0.5389 0.0000 (  9388 PWs)   bands (ev):

   -50.0099 -29.0955 -28.3281 -28.2621 -25.9688 -25.1079  -8.6296  -8.0536
    -7.8298  -7.5930  -7.3434  -7.1691  -0.4926   2.0230   2.6005   3.0219
     3.0809   8.7357   8.9912   9.6060   9.7088   9.8332  10.2529  10.5239
    10.6156  10.8940

          k = 0.3000 0.5196 0.0000 (  9374 PWs)   bands (ev):

   -50.0116 -29.0978 -28.3062 -28.2739 -25.9570 -25.1169  -8.6081  -8.0819
    -7.8459  -7.5498  -7.3760  -7.1407  -0.5382   1.9980   2.5453   3.0628
     3.1470   8.4552   8.6274   9.3508   9.7601   9.8766  10.0071  10.3042
    10.7447  11.0562

          k = 0.2889 0.5004 0.0000 (  9386 PWs)   bands (ev):

   -50.0140 -29.0983 -28.2908 -28.2781 -25.9400 -25.1295  -8.5783  -8.1134
    -7.8614  -7.5038  -7.4104  -7.1112  -0.5939   1.9592   2.4844   3.1038
     3.2248   8.1544   8.2528   8.9550   9.6172   9.7069  10.0353  10.2439
    10.8336  11.0942

          k = 0.2778 0.4811 0.0000 (  9392 PWs)   bands (ev):

   -50.0172 -29.0952 -28.3128 -28.2451 -25.9178 -25.1456  -8.5404  -8.1450
    -7.8759  -7.4583  -7.4447  -7.0820  -0.6555   1.9097   2.4214   3.1418
     3.3013   7.8453   7.8764   8.5571   9.3052   9.3377  10.2330  10.3632
    10.7564  11.0363

          k = 0.2667 0.4619 0.0000 (  9402 PWs)   bands (ev):

   -50.0212 -29.0873 -28.3399 -28.2086 -25.8904 -25.1653  -8.4949  -8.1743
    -7.8896  -7.4777  -7.4153  -7.0536  -0.7193   1.8529   2.3582   3.1758
     3.3648   7.5004   7.5352   8.1603   8.9338   8.9843  10.4015  10.4378
    10.6689  10.8961

          k = 0.2556 0.4426 0.0000 (  9402 PWs)   bands (ev):

   -50.0260 -29.0737 -28.3717 -28.1697 -25.8582 -25.1884  -8.4425  -8.1997
    -7.9029  -7.5083  -7.3758  -7.0265  -0.7824   1.7916   2.2961   3.2054
     3.4064   7.1232   7.2283   7.7663   8.5347   8.6672  10.1717  10.5339
    10.8246  10.8356

          k = 0.2444 0.4234 0.0000 (  9411 PWs)   bands (ev):

   -50.0315 -29.0534 -28.4078 -28.1293 -25.8216 -25.2148  -8.3838  -8.2201
    -7.9162  -7.5358  -7.3404  -7.0010  -0.8428   1.7282   2.2362   3.2305
     3.4203   6.7413   6.9277   7.3790   8.1547   8.3575   9.8950  10.3614
    11.0081  11.0572

          k = 0.2333 0.4041 0.0000 (  9405 PWs)   bands (ev):

   -50.0379 -29.0262 -28.4476 -28.0882 -25.7810 -25.2444  -8.3197  -8.2348
    -7.9298  -7.5593  -7.3096  -6.9771  -0.8986   1.6643   2.1795   3.2513
     3.4039   6.3509   6.6352   7.0052   7.7993   8.0572   9.6179  10.1226
    11.2573  11.2805

          k = 0.2222 0.3849 0.0000 (  9409 PWs)   bands (ev):

   -50.0449 -28.9915 -28.4907 -28.0472 -25.7371 -25.2771  -8.2513  -8.2435
    -7.9439  -7.5783  -7.2837  -6.9551  -0.9486   1.6011   2.1272   3.2678
     3.3570   5.9500   6.3523   6.6516   7.4692   7.7673   9.3485   9.8715
    11.4735  11.5241

          k = 0.2111 0.3657 0.0000 (  9423 PWs)   bands (ev):

   -50.0526 -28.9494 -28.5363 -28.0067 -25.6904 -25.3127  -8.2464  -8.1796
    -7.9583  -7.5920  -7.2629  -6.9350  -0.9918   1.5395   2.0803   3.2801
     3.2816   5.5410   6.0802   6.3217   7.1625   7.4886   9.0894   9.6179
    11.5870  11.7960

          k = 0.2000 0.3464 0.0000 (  9427 PWs)   bands (ev):

   -50.0609 -28.8997 -28.5838 -27.9673 -25.6418 -25.3513  -8.2441  -8.1059
    -7.9725  -7.5999  -7.2470  -6.9169  -1.0276   1.4802   2.0400   3.1808
     3.2884   5.1297   5.8194   6.0155   6.8767   7.2215   8.8414   9.3658
    11.5810  11.7214

          k = 0.1889 0.3272 0.0000 (  9439 PWs)   bands (ev):

   -50.0696 -28.8429 -28.6326 -27.9292 -25.5917 -25.3926  -8.2382  -8.0317
    -7.9852  -7.6014  -7.2362  -6.9009  -1.0559   1.4238   2.0074   3.0587
     3.2926   4.7229   5.5706   5.7312   6.6094   6.9663   8.6050   9.1173
    11.4750  11.4875

          k = 0.1778 0.3079 0.0000 (  9455 PWs)   bands (ev):

   -50.0788 -28.7791 -28.6820 -27.8930 -25.5409 -25.4367  -8.2319  -7.9936
    -7.9584  -7.5958  -7.2300  -6.8870  -1.0766   1.3708   1.9837   2.9195
     3.2928   4.3267   5.3342   5.4667   6.3589   6.7231   8.3800   8.8738
    11.2277  11.3551

          k = 0.1667 0.2887 0.0000 (  9459 PWs)   bands (ev):

   -50.0882 -28.7315 -28.7088 -27.8587 -25.4900 -25.4833  -8.2297  -7.9937
    -7.8877  -7.5827  -7.2283  -6.8752  -1.0903   1.3217   1.9700   2.7675
     3.2890   3.9461   5.1105   5.2204   6.1238   6.4921   8.1664   8.6360
    10.9837  11.2080

          k = 0.1556 0.2694 0.0000 (  9461 PWs)   bands (ev):

   -50.0978 -28.7803 -28.6326 -27.8266 -25.5324 -25.4396  -8.2364  -7.9811
    -7.8210  -7.5617  -7.2306  -6.8656  -1.0976   1.2767   1.9673   2.6069
     3.2814   3.5848   4.8998   4.9911   5.9033   6.2732   7.9644   8.4044
    10.7456  11.0567

          k = 0.1444 0.2502 0.0000 (  9487 PWs)   bands (ev):

   -50.1075 -28.8281 -28.5512 -27.7968 -25.5839 -25.3902  -8.2542  -7.9541
    -7.7595  -7.5328  -7.2365  -6.8582  -1.0997   1.2364   1.9766   2.4414
     3.2458   3.2700   4.7020   4.7782   5.6969   6.0663   7.7739   8.1796
    10.5151  10.9063

          k = 0.1333 0.2309 0.0000 (  9485 PWs)   bands (ev):

   -50.1171 -28.8743 -28.4654 -27.7694 -25.6375 -25.3424  -8.2818  -7.9145
    -7.7032  -7.4972  -7.2454  -6.8532  -1.0978   1.2010   1.9984   2.2747
     2.9312   3.2552   4.5174   4.5812   5.5043   5.8711   7.5950   7.9617
    10.2943  10.7597

          k = 0.1222 0.2117 0.0000 (  9493 PWs)   bands (ev):

   -50.1265 -28.9184 -28.3761 -27.7444 -25.6931 -25.2967  -8.3165  -7.8653
    -7.6512  -7.4571  -7.2566  -6.8508  -1.0937   1.1709   2.0334   2.1101
     2.6424   3.2372   4.3457   4.3998   5.3254   5.6874   7.4282   7.7514
    10.0847  10.6187

          k = 0.1111 0.1925 0.0000 (  9489 PWs)   bands (ev):

   -50.1355 -28.9600 -28.2844 -27.7219 -25.7503 -25.2536  -8.3561  -7.8094
    -7.6018  -7.4152  -7.2695  -6.8510  -1.0888   1.1464   1.9509   2.0817
     2.3804   3.2168   4.1869   4.2340   5.1604   5.5148   7.2735   7.5493
     9.8882  10.4849

          k = 0.1000 0.1732 0.0000 (  9487 PWs)   bands (ev):

   -50.1442 -28.9987 -28.1916 -27.7019 -25.8087 -25.2133  -8.3985  -7.7493
    -7.5534  -7.3741  -7.2836  -6.8541  -1.0850   1.1274   1.8002   2.1432
     2.1456   3.1944   4.0405   4.0836   5.0095   5.3530   7.1314   7.3565
     9.7063  10.3593

          k = 0.0889 0.1540 0.0000 (  9479 PWs)   bands (ev):

   -50.1522 -29.0343 -28.0990 -27.6842 -25.8677 -25.1764  -8.4419  -7.6873
    -7.5051  -7.3356  -7.2981  -6.8603  -1.0836   1.1142   1.6607   1.9378
     2.2175   3.1708   3.9062   3.9486   4.8728   5.2016   7.0023   7.1744
     9.5404  10.2432

          k = 0.0778 0.1347 0.0000 (  9481 PWs)   bands (ev):

   -50.1596 -29.0664 -28.0083 -27.6689 -25.9265 -25.1431  -8.4848  -7.6256
    -7.4564  -7.3124  -7.3011  -6.8700  -1.0855   1.1063   1.5349   1.7566
     2.3037   3.1469   3.7830   3.8291   4.7507   5.0606   6.8867   7.0048
     9.3918  10.1376

          k = 0.0667 0.1155 0.0000 (  9485 PWs)   bands (ev):

   -50.1663 -29.0947 -27.9214 -27.6558 -25.9840 -25.1136  -8.5256  -7.5663
    -7.4075  -7.3260  -7.2712  -6.8832  -1.0911   1.1032   1.4247   1.6013
     2.4004   3.1236   3.6698   3.7252   4.6436   4.9301   6.7850   6.8500
     9.2616  10.0434

          k = 0.0556 0.0962 0.0000 (  9465 PWs)   bands (ev):

   -50.1720 -29.1190 -27.8404 -27.6449 -26.0387 -25.0883  -8.5630  -7.5115
    -7.3589  -7.3384  -7.2462  -6.8999  -1.0998   1.1040   1.3316   1.4711
     2.5058   3.1018   3.5651   3.6369   4.5519   4.8114   6.6979   6.7128
     9.1504   9.9617

          k = 0.0444 0.0770 0.0000 (  9467 PWs)   bands (ev):

   -50.1769 -29.1392 -27.7679 -27.6361 -26.0887 -25.0673  -8.5955  -7.4634
    -7.3491  -7.3119  -7.2260  -6.9198  -1.1106   1.1077   1.2559   1.3653
     2.6174   3.0824   3.4664   3.5644   4.4760   4.7061   6.5958   6.6256
     9.0589   9.8934

          k = 0.0333 0.0577 0.0000 (  9475 PWs)   bands (ev):

   -50.1807 -29.1550 -27.7069 -27.6294 -26.1316 -25.0508  -8.6221  -7.4236
    -7.3578  -7.2679  -7.2106  -6.9418  -1.1218   1.1128   1.1978   1.2833
     2.7325   3.0663   3.3712   3.5077   4.4164   4.6175   6.5017   6.5689
     8.9875   9.8392

          k = 0.0222 0.0385 0.0000 (  9463 PWs)   bands (ev):

   -50.1835 -29.1664 -27.6602 -27.6246 -26.1650 -25.0390  -8.6418  -7.3940
    -7.3642  -7.2296  -7.1997  -6.9639  -1.1315   1.1181   1.1568   1.2245
     2.8479   3.0543   3.2764   3.4671   4.3735   4.5495   6.4327   6.5280
     8.9364   9.8000

          k = 0.0111 0.0192 0.0000 (  9459 PWs)   bands (ev):

   -50.1852 -29.1733 -27.6308 -27.6217 -26.1863 -25.0318  -8.6539  -7.3757
    -7.3681  -7.2018  -7.1933  -6.9818  -1.1381   1.1225   1.1325   1.1887
     2.9598   3.0468   3.1798   3.4427   4.3475   4.5064   6.3905   6.5033
     8.9056   9.7762

          k = 0.0000 0.0000 0.0000 (  9459 PWs)   bands (ev):

   -50.1857 -29.1756 -27.6208 -27.6208 -26.1936 -25.0294  -8.6580  -7.3694
    -7.3694  -7.1912  -7.1912  -6.9890  -1.1404   1.1244   1.1244   1.1765
     3.0443   3.0443   3.1011   3.4346   4.3389   4.4916   6.3764   6.4951
     8.8954   9.7682

     Writing all to output data dir ./out/ZrF2.save/

     init_run     :      0.17s CPU      0.20s WALL (       1 calls)
     electrons    :     17.97s CPU     18.23s WALL (       1 calls)

     Called by init_run:
     wfcinit      :      0.00s CPU      0.00s WALL (       1 calls)
     potinit      :      0.07s CPU      0.08s WALL (       1 calls)
     hinit0       :      0.06s CPU      0.07s WALL (       1 calls)

     Called by electrons:
     c_bands      :     17.97s CPU     18.23s WALL (       1 calls)
     v_of_rho     :      0.01s CPU      0.01s WALL (       1 calls)
     newd         :      0.01s CPU      0.02s WALL (       1 calls)
     PAW_pot      :      0.06s CPU      0.08s WALL (       1 calls)

     Called by c_bands:
     init_us_2    :      0.01s CPU      0.01s WALL (      91 calls)
     init_us_2:cp :      0.01s CPU      0.01s WALL (      91 calls)
     cegterg      :     17.07s CPU     17.31s WALL (     177 calls)

     Called by *egterg:
     cdiaghg      :      2.81s CPU      2.84s WALL (    2892 calls)
     h_psi        :      8.84s CPU      9.02s WALL (    3069 calls)
     s_psi        :      0.48s CPU      0.49s WALL (    3069 calls)
     g_psi        :      0.03s CPU      0.04s WALL (    2801 calls)

     Called by h_psi:
     h_psi:calbec :      0.94s CPU      0.95s WALL (    3069 calls)
     vloc_psi     :      7.40s CPU      7.55s WALL (    3069 calls)
     add_vuspsi   :      0.48s CPU      0.49s WALL (    3069 calls)

     General routines
     calbec       :      0.93s CPU      0.95s WALL (    3069 calls)
     fft          :      0.01s CPU      0.01s WALL (      12 calls)
     fftw         :      7.04s CPU      7.19s WALL (   75484 calls)
     davcio       :      0.01s CPU      0.02s WALL (     182 calls)

     Parallel routines

     PWSCF        :     18.85s CPU     20.83s WALL


   This run was terminated on:  16:47:12   7Aug2026            

=------------------------------------------------------------------------------=
   JOB DONE.
=------------------------------------------------------------------------------=
