
     Program PWSCF v.7.2 starts on  7Aug2026 at 16:48: 9 

     This program is part of the open-source Quantum ESPRESSO suite
     for quantum simulation of materials; please cite
         "P. Giannozzi et al., J. Phys.:Condens. Matter 21 395502 (2009);
         "P. Giannozzi et al., J. Phys.:Condens. Matter 29 465901 (2017);
         "P. Giannozzi et al., J. Chem. Phys. 152 154105 (2020);
          URL http://www.quantum-espresso.org", 
     in publications or presentations arising from this work. More details at
     http://www.quantum-espresso.org/quote

     Parallel version (MPI), running on    32 processors

     MPI processes distributed on     1 nodes
     223861 MiB available memory on the printing compute node when the environment starts

     Waiting for input...
     Reading input from standard input

     Current dimensions of program PWSCF are:
     Max number of different atomic species (ntypx) = 10
     Max number of k-points (npk) =  40000
     Max angular momentum in pseudopotentials (lmaxx) =  4

     Atomic positions and unit cell read from directory:
     ./out/ZrFBr.save/
     Atomic positions from file used, from input discarded

     file Zr.pbe-spn-kjpaw_psl.1.0.0.UPF: wavefunction(s)  4S 4P renormalized
     file F.pbe-n-kjpaw_psl.1.0.0.UPF: wavefunction(s)  2S 2P renormalized
     file Br.pbe-n-kjpaw_psl.1.0.0.UPF: wavefunction(s)  4S 4P renormalized
     Message from routine setup:
     using ibrav=0 with symmetry is DISCOURAGED, use correct ibrav instead

     R & G space division:  proc/nbgrp/npool/nimage =      32
     Subspace diagonalization in iterative solution of the eigenvalue problem:
     a serial algorithm will be used


     Parallelization info
     --------------------
     sticks:   dense  smooth     PW     G-vecs:    dense   smooth      PW
     Min          20      20      6                 2524     2524     404
     Max          21      21      7                 2559     2559     421
     Sum         661     661    199                81293    81293   13091

     Using Slab Decomposition



     bravais-lattice index     =            0
     lattice parameter (alat)  =       6.3200  a.u.
     unit-cell volume          =    1295.0923 (a.u.)^3
     number of atoms/cell      =            3
     number of atomic types    =            3
     number of electrons       =        26.00
     number of Kohn-Sham states=           26
     kinetic-energy cutoff     =      60.0000  Ry
     charge density cutoff     =     240.0000  Ry
     Exchange-correlation= SLA  PW   PBX  PBC
                           (   1   4   3   4   0   0   0)

     celldm(1)=   6.320045  celldm(2)=   0.000000  celldm(3)=   0.000000
     celldm(4)=   0.000000  celldm(5)=   0.000000  celldm(6)=   0.000000

     crystal axes: (cart. coord. in units of alat)
               a(1) = (   1.000000  -0.000000  -0.000000 )  
               a(2) = (  -0.500000   0.866025  -0.000000 )  
               a(3) = (   0.000000   0.000000   5.923926 )  

     reciprocal axes: (cart. coord. in units 2 pi/alat)
               b(1) = (  1.000000  0.577350 -0.000000 )  
               b(2) = (  0.000000  1.154701 -0.000000 )  
               b(3) = (  0.000000  0.000000  0.168807 )  


     PseudoPot. # 1 for Zr read from file:
     /mgpfs/home/rabdillah/repo/qe/pseudo/Zr.pbe-spn-kjpaw_psl.1.0.0.UPF
     MD5 check sum: 02112c41713a0468aff2bb39ef194e36
     Pseudo is Projector augmented-wave + core cor, Zval = 12.0
     Generated using &quot;atomic&quot; code by A. Dal Corso  v.6.2.2
     Shape of augmentation charge: PSQ
     Using radial grid of 1225 points,  6 beta functions with: 
                l(1) =   0
                l(2) =   0
                l(3) =   1
                l(4) =   1
                l(5) =   2
                l(6) =   2
     Q(r) pseudized with 0 coefficients 


     PseudoPot. # 2 for F  read from file:
     /mgpfs/home/rabdillah/repo/qe/pseudo/F.pbe-n-kjpaw_psl.1.0.0.UPF
     MD5 check sum: 66d718ea72839a4268ab2a9540e8cdd4
     Pseudo is Projector augmented-wave + core cor, Zval =  7.0
     Generated using &quot;atomic&quot; code by A. Dal Corso  v.6.3
     Shape of augmentation charge: PSQ
     Using radial grid of 1105 points,  4 beta functions with: 
                l(1) =   0
                l(2) =   0
                l(3) =   1
                l(4) =   1
     Q(r) pseudized with 0 coefficients 


     PseudoPot. # 3 for Br read from file:
     /mgpfs/home/rabdillah/repo/qe/pseudo/Br.pbe-n-kjpaw_psl.1.0.0.UPF
     MD5 check sum: b00de77caabc69c0a6b76eb37264f235
     Pseudo is Projector augmented-wave + core cor, Zval =  7.0
     Generated using &quot;atomic&quot; code by A. Dal Corso  v.6.3
     Shape of augmentation charge: PSQ
     Using radial grid of 1213 points,  4 beta functions with: 
                l(1) =   0
                l(2) =   0
                l(3) =   1
                l(4) =   1
     Q(r) pseudized with 0 coefficients 


     atomic species   valence    mass     pseudopotential
        Zr            12.00    91.22400     Zr( 1.00)
        F              7.00    18.99800     F ( 1.00)
        Br             7.00    79.90400     Br( 1.00)

      6 Sym. Ops. (no inversion) found



   Cartesian axes

     site n.     atom                  positions (alat units)
         1           Zr  tau(   1) = (   0.0000000   0.0000000   3.0210788  )
         2           F   tau(   2) = (  -0.0000000   0.5773503   3.4105834  )
         3           Br  tau(   3) = (  -0.0000000   0.5773503   2.4542273  )

     number of k points=    91
                       cart. coord. in units 2pi/alat
        k(    1) = (   0.0000000   0.0000000   0.0000000), wk =   0.0219780
        k(    2) = (   0.0166667   0.0096225   0.0000000), wk =   0.0219780
        k(    3) = (   0.0333333   0.0192450   0.0000000), wk =   0.0219780
        k(    4) = (   0.0500000   0.0288675   0.0000000), wk =   0.0219780
        k(    5) = (   0.0666667   0.0384900   0.0000000), wk =   0.0219780
        k(    6) = (   0.0833333   0.0481125   0.0000000), wk =   0.0219780
        k(    7) = (   0.1000000   0.0577350   0.0000000), wk =   0.0219780
        k(    8) = (   0.1166667   0.0673575   0.0000000), wk =   0.0219780
        k(    9) = (   0.1333333   0.0769800   0.0000000), wk =   0.0219780
        k(   10) = (   0.1500000   0.0866025   0.0000000), wk =   0.0219780
        k(   11) = (   0.1666667   0.0962250   0.0000000), wk =   0.0219780
        k(   12) = (   0.1833333   0.1058475   0.0000000), wk =   0.0219780
        k(   13) = (   0.2000000   0.1154701   0.0000000), wk =   0.0219780
        k(   14) = (   0.2166667   0.1250926   0.0000000), wk =   0.0219780
        k(   15) = (   0.2333333   0.1347151   0.0000000), wk =   0.0219780
        k(   16) = (   0.2500000   0.1443376   0.0000000), wk =   0.0219780
        k(   17) = (   0.2666667   0.1539601   0.0000000), wk =   0.0219780
        k(   18) = (   0.2833333   0.1635826   0.0000000), wk =   0.0219780
        k(   19) = (   0.3000000   0.1732051   0.0000000), wk =   0.0219780
        k(   20) = (   0.3166667   0.1828276   0.0000000), wk =   0.0219780
        k(   21) = (   0.3333333   0.1924501   0.0000000), wk =   0.0219780
        k(   22) = (   0.3500000   0.2020726   0.0000000), wk =   0.0219780
        k(   23) = (   0.3666667   0.2116951   0.0000000), wk =   0.0219780
        k(   24) = (   0.3833333   0.2213176   0.0000000), wk =   0.0219780
        k(   25) = (   0.4000000   0.2309401   0.0000000), wk =   0.0219780
        k(   26) = (   0.4166667   0.2405626   0.0000000), wk =   0.0219780
        k(   27) = (   0.4333333   0.2501851   0.0000000), wk =   0.0219780
        k(   28) = (   0.4500000   0.2598076   0.0000000), wk =   0.0219780
        k(   29) = (   0.4666667   0.2694301   0.0000000), wk =   0.0219780
        k(   30) = (   0.4833333   0.2790526   0.0000000), wk =   0.0219780
        k(   31) = (   0.5000000   0.2886751   0.0000000), wk =   0.0219780
        k(   32) = (   0.4944444   0.2982976   0.0000000), wk =   0.0219780
        k(   33) = (   0.4888889   0.3079201   0.0000000), wk =   0.0219780
        k(   34) = (   0.4833333   0.3175426   0.0000000), wk =   0.0219780
        k(   35) = (   0.4777778   0.3271652   0.0000000), wk =   0.0219780
        k(   36) = (   0.4722222   0.3367877   0.0000000), wk =   0.0219780
        k(   37) = (   0.4666667   0.3464102   0.0000000), wk =   0.0219780
        k(   38) = (   0.4611111   0.3560327   0.0000000), wk =   0.0219780
        k(   39) = (   0.4555556   0.3656552   0.0000000), wk =   0.0219780
        k(   40) = (   0.4500000   0.3752777   0.0000000), wk =   0.0219780
        k(   41) = (   0.4444444   0.3849002   0.0000000), wk =   0.0219780
        k(   42) = (   0.4388889   0.3945227   0.0000000), wk =   0.0219780
        k(   43) = (   0.4333333   0.4041452   0.0000000), wk =   0.0219780
        k(   44) = (   0.4277778   0.4137677   0.0000000), wk =   0.0219780
        k(   45) = (   0.4222222   0.4233902   0.0000000), wk =   0.0219780
        k(   46) = (   0.4166667   0.4330127   0.0000000), wk =   0.0219780
        k(   47) = (   0.4111111   0.4426352   0.0000000), wk =   0.0219780
        k(   48) = (   0.4055556   0.4522577   0.0000000), wk =   0.0219780
        k(   49) = (   0.4000000   0.4618802   0.0000000), wk =   0.0219780
        k(   50) = (   0.3944444   0.4715027   0.0000000), wk =   0.0219780
        k(   51) = (   0.3888889   0.4811252   0.0000000), wk =   0.0219780
        k(   52) = (   0.3833333   0.4907477   0.0000000), wk =   0.0219780
        k(   53) = (   0.3777778   0.5003702   0.0000000), wk =   0.0219780
        k(   54) = (   0.3722222   0.5099927   0.0000000), wk =   0.0219780
        k(   55) = (   0.3666667   0.5196152   0.0000000), wk =   0.0219780
        k(   56) = (   0.3611111   0.5292377   0.0000000), wk =   0.0219780
        k(   57) = (   0.3555556   0.5388603   0.0000000), wk =   0.0219780
        k(   58) = (   0.3500000   0.5484828   0.0000000), wk =   0.0219780
        k(   59) = (   0.3444444   0.5581053   0.0000000), wk =   0.0219780
        k(   60) = (   0.3388889   0.5677278   0.0000000), wk =   0.0219780
        k(   61) = (   0.3333333   0.5773503   0.0000000), wk =   0.0219780
        k(   62) = (   0.3222222   0.5581053   0.0000000), wk =   0.0219780
        k(   63) = (   0.3111111   0.5388603   0.0000000), wk =   0.0219780
        k(   64) = (   0.3000000   0.5196152   0.0000000), wk =   0.0219780
        k(   65) = (   0.2888889   0.5003702   0.0000000), wk =   0.0219780
        k(   66) = (   0.2777778   0.4811252   0.0000000), wk =   0.0219780
        k(   67) = (   0.2666667   0.4618802   0.0000000), wk =   0.0219780
        k(   68) = (   0.2555556   0.4426352   0.0000000), wk =   0.0219780
        k(   69) = (   0.2444444   0.4233902   0.0000000), wk =   0.0219780
        k(   70) = (   0.2333333   0.4041452   0.0000000), wk =   0.0219780
        k(   71) = (   0.2222222   0.3849002   0.0000000), wk =   0.0219780
        k(   72) = (   0.2111111   0.3656552   0.0000000), wk =   0.0219780
        k(   73) = (   0.2000000   0.3464102   0.0000000), wk =   0.0219780
        k(   74) = (   0.1888889   0.3271652   0.0000000), wk =   0.0219780
        k(   75) = (   0.1777778   0.3079201   0.0000000), wk =   0.0219780
        k(   76) = (   0.1666667   0.2886751   0.0000000), wk =   0.0219780
        k(   77) = (   0.1555556   0.2694301   0.0000000), wk =   0.0219780
        k(   78) = (   0.1444444   0.2501851   0.0000000), wk =   0.0219780
        k(   79) = (   0.1333333   0.2309401   0.0000000), wk =   0.0219780
        k(   80) = (   0.1222222   0.2116951   0.0000000), wk =   0.0219780
        k(   81) = (   0.1111111   0.1924501   0.0000000), wk =   0.0219780
        k(   82) = (   0.1000000   0.1732051   0.0000000), wk =   0.0219780
        k(   83) = (   0.0888889   0.1539601   0.0000000), wk =   0.0219780
        k(   84) = (   0.0777778   0.1347151   0.0000000), wk =   0.0219780
        k(   85) = (   0.0666667   0.1154701   0.0000000), wk =   0.0219780
        k(   86) = (   0.0555556   0.0962250   0.0000000), wk =   0.0219780
        k(   87) = (   0.0444444   0.0769800   0.0000000), wk =   0.0219780
        k(   88) = (   0.0333333   0.0577350   0.0000000), wk =   0.0219780
        k(   89) = (   0.0222222   0.0384900   0.0000000), wk =   0.0219780
        k(   90) = (   0.0111111   0.0192450   0.0000000), wk =   0.0219780
        k(   91) = (   0.0000000   0.0000000   0.0000000), wk =   0.0219780

     Dense  grid:    81293 G-vectors     FFT dimensions: (  32,  32, 192)

     Estimated max dynamical RAM per process >      12.19 MB

     Estimated total dynamical RAM >     390.22 MB

     Check: negative core charge=   -0.000002

     The potential is recalculated from file :
     ./out/ZrFBr.save/charge-density


     negative rho (up, down):  1.525E-03 0.000E+00
     Starting wfcs are   21 randomized atomic wfcs +    5 random wfcs
     Checking if some PAW data can be deallocated... 

     Band Structure Calculation
     Davidson diagonalization with overlap

     ethr =  3.85E-09,  avg # of iterations = 31.6

     total cpu time spent up to now is       18.8 secs

     End of band structure calculation

          k = 0.0000 0.0000 0.0000 ( 10191 PWs)   bands (ev):

   -49.4386 -27.9191 -27.1484 -27.1484 -24.7221 -17.0555  -7.2107  -6.5198
    -6.5198  -5.2046  -2.6711  -2.6711  -0.2663   1.7758   1.7758   1.9491
     2.7525   2.7525   3.4122   3.7124   4.5112   4.9331   6.1760   6.8266
     8.3217   9.8502

          k = 0.0167 0.0096 0.0000 ( 10195 PWs)   bands (ev):

   -49.4384 -27.9185 -27.1507 -27.1487 -24.7214 -17.0535  -7.2082  -6.5225
    -6.5198  -5.2029  -2.6880  -2.6741  -0.2651   1.7709   1.7789   1.9569
     2.7466   2.7562   3.4218   3.7190   4.5182   4.9436   6.1871   6.8345
     8.3262   9.8556

          k = 0.0333 0.0192 0.0000 ( 10195 PWs)   bands (ev):

   -49.4379 -27.9167 -27.1575 -27.1498 -24.7195 -17.0474  -7.2008  -6.5306
    -6.5197  -5.1979  -2.7379  -2.6830  -0.2615   1.7571   1.7882   1.9786
     2.7319   2.7674   3.4489   3.7386   4.5391   4.9746   6.2203   6.8581
     8.3396   9.8715

          k = 0.0500 0.0289 0.0000 ( 10187 PWs)   bands (ev):

   -49.4371 -27.9136 -27.1686 -27.1515 -24.7165 -17.0373  -7.1885  -6.5437
    -6.5196  -5.1898  -2.8186  -2.6977  -0.2560   1.7363   1.8040   2.0091
     2.7161   2.7856   3.4905   3.7703   4.5734   5.0240   6.2750   6.8976
     8.3619   9.8963

          k = 0.0667 0.0385 0.0000 ( 10187 PWs)   bands (ev):

   -49.4360 -27.9093 -27.1840 -27.1539 -24.7123 -17.0233  -7.1718  -6.5614
    -6.5195  -5.1790  -2.9270  -2.7178  -0.2495   1.7106   1.8264   2.0419
     2.7088   2.8104   3.5434   3.8134   4.6206   5.0889   6.3498   6.9534
     8.3927   9.9261

          k = 0.0833 0.0481 0.0000 ( 10175 PWs)   bands (ev):

   -49.4346 -27.9039 -27.2033 -27.1569 -24.7073 -17.0054  -7.1509  -6.5831
    -6.5194  -5.1661  -3.0591  -2.7430  -0.2429   1.6818   1.8557   2.0702
     2.7192   2.8410   3.6057   3.8668   4.6800   5.1660   6.4424   7.0257
     8.4318   9.9421

          k = 0.1000 0.0577 0.0000 ( 10173 PWs)   bands (ev):

   -49.4329 -27.8975 -27.2261 -27.1605 -24.7014 -16.9838  -7.1264  -6.6080
    -6.5195  -5.1515  -3.2109  -2.7729  -0.2373   1.6524   1.8923   2.0893
     2.7528   2.8766   3.6765   3.9298   4.7509   5.2524   6.5490   7.1148
     8.4782   9.8484

          k = 0.1167 0.0674 0.0000 ( 10165 PWs)   bands (ev):

   -49.4309 -27.8901 -27.2521 -27.1647 -24.6950 -16.9586  -7.0989  -6.6354
    -6.5197  -5.1358  -3.3783  -2.8069  -0.2341   1.6248   1.9362   2.0991
     2.8104   2.9164   3.7553   4.0019   4.8324   5.3457   6.6647   7.2199
     8.5306   9.7056

          k = 0.1333 0.0770 0.0000 ( 10167 PWs)   bands (ev):

   -49.4287 -27.8819 -27.2808 -27.1694 -24.6882 -16.9301  -7.0692  -6.6645
    -6.5201  -5.1197  -3.5574  -2.8444  -0.2345   1.6014   1.9879   2.1032
     2.8881   2.9596   3.8421   4.0829   4.9238   5.4446   6.7844   7.3382
     8.5861   9.5784

          k = 0.1500 0.0866 0.0000 ( 10169 PWs)   bands (ev):

   -49.4262 -27.8730 -27.3118 -27.1746 -24.6813 -16.8983  -7.0384  -6.6940
    -6.5207  -5.1038  -3.7445  -2.8849  -0.2396   1.5844   2.0472   2.1068
     2.9807   3.0052   3.9368   4.1725   5.0240   5.5481   6.9029   7.4635
     8.6407   9.4839

          k = 0.1667 0.0962 0.0000 ( 10141 PWs)   bands (ev):

   -49.4236 -27.8636 -27.3445 -27.1802 -24.6742 -16.8636  -7.0081  -6.7227
    -6.5217  -5.0892  -3.9360  -2.9278  -0.2499   1.5754   2.1140   2.1143
     3.0526   3.0838   4.0394   4.2709   5.1320   5.6560   7.0158   7.5854
     8.6905   9.4346

          k = 0.1833 0.1058 0.0000 ( 10155 PWs)   bands (ev):

   -49.4208 -27.8538 -27.3784 -27.1860 -24.6674 -16.8262  -6.9804  -6.7484
    -6.5230  -5.0773  -4.1280  -2.9724  -0.2659   1.5753   2.1281   2.1888
     3.1012   3.1940   4.1497   4.3778   5.2465   5.7680   7.1189   7.6908
     8.7375   9.4279

          k = 0.2000 0.1155 0.0000 ( 10125 PWs)   bands (ev):

   -49.4179 -27.8440 -27.4129 -27.1922 -24.6608 -16.7864  -6.9592  -6.7677
    -6.5246  -5.0706  -4.3157  -3.0182  -0.2874   1.5844   2.1512   2.2706
     3.1504   3.3093   4.2676   4.4932   5.3661   5.8841   7.2064   7.7698
     8.7924   9.4198

          k = 0.2167 0.1251 0.0000 ( 10131 PWs)   bands (ev):

   -49.4148 -27.8344 -27.4473 -27.1986 -24.6547 -16.7447  -6.9495  -6.7757
    -6.5267  -5.0749  -4.4916  -3.0645  -0.3135   1.6023   2.1843   2.3591
     3.1998   3.4286   4.3930   4.6171   5.4890   6.0042   7.2711   7.8234
     8.8655   9.3667

          k = 0.2333 0.1347 0.0000 ( 10141 PWs)   bands (ev):

   -49.4117 -27.8255 -27.4810 -27.2051 -24.6490 -16.7013  -6.9544  -6.7699
    -6.5292  -5.1021  -4.6416  -3.1109  -0.3433   1.6280   2.2278   2.4534
     3.2492   3.5511   4.5257   4.7493   5.6130   6.1276   7.3069   7.8635
     8.9540   9.3039

          k = 0.2500 0.1443 0.0000 ( 10137 PWs)   bands (ev):

   -49.4086 -27.8178 -27.5131 -27.2117 -24.6440 -16.6566  -6.9709  -6.7536
    -6.5320  -5.1714  -4.7452  -3.1567  -0.3755   1.6608   2.2810   2.5527
     3.2987   3.6766   4.6654   4.8897   5.7353   6.2538   7.3154   7.9006
     9.0385   9.2760

          k = 0.2667 0.1540 0.0000 ( 10146 PWs)   bands (ev):

   -49.4054 -27.8120 -27.5426 -27.2182 -24.6395 -16.6112  -6.9937  -6.7323
    -6.5351  -5.2878  -4.7957  -3.2015  -0.4087   1.6993   2.3426   2.6554
     3.3486   3.8051   4.8119   5.0378   5.8520   6.3816   7.3086   7.9352
     9.0888   9.3215

          k = 0.2833 0.1636 0.0000 ( 10148 PWs)   bands (ev):

   -49.4023 -27.8090 -27.5686 -27.2247 -24.6357 -16.5655  -7.0194  -6.7099
    -6.5386  -5.4316  -4.8114  -3.2450  -0.4417   1.7429   2.4106   2.7597
     3.3995   3.9368   4.9646   5.1933   5.9589   6.5097   7.3041   7.9625
     9.1199   9.4272

          k = 0.3000 0.1732 0.0000 ( 10150 PWs)   bands (ev):

   -49.3992 -27.8097 -27.5897 -27.2310 -24.6325 -16.5199  -7.0461  -6.6886
    -6.5423  -5.5834  -4.8105  -3.2866  -0.4734   1.7907   2.4821   2.8632
     3.4524   4.0720   5.1224   5.3552   6.0517   6.6366   7.3177   7.9803
     9.1659   9.5560

          k = 0.3167 0.1828 0.0000 ( 10150 PWs)   bands (ev):

   -49.3963 -27.8148 -27.6053 -27.2371 -24.6298 -16.4751  -7.0727  -6.6695
    -6.5461  -5.7329  -4.8019  -3.3261  -0.5030   1.8421   2.5540   2.9630
     3.5089   4.2111   5.2836   5.5221   6.1292   6.7610   7.3602   7.9922
     9.2337   9.6906

          k = 0.3333 0.1925 0.0000 ( 10150 PWs)   bands (ev):

   -49.3935 -27.8241 -27.6152 -27.2429 -24.6278 -16.4316  -7.0988  -6.6535
    -6.5501  -5.8748  -4.7897  -3.3631  -0.5298   1.8965   2.6228   3.0557
     3.5706   4.3546   5.4447   5.6914   6.1971   6.8813   7.4345   8.0063
     9.3172   9.8180

          k = 0.3500 0.2021 0.0000 ( 10170 PWs)   bands (ev):

   -49.3908 -27.8371 -27.6200 -27.2484 -24.6262 -16.3899  -7.1241  -6.6411
    -6.5540  -6.0060  -4.7760  -3.3973  -0.5535   1.9533   2.6848   3.1380
     3.6388   4.5027   5.5985   5.8592   6.2706   6.9950   7.5365   8.0323
     9.4041   9.9065

          k = 0.3667 0.2117 0.0000 ( 10194 PWs)   bands (ev):

   -49.3883 -27.8521 -27.6211 -27.2535 -24.6251 -16.3507  -7.1484  -6.6327
    -6.5579  -6.1240  -4.7620  -3.4285  -0.5738   2.0121   2.7370   3.2078
     3.7138   4.6556   5.7324   6.0227   6.3714   7.0980   7.6586   8.0798
     9.4747   9.8670

          k = 0.3833 0.2213 0.0000 ( 10176 PWs)   bands (ev):

   -49.3861 -27.8679 -27.6197 -27.2580 -24.6243 -16.3144  -7.1715  -6.6289
    -6.5615  -6.2267  -4.7483  -3.4565  -0.5907   2.0720   2.7767   3.2647
     3.7936   4.8126   5.8326   6.1865   6.5132   7.1874   7.7924   8.1551
     9.4797   9.7082

          k = 0.4000 0.2309 0.0000 ( 10196 PWs)   bands (ev):

   -49.3841 -27.8833 -27.6169 -27.2621 -24.6238 -16.2817  -7.1933  -6.6306
    -6.5649  -6.3121  -4.7357  -3.4811  -0.6044   2.1321   2.8028   3.3096
     3.8747   4.9721   5.8981   6.3575   6.6907   7.2643   7.9289   8.2592
     9.3260   9.6025

          k = 0.4167 0.2406 0.0000 ( 10186 PWs)   bands (ev):

   -49.3824 -27.8974 -27.6135 -27.2657 -24.6236 -16.2530  -7.2133  -6.6385
    -6.5679  -6.3785  -4.7244  -3.5021  -0.6152   2.1915   2.8152   3.3443
     3.9528   5.1311   5.9400   6.5338   6.8902   7.3364   8.0553   8.3853
     9.1029   9.4883

          k = 0.4333 0.2502 0.0000 ( 10170 PWs)   bands (ev):

   -49.3809 -27.9096 -27.6102 -27.2686 -24.6234 -16.2288  -7.2311  -6.6523
    -6.5704  -6.4255  -4.7147  -3.5195  -0.6234   2.2483   2.8153   3.3705
     4.0236   5.2847   5.9675   6.7063   7.0985   7.4177   8.1513   8.5107
     8.9090   9.3215

          k = 0.4500 0.2598 0.0000 ( 10168 PWs)   bands (ev):

   -49.3798 -27.9194 -27.6072 -27.2709 -24.6234 -16.2095  -7.2460  -6.6695
    -6.5725  -6.4555  -4.7070  -3.5332  -0.6293   2.3001   2.8062   3.3897
     4.0831   5.4254   5.9845   6.8630   7.2985   7.5288   8.1854   8.5569
     8.8273   9.1443

          k = 0.4667 0.2694 0.0000 ( 10168 PWs)   bands (ev):

   -49.3790 -27.9267 -27.6049 -27.2726 -24.6234 -16.1955  -7.2574  -6.6858
    -6.5740  -6.4729  -4.7014  -3.5430  -0.6333   2.3433   2.7925   3.4028
     4.1280   5.5431   5.9921   6.9906   7.4648   7.6892   8.1438   8.4869
     8.7873   9.0367

          k = 0.4833 0.2791 0.0000 ( 10162 PWs)   bands (ev):

   -49.3785 -27.9311 -27.6035 -27.2736 -24.6235 -16.1870  -7.2645  -6.6971
    -6.5750  -6.4816  -4.6980  -3.5488  -0.6356   2.3728   2.7802   3.4104
     4.1560   5.6243   5.9923   7.0766   7.5819   7.8731   8.0843   8.3772
     8.6407   9.0132

          k = 0.5000 0.2887 0.0000 ( 10166 PWs)   bands (ev):

   -49.3783 -27.9326 -27.6030 -27.2739 -24.6235 -16.1841  -7.2670  -6.7011
    -6.5753  -6.4843  -4.6968  -3.5508  -0.6363   2.3835   2.7752   3.4129
     4.1655   5.6541   5.9909   7.1078   7.6275   7.9667   8.0795   8.2970
     8.5603   9.0088

          k = 0.4944 0.2983 0.0000 ( 10170 PWs)   bands (ev):

   -49.3783 -27.9323 -27.6029 -27.2745 -24.6234 -16.1838  -7.2661  -6.7028
    -6.5756  -6.4818  -4.6969  -3.5561  -0.6335   2.3846   2.7752   3.4107
     4.1604   5.6616   5.9963   7.1107   7.6287   7.9681   8.0811   8.2984
     8.5616   9.0093

          k = 0.4889 0.3079 0.0000 ( 10170 PWs)   bands (ev):

   -49.3782 -27.9316 -27.6027 -27.2762 -24.6231 -16.1829  -7.2634  -6.7079
    -6.5763  -6.4748  -4.6971  -3.5717  -0.6249   2.3878   2.7752   3.4042
     4.1454   5.6835   6.0128   7.1195   7.6321   7.9723   8.0859   8.3025
     8.5652   9.0106

          k = 0.4833 0.3175 0.0000 ( 10178 PWs)   bands (ev):

   -49.3781 -27.9304 -27.6024 -27.2789 -24.6227 -16.1815  -7.2590  -6.7158
    -6.5771  -6.4640  -4.6974  -3.5974  -0.6109   2.3929   2.7751   3.3938
     4.1218   5.7179   6.0407   7.1341   7.6379   7.9791   8.0940   8.3093
     8.5712   9.0125

          k = 0.4778 0.3272 0.0000 ( 10170 PWs)   bands (ev):

   -49.3780 -27.9288 -27.6020 -27.2828 -24.6221 -16.1794  -7.2529  -6.7259
    -6.5776  -6.4504  -4.6978  -3.6327  -0.5918   2.3998   2.7748   3.3799
     4.0910   5.7618   6.0808   7.1548   7.6460   7.9886   8.1053   8.3189
     8.5797   9.0149

          k = 0.4722 0.3368 0.0000 ( 10178 PWs)   bands (ev):

   -49.3779 -27.9267 -27.6014 -27.2877 -24.6214 -16.1767  -7.2452  -6.7377
    -6.5777  -6.4345  -4.6983  -3.6769  -0.5678   2.4080   2.7740   3.3632
     4.0548   5.8120   6.1339   7.1817   7.6565   8.0006   8.1199   8.3311
     8.5905   9.0174

          k = 0.4667 0.3464 0.0000 ( 10180 PWs)   bands (ev):

   -49.3777 -27.9242 -27.6007 -27.2935 -24.6205 -16.1735  -7.2359  -6.7505
    -6.5774  -6.4170  -4.6991  -3.7293  -0.5395   2.4173   2.7723   3.3447
     4.0147   5.8650   6.2006   7.2148   7.6694   8.0149   8.1378   8.3459
     8.6037   9.0195

          k = 0.4611 0.3560 0.0000 ( 10196 PWs)   bands (ev):

   -49.3774 -27.9212 -27.5999 -27.3004 -24.6195 -16.1698  -7.2254  -6.7639
    -6.5767  -6.3981  -4.6999  -3.7891  -0.5072   2.4270   2.7693   3.3255
     3.9723   5.9185   6.2808   7.2544   7.6848   8.0313   8.1589   8.3633
     8.6192   9.0207

          k = 0.4556 0.3657 0.0000 ( 10190 PWs)   bands (ev):

   -49.3772 -27.9178 -27.5991 -27.3081 -24.6183 -16.1656  -7.2138  -6.7775
    -6.5756  -6.3783  -4.7010  -3.8554  -0.4716   2.4369   2.7647   3.3067
     3.9285   5.9708   6.3735   7.3004   7.7029   8.0494   8.1833   8.3831
     8.6370   9.0206

          k = 0.4500 0.3753 0.0000 ( 10180 PWs)   bands (ev):

   -49.3769 -27.9140 -27.5981 -27.3166 -24.6171 -16.1610  -7.2011  -6.7908
    -6.5742  -6.3575  -4.7023  -3.9272  -0.4329   2.4464   2.7578   3.2895
     3.8844   6.0213   6.4769   7.3530   7.7236   8.0690   8.2111   8.4054
     8.6571   9.0191

          k = 0.4444 0.3849 0.0000 ( 10186 PWs)   bands (ev):

   -49.3766 -27.9099 -27.5970 -27.3259 -24.6158 -16.1559  -7.1879  -6.8036
    -6.5724  -6.3359  -4.7038  -4.0037  -0.3918   2.4550   2.7481   3.2753
     3.8405   6.0696   6.5891   7.4117   7.7474   8.0897   8.2422   8.4301
     8.6795   9.0162

          k = 0.4389 0.3945 0.0000 ( 10178 PWs)   bands (ev):

   -49.3763 -27.9054 -27.5959 -27.3359 -24.6144 -16.1505  -7.1744  -6.8154
    -6.5704  -6.3137  -4.7058  -4.0840  -0.3485   2.4623   2.7353   3.2650
     3.7974   6.1153   6.7079   7.4759   7.7745   8.1113   8.2768   8.4570
     8.7041   9.0128

          k = 0.4333 0.4041 0.0000 ( 10164 PWs)   bands (ev):

   -49.3759 -27.9006 -27.5947 -27.3465 -24.6130 -16.1447  -7.1610  -6.8260
    -6.5680  -6.2907  -4.7082  -4.1670  -0.3036   2.4679   2.7193   3.2593
     3.7554   6.1584   6.8314   7.5443   7.8053   8.1340   8.3148   8.4864
     8.7310   9.0102

          k = 0.4278 0.4138 0.0000 ( 10152 PWs)   bands (ev):

   -49.3756 -27.8955 -27.5934 -27.3575 -24.6116 -16.1387  -7.1481  -6.8349
    -6.5655  -6.2671  -4.7114  -4.2518  -0.2573   2.4716   2.7004   3.2583
     3.7148   6.1984   6.9577   7.6142   7.8404   8.1587   8.3562   8.5183
     8.7603   9.0103

          k = 0.4222 0.4234 0.0000 ( 10162 PWs)   bands (ev):

   -49.3752 -27.8901 -27.5921 -27.3690 -24.6101 -16.1324  -7.1363  -6.8418
    -6.5627  -6.2427  -4.7159  -4.3371  -0.2102   2.4732   2.6793   3.2618
     3.6759   6.2351   7.0851   7.6820   7.8796   8.1885   8.4010   8.5531
     8.7921   9.0151

          k = 0.4167 0.4330 0.0000 ( 10158 PWs)   bands (ev):

   -49.3748 -27.8846 -27.5908 -27.3807 -24.6087 -16.1260  -7.1260  -6.8463
    -6.5597  -6.2176  -4.7227  -4.4213  -0.1625   2.4723   2.6567   3.2692
     3.6390   6.2682   7.2116   7.7434   7.9207   8.2289   8.4492   8.5915
     8.8269   9.0262

          k = 0.4111 0.4426 0.0000 ( 10158 PWs)   bands (ev):

   -49.3744 -27.8790 -27.5895 -27.3926 -24.6073 -16.1194  -7.1177  -6.8481
    -6.5565  -6.1917  -4.7341  -4.5014  -0.1146   2.4690   2.6338   3.2792
     3.6047   6.2974   7.3356   7.7957   7.9589   8.2870   8.5004   8.6344
     8.8651   9.0447

          k = 0.4056 0.4523 0.0000 ( 10150 PWs)   bands (ev):

   -49.3740 -27.8732 -27.5881 -27.4045 -24.6059 -16.1128  -7.1117  -6.8471
    -6.5531  -6.1649  -4.7554  -4.5715  -0.0671   2.4632   2.6118   3.2904
     3.5736   6.3225   7.4547   7.8383   7.9915   8.3662   8.5544   8.6831
     8.9072   9.0711

          k = 0.4000 0.4619 0.0000 ( 10168 PWs)   bands (ev):

   -49.3736 -27.8674 -27.5868 -27.4164 -24.6046 -16.1063  -7.1081  -6.8435
    -6.5495  -6.1371  -4.7949  -4.6226  -0.0203   2.4550   2.5914   3.3010
     3.5468   6.3434   7.5650   7.8733   8.0216   8.4627   8.6106   8.7397
     8.9535   9.1052

          k = 0.3944 0.4715 0.0000 ( 10176 PWs)   bands (ev):

   -49.3733 -27.8617 -27.5856 -27.4280 -24.6034 -16.0998  -7.1067  -6.8376
    -6.5458  -6.1082  -4.8552  -4.6518   0.0253   2.4447   2.5735   3.3084
     3.5261   6.3600   7.6582   7.9089   8.0547   8.5679   8.6682   8.8070
     9.0044   9.1470

          k = 0.3889 0.4811 0.0000 ( 10168 PWs)   bands (ev):

   -49.3729 -27.8561 -27.5843 -27.4393 -24.6022 -16.0936  -7.1072  -6.8299
    -6.5419  -6.0782  -4.9277  -4.6669   0.0691   2.4331   2.5581   3.3104
     3.5132   6.3724   7.7203   7.9614   8.0937   8.6723   8.7263   8.8879
     9.0601   9.1969

          k = 0.3833 0.4907 0.0000 ( 10162 PWs)   bands (ev):

   -49.3725 -27.8506 -27.5832 -27.4500 -24.6011 -16.0875  -7.1091  -6.8211
    -6.5380  -6.0469  -5.0047  -4.6753   0.1107   2.4211   2.5452   3.3052
     3.5090   6.3807   7.7463   8.0401   8.1384   8.7689   8.7843   8.9822
     9.1204   9.2558

          k = 0.3778 0.5004 0.0000 ( 10164 PWs)   bands (ev):

   -49.3722 -27.8455 -27.5821 -27.4601 -24.6002 -16.0818  -7.1121  -6.8118
    -6.5341  -6.0144  -5.0822  -4.6804   0.1495   2.4097   2.5344   3.2935
     3.5125   6.3852   7.7497   8.1343   8.1890   8.8396   8.8589   9.0828
     9.1855   9.3257

          k = 0.3722 0.5100 0.0000 ( 10178 PWs)   bands (ev):

   -49.3719 -27.8407 -27.5812 -27.4695 -24.5993 -16.0765  -7.1156  -6.8026
    -6.5304  -5.9806  -5.1580  -4.6838   0.1849   2.3998   2.5254   3.2774
     3.5212   6.3865   7.7432   8.2251   8.2533   8.8942   8.9424   9.1795
     9.2553   9.4074

          k = 0.3667 0.5196 0.0000 ( 10210 PWs)   bands (ev):

   -49.3716 -27.8365 -27.5804 -27.4778 -24.5986 -16.0716  -7.1193  -6.7939
    -6.5268  -5.9458  -5.2308  -4.6862   0.2166   2.3921   2.5177   3.2592
     3.5326   6.3850   7.7334   8.2893   8.3492   8.9447   9.0237   9.2667
     9.3294   9.4975

          k = 0.3611 0.5292 0.0000 ( 10212 PWs)   bands (ev):

   -49.3714 -27.8327 -27.5796 -27.4851 -24.5980 -16.0673  -7.1230  -6.7862
    -6.5235  -5.9102  -5.2996  -4.6878   0.2439   2.3869   2.5113   3.2408
     3.5446   6.3816   7.7234   8.3485   8.4520   8.9885   9.1039   9.3452
     9.4070   9.5863

          k = 0.3556 0.5389 0.0000 ( 10208 PWs)   bands (ev):

   -49.3711 -27.8296 -27.5791 -27.4912 -24.5975 -16.0636  -7.1263  -6.7797
    -6.5206  -5.8746  -5.3630  -4.6890   0.2666   2.3842   2.5058   3.2237
     3.5559   6.3770   7.7147   8.4086   8.5538   9.0202   9.1831   9.4173
     9.4875   9.6609

          k = 0.3500 0.5485 0.0000 ( 10188 PWs)   bands (ev):

   -49.3710 -27.8271 -27.5786 -27.4960 -24.5971 -16.0606  -7.1290  -6.7746
    -6.5183  -5.8403  -5.4193  -4.6898   0.2844   2.3838   2.5012   3.2091
     3.5653   6.3722   7.7079   8.4690   8.6525   9.0317   9.2607   9.4823
     9.5694   9.6952

          k = 0.3444 0.5581 0.0000 ( 10170 PWs)   bands (ev):

   -49.3708 -27.8254 -27.5783 -27.4994 -24.5968 -16.0584  -7.1311  -6.7709
    -6.5165  -5.8098  -5.4658  -4.6903   0.2971   2.3850   2.4975   3.1979
     3.5724   6.3679   7.7032   8.5273   8.7456   9.0134   9.3356   9.5308
     9.6269   9.6648

          k = 0.3389 0.5677 0.0000 ( 10162 PWs)   bands (ev):

   -49.3708 -27.8244 -27.5781 -27.5014 -24.5966 -16.0570  -7.1324  -6.7687
    -6.5154  -5.7876  -5.4976  -4.6906   0.3046   2.3867   2.4950   3.1908
     3.5767   6.3648   7.7006   8.5777   8.8292   8.9633   9.4050   9.5278
     9.6060   9.7354

          k = 0.3333 0.5774 0.0000 ( 10158 PWs)   bands (ev):

   -49.3707 -27.8241 -27.5780 -27.5021 -24.5966 -16.0565  -7.1329  -6.7680
    -6.5150  -5.7793  -5.5091  -4.6907   0.3070   2.3876   2.4940   3.1884
     3.5782   6.3637   7.6998   8.6022   8.8859   8.9110   9.4520   9.4898
     9.6120   9.7905

          k = 0.3222 0.5581 0.0000 ( 10174 PWs)   bands (ev):

   -49.3709 -27.8252 -27.5783 -27.4995 -24.5968 -16.0586  -7.1310  -6.7706
    -6.5165  -5.8067  -5.4689  -4.6904   0.2977   2.3810   2.4992   3.1978
     3.5732   6.3688   7.7021   8.4610   8.8298   8.9737   9.3952   9.4253
     9.5665   9.7467

          k = 0.3111 0.5389 0.0000 ( 10186 PWs)   bands (ev):

   -49.3712 -27.8280 -27.5792 -27.4921 -24.5974 -16.0649  -7.1254  -6.7772
    -6.5204  -5.8580  -5.3801  -4.6893   0.2716   2.3573   2.5153   3.2212
     3.5625   6.3844   7.7051   8.1731   8.6465   9.0053   9.1508   9.4318
     9.6381   9.8077

          k = 0.3000 0.5196 0.0000 ( 10186 PWs)   bands (ev):

   -49.3718 -27.8315 -27.5809 -27.4806 -24.5983 -16.0759  -7.1165  -6.7856
    -6.5264  -5.9057  -5.2721  -4.6873   0.2320   2.3174   2.5396   3.2429
     3.5584   6.4076   7.6797   7.8805   8.3767   8.6925   9.2692   9.4195
     9.6222   9.8400

          k = 0.2889 0.5004 0.0000 ( 10208 PWs)   bands (ev):

   -49.3728 -27.8346 -27.5835 -27.4660 -24.5995 -16.0919  -7.1051  -6.7929
    -6.5339  -5.9419  -5.1562  -4.6832   0.1827   2.2653   2.5686   3.2410
     3.5769   6.4315   7.4555   7.7675   8.0909   8.3708   9.2860   9.4120
     9.4885   9.8704

          k = 0.2778 0.4811 0.0000 ( 10180 PWs)   bands (ev):

   -49.3740 -27.8365 -27.5869 -27.4491 -24.6010 -16.1129  -7.0923  -6.7961
    -6.5426  -5.9648  -5.0391  -4.6743   0.1270   2.2049   2.6000   3.2077
     3.6198   6.4455   7.1250   7.7000   7.8173   8.1183   9.0583   9.3006
     9.5310   9.8355

          k = 0.2667 0.4619 0.0000 ( 10184 PWs)   bands (ev):

   -49.3755 -27.8365 -27.5909 -27.4305 -24.6026 -16.1390  -7.0797  -6.7926
    -6.5524  -5.9735  -4.9310  -4.6530   0.0681   2.1392   2.6315   3.1529
     3.6724   6.4354   6.7850   7.4860   7.5769   8.0258   8.7968   9.1307
     9.4738   9.9711

          k = 0.2556 0.4426 0.0000 ( 10182 PWs)   bands (ev):

   -49.3773 -27.8344 -27.5955 -27.4110 -24.6045 -16.1701  -7.0680  -6.7811
    -6.5634  -5.9674  -4.8504  -4.6022   0.0087   2.0704   2.6598   3.0893
     3.7200   6.3661   6.4684   7.2122   7.3352   8.0313   8.5431   8.9369
     9.4235  10.1617

          k = 0.2444 0.4234 0.0000 ( 10182 PWs)   bands (ev):

   -49.3794 -27.8301 -27.6000 -27.3910 -24.6066 -16.2059  -7.0573  -6.7623
    -6.5757  -5.9454  -4.8103  -4.5105  -0.0488   2.0003   2.6795   3.0274
     3.7528   6.0815   6.3262   6.9326   7.1171   8.0225   8.3280   8.7560
     9.4136  10.1943

          k = 0.2333 0.4041 0.0000 ( 10170 PWs)   bands (ev):

   -49.3818 -27.8239 -27.6041 -27.3709 -24.6090 -16.2460  -7.0467  -6.7386
    -6.5893  -5.9059  -4.7976  -4.3921  -0.1023   1.9304   2.6825   2.9780
     3.7652   5.7507   6.1909   6.6579   6.9333   7.9003   8.2058   8.6194
     9.4431  10.0772

          k = 0.2222 0.3849 0.0000 ( 10178 PWs)   bands (ev):

   -49.3845 -27.8163 -27.6068 -27.3510 -24.6115 -16.2900  -7.0353  -6.7135
    -6.6039  -5.8476  -4.7975  -4.2625  -0.1502   1.8619   2.6612   2.9492
     3.7538   5.4272   6.0217   6.3932   6.7770   7.6938   8.1221   8.5464
     9.4926   9.9388

          k = 0.2111 0.3657 0.0000 ( 10166 PWs)   bands (ev):

   -49.3874 -27.8084 -27.6071 -27.3315 -24.6144 -16.3373  -7.0222  -6.6916
    -6.6176  -5.7698  -4.8032  -4.1292  -0.1913   1.7960   2.6176   2.9387
     3.7173   5.1177   5.8307   6.1409   6.6357   7.4724   8.0234   8.5217
     9.5164   9.7862

          k = 0.2000 0.3464 0.0000 ( 10168 PWs)   bands (ev):

   -49.3906 -27.8016 -27.6034 -27.3127 -24.6177 -16.3873  -7.0067  -6.6818
    -6.6233  -5.6728  -4.8114  -3.9957  -0.2246   1.7340   2.5613   2.9354
     3.6558   4.8273   5.6303   5.9014   6.4987   7.2543   7.9242   8.5178
     9.4776   9.6228

          k = 0.1889 0.3272 0.0000 ( 10144 PWs)   bands (ev):

   -49.3939 -27.7974 -27.5943 -27.2946 -24.6214 -16.4394  -6.9886  -6.6921
    -6.6144  -5.5583  -4.8197  -3.8640  -0.2496   1.6770   2.5010   2.9282
     3.5712   4.5606   5.4287   5.6751   6.3595   7.0442   7.8360   8.5207
     9.3867   9.4621

          k = 0.1778 0.3079 0.0000 ( 10138 PWs)   bands (ev):

   -49.3974 -27.7967 -27.5791 -27.2775 -24.6256 -16.4928  -6.9681  -6.7143
    -6.5992  -5.4303  -4.8246  -3.7357  -0.2664   1.6261   2.4413   2.9085
     3.4688   4.3210   5.2309   5.4617   6.2156   6.8435   7.7601   8.5229
     9.2418   9.3514

          k = 0.1667 0.2887 0.0000 ( 10138 PWs)   bands (ev):

   -49.4010 -27.7998 -27.5577 -27.2613 -24.6303 -16.5470  -6.9456  -6.7417
    -6.5838  -5.2967  -4.8192  -3.6119  -0.2752   1.5825   2.3848   2.8676
     3.3584   4.1092   5.0396   5.2609   6.0670   6.6529   7.6912   8.5156
     9.0737   9.2954

          k = 0.1556 0.2694 0.0000 ( 10146 PWs)   bands (ev):

   -49.4047 -27.8061 -27.5308 -27.2463 -24.6357 -16.6011  -6.9221  -6.7712
    -6.5700  -5.1751  -4.7876  -3.4936  -0.2770   1.5472   2.3328   2.7975
     3.2542   3.9229   4.8565   5.0726   5.9151   6.4723   7.6212   8.4851
     8.9196   9.2868

          k = 0.1444 0.2502 0.0000 ( 10134 PWs)   bands (ev):

   -49.4084 -27.8148 -27.4995 -27.2323 -24.6417 -16.6545  -6.9013  -6.7985
    -6.5580  -5.0937  -4.7033  -3.3816  -0.2731   1.5214   2.2863   2.6961
     3.1669   3.7572   4.6825   4.8965   5.7617   6.3015   7.5419   8.4086
     8.8105   9.3249

          k = 0.1333 0.2309 0.0000 ( 10124 PWs)   bands (ev):

   -49.4121 -27.8251 -27.4650 -27.2194 -24.6483 -16.7066  -6.8956  -6.8110
    -6.5480  -5.0611  -4.5597  -3.2766  -0.2652   1.5056   2.2457   2.5727
     3.0958   3.6073   4.5182   4.7326   5.6093   6.1401   7.4481   8.2725
     8.7655   9.3713

          k = 0.1222 0.2117 0.0000 ( 10130 PWs)   bands (ev):

   -49.4157 -27.8363 -27.4285 -27.2077 -24.6555 -16.7567  -6.9164  -6.7967
    -6.5399  -5.0572  -4.3793  -3.1791  -0.2552   1.5005   2.2113   2.4419
     3.0343   3.4695   4.3639   4.5805   5.4599   5.9875   7.3390   8.0971
     8.7612   9.2945

          k = 0.1111 0.1925 0.0000 ( 10142 PWs)   bands (ev):

   -49.4192 -27.8480 -27.3910 -27.1970 -24.6632 -16.8044  -6.9507  -6.7685
    -6.5334  -5.0662  -4.1803  -3.0898  -0.2451   1.5061   2.1829   2.3154
     2.9764   3.3419   4.2198   4.4403   5.3157   5.8433   7.2167   7.9060
     8.7573   9.2583

          k = 0.1000 0.1732 0.0000 ( 10153 PWs)   bands (ev):

   -49.4225 -27.8595 -27.3534 -27.1875 -24.6712 -16.8490  -6.9889  -6.7355
    -6.5285  -5.0811  -3.9724  -3.0088  -0.2367   1.5219   2.1582   2.2026
     2.9191   3.2242   4.0863   4.3119   5.1785   5.7069   7.0843   7.7135
     8.7246   9.2945

          k = 0.0889 0.1540 0.0000 ( 10155 PWs)   bands (ev):

   -49.4256 -27.8707 -27.3166 -27.1791 -24.6794 -16.8902  -7.0277  -6.7008
    -6.5249  -5.0988  -3.7620  -2.9365  -0.2314   1.5467   2.0939   2.1491
     2.8617   3.1177   3.9634   4.1951   5.0502   5.5776   6.9448   7.5296
     8.6655   9.3951

          k = 0.0778 0.1347 0.0000 ( 10161 PWs)   bands (ev):

   -49.4285 -27.8812 -27.2816 -27.1718 -24.6876 -16.9275  -7.0653  -6.6662
    -6.5225  -5.1177  -3.5543  -2.8731  -0.2299   1.5788   2.0106   2.1330
     2.8057   3.0246   3.8514   4.0899   4.9323   5.4553   6.8016   7.3621
     8.5964   9.5385

          k = 0.0667 0.1155 0.0000 ( 10165 PWs)   bands (ev):

   -49.4310 -27.8907 -27.2492 -27.1655 -24.6955 -16.9606  -7.1004  -6.6328
    -6.5209  -5.1367  -3.3548  -2.8185  -0.2323   1.6155   1.9416   2.1171
     2.7558   2.9466   3.7503   3.9964   4.8265   5.3399   6.6594   7.2163
     8.5287   9.7077

          k = 0.0556 0.0962 0.0000 ( 10175 PWs)   bands (ev):

   -49.4333 -27.8990 -27.2202 -27.1602 -24.7028 -16.9890  -7.1321  -6.6017
    -6.5201  -5.1548  -3.1691  -2.7728  -0.2377   1.6539   1.8868   2.0950
     2.7196   2.8839   3.6601   3.9147   4.7340   5.2325   6.5250   7.0944
     8.4677   9.8853

          k = 0.0444 0.0770 0.0000 ( 10179 PWs)   bands (ev):

   -49.4351 -27.9061 -27.1953 -27.1559 -24.7093 -17.0127  -7.1593  -6.5742
    -6.5197  -5.1712  -3.0036  -2.7358  -0.2451   1.6912   1.8447   2.0636
     2.7038   2.8350   3.5811   3.8452   4.6560   5.1355   6.4055   6.9965
     8.4161   9.9449

          k = 0.0333 0.0577 0.0000 ( 10189 PWs)   bands (ev):

   -49.4366 -27.9117 -27.1752 -27.1526 -24.7147 -17.0313  -7.1813  -6.5513
    -6.5196  -5.1851  -2.8648  -2.7073  -0.2530   1.7245   1.8137   2.0252
     2.7086   2.7983   3.5139   3.7890   4.5938   5.0524   6.3074   6.9215
     8.3752   9.9103

          k = 0.0222 0.0385 0.0000 ( 10195 PWs)   bands (ev):

   -49.4377 -27.9158 -27.1604 -27.1503 -24.7187 -17.0447  -7.1975  -6.5341
    -6.5197  -5.1957  -2.7595  -2.6872  -0.2599   1.7513   1.7924   1.9875
     2.7263   2.7727   3.4604   3.7471   4.5483   4.9881   6.2350   6.8686
     8.3456   9.8783

          k = 0.0111 0.0192 0.0000 ( 10191 PWs)   bands (ev):

   -49.4384 -27.9183 -27.1514 -27.1489 -24.7212 -17.0528  -7.2074  -6.5234
    -6.5198  -5.2023  -2.6936  -2.6751  -0.2646   1.7693   1.7799   1.9595
     2.7447   2.7575   3.4249   3.7212   4.5205   4.9471   6.1908   6.8371
     8.3277   9.8574

          k = 0.0000 0.0000 0.0000 ( 10191 PWs)   bands (ev):

   -49.4386 -27.9191 -27.1484 -27.1484 -24.7221 -17.0555  -7.2107  -6.5198
    -6.5198  -5.2046  -2.6711  -2.6711  -0.2663   1.7758   1.7758   1.9491
     2.7525   2.7525   3.4122   3.7124   4.5112   4.9331   6.1760   6.8266
     8.3217   9.8502

     Writing all to output data dir ./out/ZrFBr.save/

     init_run     :      0.18s CPU      0.21s WALL (       1 calls)
     electrons    :     18.03s CPU     18.28s WALL (       1 calls)

     Called by init_run:
     wfcinit      :      0.00s CPU      0.00s WALL (       1 calls)
     potinit      :      0.05s CPU      0.06s WALL (       1 calls)
     hinit0       :      0.10s CPU      0.10s WALL (       1 calls)

     Called by electrons:
     c_bands      :     18.03s CPU     18.27s WALL (       1 calls)
     v_of_rho     :      0.00s CPU      0.00s WALL (       1 calls)
     newd         :      0.01s CPU      0.01s WALL (       1 calls)
     PAW_pot      :      0.04s CPU      0.05s WALL (       1 calls)

     Called by c_bands:
     init_us_2    :      0.01s CPU      0.01s WALL (      91 calls)
     init_us_2:cp :      0.01s CPU      0.01s WALL (      91 calls)
     cegterg      :     17.18s CPU     17.40s WALL (     186 calls)

     Called by *egterg:
     cdiaghg      :      2.88s CPU      2.90s WALL (    2969 calls)
     h_psi        :      8.62s CPU      8.79s WALL (    3155 calls)
     s_psi        :      0.56s CPU      0.57s WALL (    3155 calls)
     g_psi        :      0.04s CPU      0.04s WALL (    2878 calls)

     Called by h_psi:
     h_psi:calbec :      0.99s CPU      1.01s WALL (    3155 calls)
     vloc_psi     :      7.04s CPU      7.18s WALL (    3155 calls)
     add_vuspsi   :      0.56s CPU      0.57s WALL (    3155 calls)

     General routines
     calbec       :      0.99s CPU      1.00s WALL (    3155 calls)
     fft          :      0.01s CPU      0.01s WALL (      12 calls)
     fftw         :      6.62s CPU      6.76s WALL (   78974 calls)
     davcio       :      0.01s CPU      0.03s WALL (     182 calls)

     Parallel routines

     PWSCF        :     19.13s CPU     19.81s WALL


   This run was terminated on:  16:48:28   7Aug2026            

=------------------------------------------------------------------------------=
   JOB DONE.
=------------------------------------------------------------------------------=
