
     Program PWSCF v.7.2 starts on  7Aug2026 at 16:47:36 

     This program is part of the open-source Quantum ESPRESSO suite
     for quantum simulation of materials; please cite
         "P. Giannozzi et al., J. Phys.:Condens. Matter 21 395502 (2009);
         "P. Giannozzi et al., J. Phys.:Condens. Matter 29 465901 (2017);
         "P. Giannozzi et al., J. Chem. Phys. 152 154105 (2020);
          URL http://www.quantum-espresso.org", 
     in publications or presentations arising from this work. More details at
     http://www.quantum-espresso.org/quote

     Parallel version (MPI), running on    32 processors

     MPI processes distributed on     1 nodes
     227696 MiB available memory on the printing compute node when the environment starts

     Waiting for input...
     Reading input from standard input

     Current dimensions of program PWSCF are:
     Max number of different atomic species (ntypx) = 10
     Max number of k-points (npk) =  40000
     Max angular momentum in pseudopotentials (lmaxx) =  4
     file Zr.pbe-spn-kjpaw_psl.1.0.0.UPF: wavefunction(s)  4S 4P renormalized
     file F.pbe-n-kjpaw_psl.1.0.0.UPF: wavefunction(s)  2S 2P renormalized
     file Br.pbe-n-kjpaw_psl.1.0.0.UPF: wavefunction(s)  4S 4P renormalized
     Message from routine setup:
     using ibrav=0 with symmetry is DISCOURAGED, use correct ibrav instead

     R & G space division:  proc/nbgrp/npool/nimage =      32
     Subspace diagonalization in iterative solution of the eigenvalue problem:
     a serial algorithm will be used


     Parallelization info
     --------------------
     sticks:   dense  smooth     PW     G-vecs:    dense   smooth      PW
     Min          20      20      6                 2524     2524     404
     Max          21      21      7                 2559     2559     421
     Sum         661     661    199                81293    81293   13091

     Using Slab Decomposition



     bravais-lattice index     =            0
     lattice parameter (alat)  =       6.3200  a.u.
     unit-cell volume          =    1295.0923 (a.u.)^3
     number of atoms/cell      =            3
     number of atomic types    =            3
     number of electrons       =        26.00
     number of Kohn-Sham states=           26
     kinetic-energy cutoff     =      60.0000  Ry
     charge density cutoff     =     240.0000  Ry
     scf convergence threshold =      1.0E-06
     mixing beta               =       0.7000
     number of iterations used =            8  plain     mixing
     Exchange-correlation= SLA  PW   PBX  PBC
                           (   1   4   3   4   0   0   0)

     celldm(1)=   6.320045  celldm(2)=   0.000000  celldm(3)=   0.000000
     celldm(4)=   0.000000  celldm(5)=   0.000000  celldm(6)=   0.000000

     crystal axes: (cart. coord. in units of alat)
               a(1) = (   1.000000  -0.000000  -0.000000 )  
               a(2) = (  -0.500000   0.866025  -0.000000 )  
               a(3) = (   0.000000   0.000000   5.923926 )  

     reciprocal axes: (cart. coord. in units 2 pi/alat)
               b(1) = (  1.000000  0.577350 -0.000000 )  
               b(2) = (  0.000000  1.154701 -0.000000 )  
               b(3) = (  0.000000  0.000000  0.168807 )  


     PseudoPot. # 1 for Zr read from file:
     /mgpfs/home/rabdillah/repo/qe/pseudo/Zr.pbe-spn-kjpaw_psl.1.0.0.UPF
     MD5 check sum: 02112c41713a0468aff2bb39ef194e36
     Pseudo is Projector augmented-wave + core cor, Zval = 12.0
     Generated using &quot;atomic&quot; code by A. Dal Corso  v.6.2.2
     Shape of augmentation charge: PSQ
     Using radial grid of 1225 points,  6 beta functions with: 
                l(1) =   0
                l(2) =   0
                l(3) =   1
                l(4) =   1
                l(5) =   2
                l(6) =   2
     Q(r) pseudized with 0 coefficients 


     PseudoPot. # 2 for F  read from file:
     /mgpfs/home/rabdillah/repo/qe/pseudo/F.pbe-n-kjpaw_psl.1.0.0.UPF
     MD5 check sum: 66d718ea72839a4268ab2a9540e8cdd4
     Pseudo is Projector augmented-wave + core cor, Zval =  7.0
     Generated using &quot;atomic&quot; code by A. Dal Corso  v.6.3
     Shape of augmentation charge: PSQ
     Using radial grid of 1105 points,  4 beta functions with: 
                l(1) =   0
                l(2) =   0
                l(3) =   1
                l(4) =   1
     Q(r) pseudized with 0 coefficients 


     PseudoPot. # 3 for Br read from file:
     /mgpfs/home/rabdillah/repo/qe/pseudo/Br.pbe-n-kjpaw_psl.1.0.0.UPF
     MD5 check sum: b00de77caabc69c0a6b76eb37264f235
     Pseudo is Projector augmented-wave + core cor, Zval =  7.0
     Generated using &quot;atomic&quot; code by A. Dal Corso  v.6.3
     Shape of augmentation charge: PSQ
     Using radial grid of 1213 points,  4 beta functions with: 
                l(1) =   0
                l(2) =   0
                l(3) =   1
                l(4) =   1
     Q(r) pseudized with 0 coefficients 


     atomic species   valence    mass     pseudopotential
        Zr            12.00    91.22400     Zr( 1.00)
        F              7.00    18.99800     F ( 1.00)
        Br             7.00    79.90400     Br( 1.00)

      6 Sym. Ops. (no inversion) found



   Cartesian axes

     site n.     atom                  positions (alat units)
         1           Zr  tau(   1) = (   0.0000000   0.0000000   3.0210788  )
         2           F   tau(   2) = (  -0.0000000   0.5773503   3.4105834  )
         3           Br  tau(   3) = (  -0.0000000   0.5773503   2.4542273  )

     number of k points=   102

     Number of k-points >= 100: set verbosity='high' to print them.

     Dense  grid:    81293 G-vectors     FFT dimensions: (  32,  32, 192)

     Estimated max dynamical RAM per process >      25.73 MB

     Estimated total dynamical RAM >     823.28 MB

     Check: negative core charge=   -0.000002

     Initial potential from superposition of free atoms

     starting charge      25.9978, renormalised to      26.0000

     negative rho (up, down):  1.324E-03 0.000E+00
     Starting wfcs are   21 randomized atomic wfcs +    5 random wfcs
     Checking if some PAW data can be deallocated... 

     total cpu time spent up to now is        1.4 secs

     Self-consistent Calculation

     iteration #  1     ecut=    60.00 Ry     beta= 0.70
     Davidson diagonalization with overlap
     ethr =  1.00E-02,  avg # of iterations =  7.9

     negative rho (up, down):  1.531E-03 0.000E+00

     total cpu time spent up to now is        6.3 secs

     total energy              =    -571.10326972 Ry
     estimated scf accuracy    <       0.26180661 Ry

     iteration #  2     ecut=    60.00 Ry     beta= 0.70
     Davidson diagonalization with overlap
     ethr =  1.01E-03,  avg # of iterations =  5.2

     negative rho (up, down):  1.077E-03 0.000E+00

     total cpu time spent up to now is       10.1 secs

     total energy              =    -570.98164344 Ry
     estimated scf accuracy    <       1.23417540 Ry

     iteration #  3     ecut=    60.00 Ry     beta= 0.70
     Davidson diagonalization with overlap
     ethr =  1.01E-03,  avg # of iterations =  4.8

     negative rho (up, down):  1.100E-03 0.000E+00

     total cpu time spent up to now is       13.8 secs

     total energy              =    -571.21849067 Ry
     estimated scf accuracy    <       0.08864029 Ry

     iteration #  4     ecut=    60.00 Ry     beta= 0.70
     Davidson diagonalization with overlap
     ethr =  3.41E-04,  avg # of iterations =  2.6

     negative rho (up, down):  1.181E-03 0.000E+00

     total cpu time spent up to now is       16.3 secs

     total energy              =    -571.23206277 Ry
     estimated scf accuracy    <       0.00935727 Ry

     iteration #  5     ecut=    60.00 Ry     beta= 0.70
     Davidson diagonalization with overlap
     ethr =  3.60E-05,  avg # of iterations =  4.8

     negative rho (up, down):  1.313E-03 0.000E+00

     total cpu time spent up to now is       19.4 secs

     total energy              =    -571.23342757 Ry
     estimated scf accuracy    <       0.00093093 Ry

     iteration #  6     ecut=    60.00 Ry     beta= 0.70
     Davidson diagonalization with overlap
     ethr =  3.58E-06,  avg # of iterations =  6.6

     negative rho (up, down):  1.455E-03 0.000E+00

     total cpu time spent up to now is       23.0 secs

     total energy              =    -571.23360443 Ry
     estimated scf accuracy    <       0.00011185 Ry

     iteration #  7     ecut=    60.00 Ry     beta= 0.70
     Davidson diagonalization with overlap
     ethr =  4.30E-07,  avg # of iterations =  3.2

     negative rho (up, down):  1.517E-03 0.000E+00

     total cpu time spent up to now is       26.0 secs

     total energy              =    -571.23362501 Ry
     estimated scf accuracy    <       0.00000250 Ry

     iteration #  8     ecut=    60.00 Ry     beta= 0.70
     Davidson diagonalization with overlap
     ethr =  9.60E-09,  avg # of iterations =  2.9

     negative rho (up, down):  1.525E-03 0.000E+00

     total cpu time spent up to now is       28.7 secs

     End of self-consistent calculation

     Number of k-points >= 100: set verbosity='high' to print the bands.

     highest occupied, lowest unoccupied level (ev):     0.2985    1.5004

!    total energy              =    -571.23362558 Ry
     total all-electron energy =    -12610.611037 Ry
     estimated scf accuracy    <       0.00000011 Ry

     The total energy is the sum of the following terms:
     one-electron contribution =    -965.81954879 Ry
     hartree contribution      =     487.56034840 Ry
     xc contribution           =     -36.35600397 Ry
     ewald contribution        =     340.23775739 Ry
     one-center paw contrib.   =    -396.85617861 Ry

     convergence has been achieved in   8 iterations

     Writing all to output data dir ./out/ZrFBr.save/

     init_run     :      1.05s CPU      1.09s WALL (       1 calls)
     electrons    :     26.92s CPU     27.36s WALL (       1 calls)

     Called by init_run:
     wfcinit      :      0.82s CPU      0.84s WALL (       1 calls)
     potinit      :      0.09s CPU      0.10s WALL (       1 calls)
     hinit0       :      0.10s CPU      0.11s WALL (       1 calls)

     Called by electrons:
     c_bands      :     23.99s CPU     24.34s WALL (       8 calls)
     sum_band     :      2.48s CPU      2.54s WALL (       8 calls)
     v_of_rho     :      0.04s CPU      0.04s WALL (       9 calls)
     newd         :      0.09s CPU      0.09s WALL (       9 calls)
     PAW_pot      :      0.37s CPU      0.39s WALL (       9 calls)
     mix_rho      :      0.00s CPU      0.00s WALL (       8 calls)

     Called by c_bands:
     init_us_2    :      0.17s CPU      0.17s WALL (    1734 calls)
     init_us_2:cp :      0.17s CPU      0.17s WALL (    1734 calls)
     cegterg      :     23.61s CPU     23.95s WALL (     816 calls)

     Called by *egterg:
     cdiaghg      :      4.05s CPU      4.08s WALL (    4705 calls)
     h_psi        :     12.69s CPU     12.96s WALL (    4807 calls)
     s_psi        :      0.84s CPU      0.85s WALL (    4807 calls)
     g_psi        :      0.05s CPU      0.05s WALL (    3889 calls)

     Called by h_psi:
     h_psi:calbec :      1.47s CPU      1.50s WALL (    4807 calls)
     vloc_psi     :     10.33s CPU     10.57s WALL (    4807 calls)
     add_vuspsi   :      0.84s CPU      0.85s WALL (    4807 calls)

     General routines
     calbec       :      1.96s CPU      2.00s WALL (    5623 calls)
     fft          :      0.03s CPU      0.04s WALL (      99 calls)
     ffts         :      0.00s CPU      0.00s WALL (       8 calls)
     fftw         :     11.32s CPU     11.58s WALL (  143602 calls)

     Parallel routines

     PWSCF        :     28.70s CPU     29.49s WALL


   This run was terminated on:  16:48: 6   7Aug2026            

=------------------------------------------------------------------------------=
   JOB DONE.
=------------------------------------------------------------------------------=
