
     Program PWSCF v.7.2 starts on 18Sep2026 at  8:36:11 

     This program is part of the open-source Quantum ESPRESSO suite
     for quantum simulation of materials; please cite
         "P. Giannozzi et al., J. Phys.:Condens. Matter 21 395502 (2009);
         "P. Giannozzi et al., J. Phys.:Condens. Matter 29 465901 (2017);
         "P. Giannozzi et al., J. Chem. Phys. 152 154105 (2020);
          URL http://www.quantum-espresso.org", 
     in publications or presentations arising from this work. More details at
     http://www.quantum-espresso.org/quote

     Parallel version (MPI), running on    32 processors

     MPI processes distributed on     1 nodes
     228826 MiB available memory on the printing compute node when the environment starts

     Waiting for input...
     Reading input from standard input

     Current dimensions of program PWSCF are:
     Max number of different atomic species (ntypx) = 10
     Max number of k-points (npk) =  40000
     Max angular momentum in pseudopotentials (lmaxx) =  4
     file Zr.pbe-spn-kjpaw_psl.1.0.0.UPF: wavefunction(s)  4S 4P renormalized
     file Cl.pbe-n-kjpaw_psl.1.0.0.UPF: wavefunction(s)  3S 3P renormalized
     file Br.pbe-n-kjpaw_psl.1.0.0.UPF: wavefunction(s)  4S 4P renormalized
     Message from routine setup:
     using ibrav=0 with symmetry is DISCOURAGED, use correct ibrav instead

     R & G space division:  proc/nbgrp/npool/nimage =      32
     Subspace diagonalization in iterative solution of the eigenvalue problem:
     a serial algorithm will be used


     Parallelization info
     --------------------
     sticks:   dense  smooth     PW     G-vecs:    dense   smooth      PW
     Min          24      24      7                 1572     1572     245
     Max          25      25      8                 1586     1586     255
     Sum         769     769    231                50509    50509    7975

     Using Slab Decomposition



     bravais-lattice index     =            0
     lattice parameter (alat)  =       6.5934  a.u.
     unit-cell volume          =     715.0201 (a.u.)^3
     number of atoms/cell      =            3
     number of atomic types    =            3
     number of electrons       =        26.00
     number of Kohn-Sham states=           26
     kinetic-energy cutoff     =      65.0000  Ry
     charge density cutoff     =     260.0000  Ry
     scf convergence threshold =      1.0E-08
     mixing beta               =       0.7000
     number of iterations used =            8  plain     mixing
     energy convergence thresh.=      1.0E-05
     force convergence thresh. =      1.0E-04
     Exchange-correlation= SLA  PW   PBX  PBC
                           (   1   4   3   4   0   0   0)
     nstep                     =           50


     celldm(1)=   6.593429  celldm(2)=   0.000000  celldm(3)=   0.000000
     celldm(4)=   0.000000  celldm(5)=   0.000000  celldm(6)=   0.000000

     crystal axes: (cart. coord. in units of alat)
               a(1) = (   1.000000   0.000000   0.000000 )  
               a(2) = (  -0.500000   0.870356   0.000000 )  
               a(3) = (   0.000000   0.000000   2.866075 )  

     reciprocal axes: (cart. coord. in units 2 pi/alat)
               b(1) = (  1.000000  0.574478 -0.000000 )  
               b(2) = (  0.000000  1.148956  0.000000 )  
               b(3) = (  0.000000 -0.000000  0.348909 )  


     PseudoPot. # 1 for Zr read from file:
     /mgpfs/home/rabdillah/repo/qe/pseudo/Zr.pbe-spn-kjpaw_psl.1.0.0.UPF
     MD5 check sum: 02112c41713a0468aff2bb39ef194e36
     Pseudo is Projector augmented-wave + core cor, Zval = 12.0
     Generated using &quot;atomic&quot; code by A. Dal Corso  v.6.2.2
     Shape of augmentation charge: PSQ
     Using radial grid of 1225 points,  6 beta functions with: 
                l(1) =   0
                l(2) =   0
                l(3) =   1
                l(4) =   1
                l(5) =   2
                l(6) =   2
     Q(r) pseudized with 0 coefficients 


     PseudoPot. # 2 for Cl read from file:
     /mgpfs/home/rabdillah/repo/qe/pseudo/Cl.pbe-n-kjpaw_psl.1.0.0.UPF
     MD5 check sum: 530da96d25dcb7781b0586ca00827062
     Pseudo is Projector augmented-wave + core cor, Zval =  7.0
     Generated using &quot;atomic&quot; code by A. Dal Corso  v.6.3
     Shape of augmentation charge: PSQ
     Using radial grid of 1157 points,  6 beta functions with: 
                l(1) =   0
                l(2) =   0
                l(3) =   1
                l(4) =   1
                l(5) =   2
                l(6) =   2
     Q(r) pseudized with 0 coefficients 


     PseudoPot. # 3 for Br read from file:
     /mgpfs/home/rabdillah/repo/qe/pseudo/Br.pbe-n-kjpaw_psl.1.0.0.UPF
     MD5 check sum: b00de77caabc69c0a6b76eb37264f235
     Pseudo is Projector augmented-wave + core cor, Zval =  7.0
     Generated using &quot;atomic&quot; code by A. Dal Corso  v.6.3
     Shape of augmentation charge: PSQ
     Using radial grid of 1213 points,  4 beta functions with: 
                l(1) =   0
                l(2) =   0
                l(3) =   1
                l(4) =   1
     Q(r) pseudized with 0 coefficients 


     atomic species   valence    mass     pseudopotential
        Zr            12.00    91.22400     Zr( 1.00)
        Cl             7.00    35.45300     Cl( 1.00)
        Br             7.00    79.90400     Br( 1.00)

      2 Sym. Ops. (no inversion) found



   Cartesian axes

     site n.     atom                  positions (alat units)
         1           Zr  tau(   1) = (   0.0000000   0.0000000   2.9453878  )
         2           Cl  tau(   2) = (  -0.0000000   0.5773503   3.4291986  )
         3           Br  tau(   3) = (  -0.0000000   0.5773503   2.4137016  )

     number of k points=    73
                       cart. coord. in units 2pi/alat
        k(    1) = (   0.0000000   0.0000000   0.0000000), wk =   0.0078125
        k(    2) = (   0.0000000   0.0718097   0.0000000), wk =   0.0156250
        k(    3) = (   0.0000000   0.1436195   0.0000000), wk =   0.0156250
        k(    4) = (   0.0000000   0.2154292   0.0000000), wk =   0.0156250
        k(    5) = (   0.0000000   0.2872389   0.0000000), wk =   0.0156250
        k(    6) = (   0.0000000   0.3590487   0.0000000), wk =   0.0156250
        k(    7) = (   0.0000000   0.4308584   0.0000000), wk =   0.0156250
        k(    8) = (   0.0000000   0.5026681   0.0000000), wk =   0.0156250
        k(    9) = (   0.0000000  -0.5744779   0.0000000), wk =   0.0078125
        k(   10) = (   0.0625000   0.0359049   0.0000000), wk =   0.0312500
        k(   11) = (   0.0625000   0.1077146   0.0000000), wk =   0.0312500
        k(   12) = (   0.0625000   0.1795243   0.0000000), wk =   0.0312500
        k(   13) = (   0.0625000   0.2513341   0.0000000), wk =   0.0312500
        k(   14) = (   0.0625000   0.3231438   0.0000000), wk =   0.0312500
        k(   15) = (   0.0625000   0.3949535   0.0000000), wk =   0.0312500
        k(   16) = (   0.0625000   0.4667633   0.0000000), wk =   0.0312500
        k(   17) = (   0.0625000   0.5385730   0.0000000), wk =   0.0312500
        k(   18) = (   0.1250000   0.0718097   0.0000000), wk =   0.0312500
        k(   19) = (   0.1250000   0.1436195   0.0000000), wk =   0.0312500
        k(   20) = (   0.1250000   0.2154292   0.0000000), wk =   0.0312500
        k(   21) = (   0.1250000   0.2872389   0.0000000), wk =   0.0312500
        k(   22) = (   0.1250000   0.3590487   0.0000000), wk =   0.0312500
        k(   23) = (   0.1250000   0.4308584   0.0000000), wk =   0.0312500
        k(   24) = (   0.1250000   0.5026681   0.0000000), wk =   0.0312500
        k(   25) = (   0.1250000   0.5744779   0.0000000), wk =   0.0156250
        k(   26) = (   0.1250000   0.0000000   0.0000000), wk =   0.0156250
        k(   27) = (   0.1875000   0.1077146   0.0000000), wk =   0.0312500
        k(   28) = (   0.1875000   0.1795243   0.0000000), wk =   0.0312500
        k(   29) = (   0.1875000   0.2513341   0.0000000), wk =   0.0312500
        k(   30) = (   0.1875000   0.3231438   0.0000000), wk =   0.0312500
        k(   31) = (   0.1875000   0.3949535   0.0000000), wk =   0.0312500
        k(   32) = (   0.1875000   0.4667633   0.0000000), wk =   0.0312500
        k(   33) = (   0.1875000   0.5385730   0.0000000), wk =   0.0312500
        k(   34) = (   0.1875000  -0.0359049   0.0000000), wk =   0.0312500
        k(   35) = (   0.2500000   0.1436195   0.0000000), wk =   0.0312500
        k(   36) = (   0.2500000   0.2154292   0.0000000), wk =   0.0312500
        k(   37) = (   0.2500000   0.2872389   0.0000000), wk =   0.0312500
        k(   38) = (   0.2500000   0.3590487   0.0000000), wk =   0.0312500
        k(   39) = (   0.2500000   0.4308584   0.0000000), wk =   0.0312500
        k(   40) = (   0.2500000   0.5026681   0.0000000), wk =   0.0312500
        k(   41) = (   0.2500000   0.5744779   0.0000000), wk =   0.0156250
        k(   42) = (   0.2500000  -0.0718097   0.0000000), wk =   0.0312500
        k(   43) = (   0.2500000   0.0000000   0.0000000), wk =   0.0156250
        k(   44) = (   0.3125000   0.1795243   0.0000000), wk =   0.0312500
        k(   45) = (   0.3125000   0.2513341   0.0000000), wk =   0.0312500
        k(   46) = (   0.3125000   0.3231438   0.0000000), wk =   0.0312500
        k(   47) = (   0.3125000   0.3949535   0.0000000), wk =   0.0312500
        k(   48) = (   0.3125000   0.4667633   0.0000000), wk =   0.0312500
        k(   49) = (   0.3125000   0.5385730   0.0000000), wk =   0.0312500
        k(   50) = (   0.3125000  -0.1077146   0.0000000), wk =   0.0312500
        k(   51) = (   0.3125000  -0.0359049   0.0000000), wk =   0.0312500
        k(   52) = (   0.3750000   0.2154292   0.0000000), wk =   0.0312500
        k(   53) = (   0.3750000   0.2872389   0.0000000), wk =   0.0312500
        k(   54) = (   0.3750000   0.3590487   0.0000000), wk =   0.0312500
        k(   55) = (   0.3750000   0.4308584   0.0000000), wk =   0.0312500
        k(   56) = (   0.3750000   0.5026681   0.0000000), wk =   0.0312500
        k(   57) = (   0.3750000   0.5744779   0.0000000), wk =   0.0156250
        k(   58) = (   0.3750000  -0.1436195   0.0000000), wk =   0.0312500
        k(   59) = (   0.3750000  -0.0718097   0.0000000), wk =   0.0312500
        k(   60) = (   0.3750000   0.0000000   0.0000000), wk =   0.0156250
        k(   61) = (   0.4375000   0.2513341   0.0000000), wk =   0.0312500
        k(   62) = (   0.4375000   0.3231438   0.0000000), wk =   0.0312500
        k(   63) = (   0.4375000   0.3949535   0.0000000), wk =   0.0312500
        k(   64) = (   0.4375000   0.4667633   0.0000000), wk =   0.0312500
        k(   65) = (   0.4375000   0.5385730   0.0000000), wk =   0.0312500
        k(   66) = (   0.4375000  -0.1795243   0.0000000), wk =   0.0312500
        k(   67) = (   0.4375000  -0.1077146   0.0000000), wk =   0.0312500
        k(   68) = (   0.4375000  -0.0359049   0.0000000), wk =   0.0312500
        k(   69) = (  -0.5000000  -0.2872389   0.0000000), wk =   0.0156250
        k(   70) = (  -0.5000000  -0.2154292   0.0000000), wk =   0.0312500
        k(   71) = (  -0.5000000  -0.1436195   0.0000000), wk =   0.0312500
        k(   72) = (  -0.5000000  -0.0718097   0.0000000), wk =   0.0312500
        k(   73) = (  -0.5000000   0.0000000   0.0000000), wk =   0.0156250

     Dense  grid:    50509 G-vectors     FFT dimensions: (  36,  36, 100)

     Estimated max dynamical RAM per process >      15.41 MB

     Estimated total dynamical RAM >     493.22 MB

     Check: negative core charge=   -0.000004

     Initial potential from superposition of free atoms

     starting charge      25.9978, renormalised to      26.0000
     Starting wfcs are   21 randomized atomic wfcs +    5 random wfcs
     Checking if some PAW data can be deallocated... 

     total cpu time spent up to now is        1.1 secs

     Self-consistent Calculation

     iteration #  1     ecut=    65.00 Ry     beta= 0.70
     Davidson diagonalization with overlap
     ethr =  1.00E-02,  avg # of iterations =  6.5

     Threshold (ethr) on eigenvalues was too large:
     Diagonalizing with lowered threshold

     Davidson diagonalization with overlap
     ethr =  4.32E-04,  avg # of iterations =  2.1

     negative rho (up, down):  7.694E-07 0.000E+00

     total cpu time spent up to now is        5.1 secs

     total energy              =    -591.18753875 Ry
     estimated scf accuracy    <       0.11582156 Ry

     iteration #  2     ecut=    65.00 Ry     beta= 0.70
     Davidson diagonalization with overlap
     ethr =  4.45E-04,  avg # of iterations =  5.1

     total cpu time spent up to now is        7.4 secs

     total energy              =    -591.18261359 Ry
     estimated scf accuracy    <       0.30902074 Ry

     iteration #  3     ecut=    65.00 Ry     beta= 0.70
     Davidson diagonalization with overlap
     ethr =  4.45E-04,  avg # of iterations =  2.6

     total cpu time spent up to now is        9.2 secs

     total energy              =    -591.24251146 Ry
     estimated scf accuracy    <       0.00686018 Ry

     iteration #  4     ecut=    65.00 Ry     beta= 0.70
     Davidson diagonalization with overlap
     ethr =  2.64E-05,  avg # of iterations =  6.1

     total cpu time spent up to now is       11.1 secs

     total energy              =    -591.24408722 Ry
     estimated scf accuracy    <       0.00040340 Ry

     iteration #  5     ecut=    65.00 Ry     beta= 0.70
     Davidson diagonalization with overlap
     ethr =  1.55E-06,  avg # of iterations =  4.9

     total cpu time spent up to now is       13.1 secs

     total energy              =    -591.24415778 Ry
     estimated scf accuracy    <       0.00001202 Ry

     iteration #  6     ecut=    65.00 Ry     beta= 0.70
     Davidson diagonalization with overlap
     ethr =  4.62E-08,  avg # of iterations =  2.0

     negative rho (up, down):  1.054E-08 0.000E+00

     total cpu time spent up to now is       14.7 secs

     total energy              =    -591.24415918 Ry
     estimated scf accuracy    <       0.00000450 Ry

     iteration #  7     ecut=    65.00 Ry     beta= 0.70
     Davidson diagonalization with overlap
     ethr =  1.73E-08,  avg # of iterations =  2.0

     negative rho (up, down):  1.323E-08 0.000E+00

     total cpu time spent up to now is       16.2 secs

     total energy              =    -591.24416054 Ry
     estimated scf accuracy    <       0.00000204 Ry

     iteration #  8     ecut=    65.00 Ry     beta= 0.70
     Davidson diagonalization with overlap
     ethr =  7.84E-09,  avg # of iterations =  1.2

     negative rho (up, down):  1.401E-08 0.000E+00

     total cpu time spent up to now is       17.6 secs

     total energy              =    -591.24416092 Ry
     estimated scf accuracy    <       0.00000001 Ry

     iteration #  9     ecut=    65.00 Ry     beta= 0.70
     Davidson diagonalization with overlap
     ethr =  3.90E-11,  avg # of iterations =  2.7

     negative rho (up, down):  1.413E-08 0.000E+00

     total cpu time spent up to now is       19.3 secs

     End of self-consistent calculation

          k = 0.0000 0.0000 0.0000 (  6363 PWs)   bands (ev):

   -44.8474 -23.0804 -22.6902 -22.6828 -12.6845 -12.1263  -2.0449   0.0112
     0.2486   0.2816   1.4229   1.4692   4.3100   5.9804   6.0500   6.7007
     6.7166   6.8419   8.4197   9.4915  11.3859  13.6400  13.6907  13.9713
    14.6885  15.2511

          k = 0.0000 0.0718 0.0000 (  6375 PWs)   bands (ev):

   -44.8462 -23.0765 -22.7054 -22.6859 -12.6589 -12.1151  -2.0004  -0.0593
     0.1986   0.2694   1.2646   1.4343   4.3121   5.9195   6.0838   6.6815
     6.7597   7.0211   8.5454   9.7237  11.4518  13.1968  13.8163  14.3352
    14.6894  14.8354

          k = 0.0000 0.1436 0.0000 (  6379 PWs)   bands (ev):

   -44.8426 -23.0654 -22.7483 -22.6949 -12.5868 -12.0817  -1.8750  -0.2908
     0.0852   0.2304   0.8755   1.3429   4.2923   5.8190   6.1923   6.6464
     6.9172   7.4561   8.8986  10.2766  11.6486  12.6445  14.0450  14.1744
    14.5759  14.9097

          k = 0.0000 0.2154 0.0000 (  6359 PWs)   bands (ev):

   -44.8372 -23.0487 -22.8117 -22.7082 -12.4812 -12.0264  -1.6942  -0.6495
    -0.1190   0.1613   0.4621   1.2255   4.2003   5.8349   6.3902   6.6883
     7.1263   7.9610   9.3992  10.8526  11.8870  12.2490  13.5651  14.3787
    14.6949  15.1720

          k = 0.0000 0.2872 0.0000 (  6337 PWs)   bands (ev):

   -44.8309 -23.0290 -22.8853 -22.7239 -12.3629 -11.9500  -1.5102  -1.0418
    -0.5041   0.0666   0.2346   1.1106   4.0474   6.0392   6.6839   6.8043
     7.3366   8.4341   9.8323  11.2233  11.8373  12.1194  13.7688  14.0762
    15.0318  15.1577

          k = 0.0000 0.3590 0.0000 (  6325 PWs)   bands (ev):

   -44.8245 -23.0092 -22.9576 -22.7395 -12.2550 -11.8569  -1.5613  -1.2125
    -0.9287  -0.0383   0.1420   1.0139   3.9073   6.3899   6.9530   7.0565
     7.5117   8.8570   9.9648  11.3007  11.7643  12.1017  13.7391  14.3236
    14.6850  15.0024

          k = 0.0000 0.4309 0.0000 (  6306 PWs)   bands (ev):

   -44.8191 -23.0184 -22.9919 -22.7526 -12.1738 -11.7622  -1.8618  -1.3185
    -1.0672  -0.1321   0.1010   0.9417   3.8280   6.7844   7.1113   7.4528
     7.6384   9.2126   9.8780  11.1683  11.7824  12.0995  13.2522  14.2695
    14.4295  14.6232

          k = 0.0000 0.5027 0.0000 (  6310 PWs)   bands (ev):

   -44.8155 -23.0582 -22.9808 -22.7614 -12.1248 -11.6903  -2.0821  -1.5280
    -1.0003  -0.1962   0.0847   0.8971   3.8037   7.0194   7.3373   7.6899
     7.8003   9.4321   9.7895  11.0571  11.7486  12.0821  12.7411  13.9367
    14.1303  14.3864

          k = 0.0000-0.5745 0.0000 (  6294 PWs)   bands (ev):

   -44.8142 -23.0721 -22.9768 -22.7645 -12.1085 -11.6636  -2.1606  -1.6014
    -0.9761  -0.2188   0.0807   0.8819   3.8015   7.0695   7.4768   7.7186
     7.9255   9.4626   9.8048  11.0223  11.6613  12.1113  12.5612  13.7441
    14.0336  14.2632

          k = 0.0625 0.0359 0.0000 (  6379 PWs)   bands (ev):

   -44.8462 -23.0765 -22.7010 -22.6906 -12.6588 -12.1147  -2.0003  -0.0517
     0.2109   0.2476   1.2938   1.4023   4.3148   5.9556   6.0431   6.6683
     6.7724   7.0224   8.5479   9.7243  11.4519  13.2126  13.7796  14.3508
    14.7067  14.8913

          k = 0.0625 0.1077 0.0000 (  6375 PWs)   bands (ev):

   -44.8437 -23.0690 -22.7323 -22.6943 -12.6099 -12.0924  -1.9152  -0.2028
     0.1131   0.2392   1.0055   1.3534   4.3076   5.8430   6.1470   6.6514
     6.8659   7.3277   8.7869  10.1144  11.5870  12.7978  13.9910  14.2668
    14.6222  14.8320

          k = 0.0625 0.1795 0.0000 (  6357 PWs)   bands (ev):

   -44.8393 -23.0551 -22.7851 -22.7057 -12.5210 -12.0480  -1.7610  -0.4958
    -0.0346   0.1759   0.6070   1.2438   4.2577   5.7756   6.3288   6.6727
     7.0416   7.7915   9.2190  10.6700  11.8587  12.3677  13.6489  14.2280
    14.7124  15.1487

          k = 0.0625 0.2513 0.0000 (  6342 PWs)   bands (ev):

   -44.8334 -23.0369 -22.8524 -22.7214 -12.4091 -11.9818  -1.5716  -0.8703
    -0.3059   0.0248   0.3396   1.1125   4.1429   5.8599   6.6075   6.7724
     7.2428   8.2738   9.7050  11.1189  11.9869  12.2033  13.4330  14.1136
    14.9552  15.1586

          k = 0.0625 0.3231 0.0000 (  6326 PWs)   bands (ev):

   -44.8270 -23.0171 -22.9238 -22.7386 -12.2965 -11.8960  -1.4480  -1.1958
    -0.7266  -0.1020   0.2266   0.9842   4.0088   6.1148   6.8934   7.0026
     7.4241   8.7260   9.9810  11.3478  11.8901  12.1466  13.7873  14.0345
    14.6752  15.0105

          k = 0.0625 0.3950 0.0000 (  6335 PWs)   bands (ev):

   -44.8212 -22.9993 -22.9882 -22.7545 -12.2034 -11.7998  -1.6911  -1.1999
    -1.0707  -0.1852   0.1546   0.8756   3.9167   6.4927   7.0545   7.3924
     7.5627   9.1412   9.9608  11.3282  11.8514  12.1439  13.5315  14.1068
    14.4859  14.7966

          k = 0.0625 0.4668 0.0000 (  6311 PWs)   bands (ev):

   -44.8167 -23.0379 -22.9844 -22.7666 -12.1399 -11.7141  -1.9561  -1.4317
    -1.0242  -0.2396   0.1073   0.7978   3.8830   6.8994   7.1974   7.6208
     7.7404   9.4850   9.8374  11.2251  11.8424  12.1081  12.9497  13.7874
    14.3600  14.6433

          k = 0.0625 0.5386 0.0000 (  6308 PWs)   bands (ev):

   -44.8142 -23.0642 -22.9768 -22.7732 -12.1081 -11.6634  -2.1035  -1.5767
    -0.9759  -0.2674   0.0846   0.7574   3.8818   7.1133   7.3978   7.6602
     7.8687   9.5386   9.9273  11.1680  11.7640  12.1109  12.5471  13.5367
    14.2614  14.3642

          k = 0.1250 0.0718 0.0000 (  6380 PWs)   bands (ev):

   -44.8425 -23.0653 -22.7434 -22.7007 -12.5862 -12.0800  -1.8747  -0.2739
     0.0910   0.2025   0.9000   1.3075   4.3030   5.8492   6.1475   6.6325
     6.9287   7.4580   8.9069  10.2774  11.6488  12.6527  14.1010  14.1405
    14.5697  14.9475

          k = 0.1250 0.1436 0.0000 (  6345 PWs)   bands (ev):

   -44.8392 -23.0550 -22.7828 -22.7087 -12.5206 -12.0467  -1.7609  -0.4866
    -0.0330   0.1638   0.6156   1.2248   4.2663   5.7818   6.3121   6.6692
     7.0434   7.7919   9.2243  10.6701  11.8582  12.3745  13.6750  14.2187
    14.7024  15.1686

          k = 0.1250 0.2154 0.0000 (  6346 PWs)   bands (ev):

   -44.8342 -23.0396 -22.8374 -22.7247 -12.4253 -11.9913  -1.5945  -0.7849
    -0.2186  -0.0248   0.3849   1.0809   4.2022   5.7639   6.6001   6.7706
     7.2005   8.2250   9.6583  11.0784  12.1347  12.2625  13.2161  14.0454
    14.9195  15.0722

          k = 0.1250 0.2872 0.0000 (  6334 PWs)   bands (ev):

   -44.8283 -23.0213 -22.8991 -22.7452 -12.3195 -11.9148  -1.4173  -1.1147
    -0.5473  -0.2312   0.2799   0.9042   4.1245   5.8765   6.9029   7.0111
     7.3611   8.6823  10.0057  11.3633  12.0933  12.4451  13.2253  13.8476
    14.6072  14.9554

          k = 0.1250 0.3590 0.0000 (  6330 PWs)   bands (ev):

   -44.8225 -23.0031 -22.9593 -22.7663 -12.2236 -11.8228  -1.4976  -1.1957
    -0.9442  -0.3289   0.2013   0.7236   4.0692   6.1391   7.0790   7.3933
     7.5284   9.1439  10.0774  11.5121  12.1281  12.2866  13.6049  13.7928
    14.0514  14.7947

          k = 0.1250 0.4309 0.0000 (  6323 PWs)   bands (ev):

   -44.8175 -23.0099 -22.9871 -22.7844 -12.1511 -11.7311  -1.7636  -1.2994
    -1.0511  -0.3754   0.1337   0.5677   4.0599   6.5213   7.2139   7.5584
     7.7903   9.6207   9.9491  11.5348  12.0420  12.1977  13.1282  13.6417
    14.4274  14.7114

          k = 0.1250 0.5027 0.0000 (  6309 PWs)   bands (ev):

   -44.8141 -23.0428 -22.9768 -22.7965 -12.1069 -11.6628  -1.9475  -1.5082
    -0.9784  -0.3914   0.0860   0.4626   4.0812   6.9421   7.3062   7.6168
     7.8769   9.7303  10.1458  11.5315  11.9503  12.1297  12.5842  13.4661
    14.3699  14.6479

          k = 0.1250 0.5745 0.0000 (  6320 PWs)   bands (ev):

   -44.8130 -23.0543 -22.9732 -22.8007 -12.0921 -11.6375  -2.0126  -1.5806
    -0.9540  -0.3941   0.0684   0.4256   4.0951   7.1562   7.3830   7.6233
     7.8083   9.6390  10.4194  11.5388  11.9021  12.1815  12.2274  13.4039
    14.3264  14.5193

          k = 0.1250 0.0000 0.0000 (  6373 PWs)   bands (ev):

   -44.8437 -23.0689 -22.7275 -22.6998 -12.6095 -12.0912  -1.9149  -0.1892
     0.1177   0.2164   1.0276   1.3250   4.3147   5.8788   6.1007   6.6277
     6.8874   7.3298   8.7933  10.1148  11.5868  12.8010  13.9630  14.3142
    14.6419  14.8425

          k = 0.1875 0.1077 0.0000 (  6354 PWs)   bands (ev):

   -44.8370 -23.0485 -22.8072 -22.7145 -12.4799 -12.0228  -1.6940  -0.6340
    -0.1073   0.1296   0.4738   1.1888   4.2216   5.8494   6.3514   6.6725
     7.1357   7.9613   9.4129  10.8515  11.8843  12.2588  13.6152  14.3732
    14.6649  15.2185

          k = 0.1875 0.1795 0.0000 (  6343 PWs)   bands (ev):

   -44.8332 -23.0367 -22.8492 -22.7263 -12.4079 -11.9787  -1.5719  -0.8588
    -0.2924   0.0021   0.3406   1.0834   4.1622   5.8598   6.5868   6.7641
     7.2456   8.2729   9.7146  11.1196  11.9856  12.2115  13.4698  14.1095
    14.9528  15.1708

          k = 0.1875 0.2513 0.0000 (  6339 PWs)   bands (ev):

   -44.8282 -23.0212 -22.8975 -22.7478 -12.3187 -11.9129  -1.4176  -1.1091
    -0.5376  -0.2451   0.2785   0.8900   4.1355   5.8730   6.8946   7.0049
     7.3641   8.6814  10.0100  11.3657  12.0990  12.4298  13.2515  13.8507
    14.6028  14.9644

          k = 0.1875 0.3231 0.0000 (  6333 PWs)   bands (ev):

   -44.8228 -23.0045 -22.9451 -22.7752 -12.2301 -11.8293  -1.3870  -1.2257
    -0.8537  -0.4166   0.1972   0.6491   4.1548   5.9832   7.0850   7.3807
     7.5411   9.1481  10.1414  11.5720  12.3304  12.5206  13.3267  13.6431
    13.7581  14.8892

          k = 0.1875 0.3950 0.0000 (  6323 PWs)   bands (ev):

   -44.8178 -22.9902 -22.9847 -22.8030 -12.1565 -11.7391  -1.5928  -1.1780
    -1.0868  -0.4983   0.0940   0.4148   4.2185   6.2245   7.1939   7.5874
     7.8410   9.6741  10.0963  11.7286  12.2570  12.4249  13.1851  13.5132
    14.0800  14.6386

          k = 0.1875 0.4668 0.0000 (  6311 PWs)   bands (ev):

   -44.8140 -23.0161 -22.9767 -22.8255 -12.1053 -11.6617  -1.7502  -1.4195
    -0.9906  -0.5286   0.0018   0.2293   4.3058   6.5747   7.2219   7.7543
     7.9244   9.9514  10.2957  11.7871  11.9242  12.3636  12.9317  13.6237
    14.3601  14.6160

          k = 0.1875 0.5386 0.0000 (  6308 PWs)   bands (ev):

   -44.8119 -23.0317 -22.9703 -22.8380 -12.0791 -11.6169  -1.8336  -1.5511
    -0.9414  -0.5346  -0.0472   0.1220   4.3710   6.9267   7.2282   7.7639
     7.8514   9.8255  10.8711  11.6804  11.9875  12.3142  12.4653  13.5785
    14.4057  14.5953

          k = 0.1875-0.0359 0.0000 (  6356 PWs)   bands (ev):

   -44.8391 -23.0549 -22.7806 -22.7119 -12.5199 -12.0448  -1.7606  -0.4812
    -0.0290   0.1484   0.6201   1.2140   4.2743   5.7961   6.2881   6.6423
     7.0655   7.7927   9.2324  10.6684  11.8561  12.3635  13.6961  14.2170
    14.6957  15.1835

          k = 0.2500 0.1436 0.0000 (  6335 PWs)   bands (ev):

   -44.8305 -23.0286 -22.8814 -22.7308 -12.3606 -11.9441  -1.5106  -1.0304
    -0.4898   0.0307   0.2402   1.0722   4.0755   6.0416   6.6548   6.7848
     7.3423   8.4319   9.8469  11.2254  11.8309  12.1299  13.8090  14.0841
    15.0714  15.1395

          k = 0.2500 0.2154 0.0000 (  6328 PWs)   bands (ev):

   -44.8267 -23.0168 -22.9205 -22.7447 -12.2942 -11.8907  -1.4462  -1.1877
    -0.7137  -0.1305   0.2270   0.9493   4.0352   6.1101   6.8734   6.9850
     7.4294   8.7234   9.9924  11.3560  11.8780  12.1543  13.8118  14.0653
    14.6856  15.0203

          k = 0.2500 0.2872 0.0000 (  6326 PWs)   bands (ev):

   -44.8222 -23.0028 -22.9569 -22.7709 -12.2216 -11.8189  -1.4902  -1.1958
    -0.9365  -0.3494   0.2012   0.7004   4.0886   6.1336   7.0563   7.3897
     7.5319   9.1426  10.0851  11.5187  12.1099  12.2866  13.6223  13.7909
    14.0820  14.8185

          k = 0.2500 0.3590 0.0000 (  6325 PWs)   bands (ev):

   -44.8177 -22.9898 -22.9837 -22.8054 -12.1553 -11.7370  -1.5879  -1.1763
    -1.0880  -0.5082   0.0920   0.4072   4.2281   6.2225   7.1808   7.5915
     7.8367   9.6748  10.0992  11.7313  12.2574  12.4065  13.1651  13.5407
    14.1040  14.6563

          k = 0.2500 0.4309 0.0000 (  6310 PWs)   bands (ev):

   -44.8139 -23.0014 -22.9765 -22.8418 -12.1037 -11.6599  -1.6443  -1.3723
    -1.0036  -0.5955  -0.1189   0.1979   4.4182   6.4067   7.1708   7.8307
     7.9448  10.0647  10.3374  11.7160  11.9876  12.5904  13.2453  13.6598
    14.2868  14.4101

          k = 0.2500 0.5027 0.0000 (  6309 PWs)   bands (ev):

   -44.8113 -23.0074 -22.9687 -22.8710 -12.0713 -11.6047  -1.6621  -1.5038
    -0.9413  -0.6530  -0.3117   0.0841   4.5932   6.6622   7.1255   7.7651
     8.0365  10.0422  10.9288  11.5035  12.1650  12.6739  13.0425  13.7832
    14.2658  14.5209

          k = 0.2500 0.5745 0.0000 (  6326 PWs)   bands (ev):

   -44.8104 -23.0082 -22.9659 -22.8826 -12.0602 -11.5847  -1.6692  -1.5409
    -0.9198  -0.6849  -0.3755   0.0442   4.6664   6.8319   7.1032   7.5955
     8.1116  10.0209  11.0291  11.8031  12.2728  12.6553  12.6831  13.6951
    14.5118  14.5617

          k = 0.2500-0.0718 0.0000 (  6340 PWs)   bands (ev):

   -44.8331 -23.0365 -22.8487 -22.7280 -12.4070 -11.9764  -1.5714  -0.8608
    -0.2929  -0.0040   0.3397   1.0824   4.1666   5.8645   6.5800   6.7415
     7.2598   8.2728   9.7212  11.1153  11.9770  12.2015  13.4700  14.1151
    14.9429  15.1819

          k = 0.2500 0.0000 0.0000 (  6343 PWs)   bands (ev):

   -44.8339 -23.0393 -22.8350 -22.7292 -12.4236 -11.9872  -1.5939  -0.7819
    -0.2098  -0.0465   0.3840   1.0678   4.2161   5.7696   6.5814   6.7330
     7.2259   8.2248   9.6718  11.0732  12.1146  12.2493  13.2421  14.0518
    14.9125  15.0831

          k = 0.3125 0.1795 0.0000 (  6329 PWs)   bands (ev):

   -44.8240 -23.0088 -22.9543 -22.7469 -12.2512 -11.8490  -1.5554  -1.2105
    -0.9221  -0.0779   0.1519   0.9737   3.9384   6.3843   6.9286   7.0400
     7.5131   8.8528   9.9805  11.3089  11.7479  12.1076  13.7716  14.3555
    14.7264  14.9715

          k = 0.3125 0.2513 0.0000 (  6328 PWs)   bands (ev):

   -44.8207 -22.9988 -22.9852 -22.7615 -12.1996 -11.7926  -1.6818  -1.1987
    -1.0683  -0.2188   0.1611   0.8372   3.9466   6.4869   7.0256   7.3763
     7.5697   9.1382   9.9761  11.3289  11.8384  12.1478  13.5672  14.1107
    14.4990  14.8271

          k = 0.3125 0.3231 0.0000 (  6309 PWs)   bands (ev):

   -44.8171 -23.0073 -22.9866 -22.7903 -12.1475 -11.7253  -1.7539  -1.2981
    -1.0538  -0.4018   0.1390   0.5396   4.0839   6.5183   7.1786   7.5702
     7.7792   9.6194   9.9610  11.5292  12.0326  12.1956  13.1267  13.6615
    14.4510  14.7486

          k = 0.3125 0.3950 0.0000 (  6308 PWs)   bands (ev):

   -44.8137 -23.0140 -22.9764 -22.8298 -12.1025 -11.6577  -1.7425  -1.4212
    -0.9938  -0.5456  -0.0053   0.2245   4.3209   6.5760   7.2062   7.7498
     7.9175   9.9580  10.2966  11.7865  11.9161  12.3458  12.9328  13.6364
    14.3845  14.6389

          k = 0.3125 0.4668 0.0000 (  6316 PWs)   bands (ev):

   -44.8112 -23.0062 -22.9685 -22.8734 -12.0698 -11.6027  -1.6590  -1.5053
    -0.9433  -0.6599  -0.3206   0.0886   4.5987   6.6657   7.1221   7.7630
     8.0271  10.0477  10.9264  11.4991  12.1643  12.6622  13.0579  13.7679
    14.2761  14.5249

          k = 0.3125 0.5386 0.0000 (  6319 PWs)   bands (ev):

   -44.8098 -22.9901 -22.9643 -22.9088 -12.0526 -11.5719  -1.6316  -1.4462
    -0.9147  -0.8230  -0.4952   0.0296   4.8068   6.7531   7.0530   7.5350
     8.2119  10.1854  10.7879  12.1026  12.3574  12.8849  13.0463  13.3453
    14.4087  14.6634

          k = 0.3125-0.1077 0.0000 (  6328 PWs)   bands (ev):

   -44.8266 -23.0167 -22.9208 -22.7456 -12.2932 -11.8884  -1.4474  -1.1910
    -0.7210  -0.1282   0.2258   0.9527   4.0350   6.1092   6.8667   6.9892
     7.4289   8.7227   9.9951  11.3500  11.8759  12.1449  13.8059  14.0497
    14.7215  15.0107

          k = 0.3125-0.0359 0.0000 (  6342 PWs)   bands (ev):

   -44.8279 -23.0209 -22.8971 -22.7505 -12.3167 -11.9084  -1.4172  -1.1148
    -0.5472  -0.2470   0.2770   0.8894   4.1407   5.8738   6.8689   7.0058
     7.3733   8.6812  10.0180  11.3567  12.0706  12.4245  13.2480  13.8533
    14.6485  14.9708

          k = 0.3750 0.2154 0.0000 (  6318 PWs)   bands (ev):

   -44.8185 -23.0158 -22.9913 -22.7605 -12.1684 -11.7528  -1.8534  -1.3208
    -1.0696  -0.1745   0.1164   0.8997   3.8604   6.7689   7.0855   7.4498
     7.6361   9.2075   9.8992  11.1588  11.7802  12.1014  13.2940  14.3044
    14.3911  14.6642

          k = 0.3750 0.2872 0.0000 (  6317 PWs)   bands (ev):

   -44.8160 -23.0353 -22.9839 -22.7742 -12.1344 -11.7055  -1.9459  -1.4350
    -1.0282  -0.2781   0.1214   0.7576   3.9144   6.8863   7.1706   7.6221
     7.7324   9.4799   9.8599  11.2043  11.8479  12.1166  12.9835  13.7615
    14.3854  14.6830

          k = 0.3750 0.3590 0.0000 (  6307 PWs)   bands (ev):

   -44.8136 -23.0403 -22.9763 -22.8032 -12.1018 -11.6554  -1.9377  -1.5135
    -0.9830  -0.4227   0.0980   0.4325   4.1064   6.9398   7.2760   7.6180
     7.8675   9.7342  10.1568  11.5055  11.9493  12.1399  12.6032  13.4571
    14.3945  14.6761

          k = 0.3750 0.4309 0.0000 (  6318 PWs)   bands (ev):

   -44.8115 -23.0295 -22.9699 -22.8434 -12.0750 -11.6113  -1.8262  -1.5583
    -0.9454  -0.5553  -0.0615   0.1270   4.3866   6.9318   7.2202   7.7577
     7.8317   9.8345  10.8751  11.6664  11.9643  12.3185  12.4867  13.5691
    14.4278  14.6043

          k = 0.3750 0.5027 0.0000 (  6324 PWs)   bands (ev):

   -44.8102 -23.0065 -22.9656 -22.8863 -12.0574 -11.5810  -1.6695  -1.5450
    -0.9216  -0.6949  -0.3883   0.0538   4.6710   6.8389   7.1020   7.6015
     8.0873  10.0329  11.0120  11.8141  12.2599  12.6624  12.6864  13.6602
    14.5279  14.5654

          k = 0.3750 0.5745 0.0000 (  6316 PWs)   bands (ev):

   -44.8097 -22.9895 -22.9641 -22.9104 -12.0513 -11.5702  -1.6359  -1.4492
    -0.9098  -0.8298  -0.4978   0.0337   4.8050   6.7560   7.0536   7.5457
     8.1977  10.1964  10.7719  12.1314  12.3419  12.8840  13.0324  13.3296
    14.4453  14.6456

          k = 0.3750-0.1436 0.0000 (  6315 PWs)   bands (ev):

   -44.8206 -22.9987 -22.9857 -22.7618 -12.1985 -11.7907  -1.6864  -1.2021
    -1.0726  -0.2149   0.1602   0.8416   3.9438   6.4801   7.0271   7.3980
     7.5557   9.1356   9.9778  11.3290  11.8351  12.1397  13.5658  14.1378
    14.4918  14.7979

          k = 0.3750-0.0718 0.0000 (  6318 PWs)   bands (ev):

   -44.8219 -23.0026 -22.9576 -22.7722 -12.2194 -11.8148  -1.4983  -1.1965
    -0.9520  -0.3444   0.2012   0.7060   4.0859   6.1315   7.0527   7.4011
     7.5250   9.1418  10.0870  11.5069  12.1061  12.2710  13.6186  13.8203
    14.0575  14.8207

          k = 0.3750 0.0000 0.0000 (  6325 PWs)   bands (ev):

   -44.8224 -23.0041 -22.9448 -22.7787 -12.2269 -11.8230  -1.3941  -1.2258
    -0.8706  -0.4173   0.1972   0.6474   4.1593   5.9813   7.0667   7.3878
     7.5410   9.1486  10.1458  11.5582  12.2942  12.5124  13.3304  13.6610
    13.7746  14.9049

          k = 0.4375 0.2513 0.0000 (  6310 PWs)   bands (ev):

   -44.8148 -23.0558 -22.9801 -22.7696 -12.1181 -11.6802  -2.0728  -1.5359
    -1.0052  -0.2401   0.1038   0.8537   3.8369   6.9875   7.3190   7.6848
     7.8095   9.4276   9.8157  11.0304  11.7610  12.1001  12.7696  13.8864
    14.1714  14.4159

          k = 0.4375 0.3231 0.0000 (  6309 PWs)   bands (ev):

   -44.8135 -23.0619 -22.9762 -22.7810 -12.1014 -11.6538  -2.0938  -1.5854
    -0.9812  -0.3084   0.1032   0.7171   3.9131   7.0782   7.3891   7.6567
     7.8707   9.5381   9.9496  11.1356  11.7785  12.1363  12.5671  13.5071
    14.2842  14.3898

          k = 0.4375 0.3950 0.0000 (  6310 PWs)   bands (ev):

   -44.8124 -23.0522 -22.9726 -22.8077 -12.0860 -11.6291  -2.0046  -1.5911
    -0.9589  -0.4266   0.0836   0.3964   4.1188   7.1416   7.3707   7.6051
     7.8159   9.6481  10.4290  11.5043  11.9076  12.2023  12.2325  13.4005
    14.3486  14.5308

          k = 0.4375 0.4668 0.0000 (  6319 PWs)   bands (ev):

   -44.8115 -23.0299 -22.9698 -22.8436 -12.0741 -11.6101  -1.8298  -1.5635
    -0.9447  -0.5543  -0.0605   0.1293   4.3832   6.9257   7.2250   7.7760
     7.8207   9.8374  10.8756  11.6732  11.9527  12.3265  12.4667  13.5783
    14.4280  14.5965

          k = 0.4375 0.5386 0.0000 (  6303 PWs)   bands (ev):

   -44.8110 -23.0065 -22.9683 -22.8745 -12.0677 -11.5998  -1.6664  -1.5163
    -0.9410  -0.6615  -0.3192   0.0937   4.5929   6.6649   7.1275   7.7943
     7.9988  10.0563  10.9155  11.5166  12.1332  12.6828  13.0202  13.7734
    14.2900  14.5364

          k = 0.4375-0.1795 0.0000 (  6306 PWs)   bands (ev):

   -44.8160 -23.0358 -22.9838 -22.7743 -12.1336 -11.7042  -1.9494  -1.4403
    -1.0280  -0.2751   0.1208   0.7610   3.9114   6.8803   7.1692   7.6099
     7.7578   9.4788   9.8610  11.2083  11.8413  12.1118  12.9752  13.7988
    14.3724  14.6537

          k = 0.4375-0.1077 0.0000 (  6313 PWs)   bands (ev):

   -44.8169 -23.0083 -22.9865 -22.7908 -12.1456 -11.7222  -1.7621  -1.3108
    -1.0538  -0.3966   0.1394   0.5463   4.0780   6.5108   7.1996   7.5311
     7.8139   9.6165   9.9651  11.5241  12.0244  12.1882  13.1354  13.6686
    14.4400  14.7197

          k = 0.4375-0.0359 0.0000 (  6320 PWs)   bands (ev):

   -44.8174 -22.9898 -22.9842 -22.8073 -12.1522 -11.7318  -1.5989  -1.1948
    -1.0886  -0.5045   0.0945   0.4123   4.2234   6.2213   7.1961   7.5500
     7.8691   9.6767  10.1005  11.7083  12.2384  12.4168  13.1702  13.5323
    14.0917  14.6637

          k =-0.5000-0.2872 0.0000 (  6298 PWs)   bands (ev):

   -44.8135 -23.0699 -22.9762 -22.7727 -12.1013 -11.6531  -2.1510  -1.6114
    -0.9817  -0.2633   0.1011   0.8381   3.8351   7.0331   7.4595   7.7120
     7.9404   9.4601   9.8317  10.9898  11.6808  12.1398  12.5802  13.6910
    14.0750  14.2837

          k =-0.5000-0.2154 0.0000 (  6320 PWs)   bands (ev):

   -44.8135 -23.0621 -22.9762 -22.7811 -12.1011 -11.6533  -2.0951  -1.5873
    -0.9811  -0.3074   0.1030   0.7183   3.9118   7.0823   7.3746   7.6517
     7.8888   9.5435   9.9443  11.1378  11.7787  12.1335  12.5574  13.5271
    14.2764  14.3801

          k =-0.5000-0.1436 0.0000 (  6313 PWs)   bands (ev):

   -44.8135 -23.0410 -22.9762 -22.8033 -12.1007 -11.6538  -1.9425  -1.5208
    -0.9824  -0.4198   0.0981   0.4368   4.1021   6.9303   7.2922   7.5833
     7.9043   9.7405  10.1538  11.5061  11.9435  12.1390  12.5852  13.4818
    14.3889  14.6526

          k =-0.5000-0.0718 0.0000 (  6311 PWs)   bands (ev):

   -44.8135 -23.0150 -22.9762 -22.8306 -12.1002 -11.6543  -1.7518  -1.4357
    -0.9925  -0.5426  -0.0027   0.2302   4.3136   6.5712   7.2250   7.7068
     7.9587   9.9627  10.3001  11.7691  11.9006  12.3668  12.9086  13.6465
    14.3819  14.6187

          k =-0.5000 0.0000 0.0000 (  6326 PWs)   bands (ev):

   -44.8135 -23.0017 -22.9762 -22.8445 -12.1000 -11.6544  -1.6534  -1.3907
    -1.0027  -0.5978  -0.1186   0.2041   4.4140   6.4072   7.1810   7.7877
     7.9823  10.0746  10.3393  11.7025  11.9587  12.6070  13.1980  13.6791
    14.2981  14.4203

     highest occupied, lowest unoccupied level (ev):     4.8068    5.7639

!    total energy              =    -591.24416092 Ry
     total all-electron energy =    -13333.877437 Ry
     estimated scf accuracy    <          7.3E-10 Ry

     The total energy is the sum of the following terms:
     one-electron contribution =    -204.20101700 Ry
     hartree contribution      =     109.96894880 Ry
     xc contribution           =     -37.59693444 Ry
     ewald contribution        =     -28.29904703 Ry
     one-center paw contrib.   =    -431.11611126 Ry

     convergence has been achieved in   9 iterations

     negative rho (up, down):  1.413E-08 0.000E+00

     Forces acting on atoms (cartesian axes, Ry/au):

     atom    1 type  1   force =     0.00000000   -0.00271376   -0.00008251
     atom    2 type  2   force =     0.00000000    0.00139131   -0.00079824
     atom    3 type  3   force =     0.00000000    0.00132245    0.00088075
     The non-local contrib.  to forces
     atom    1 type  1   force =     0.00000000   -0.00035317   -0.00060018
     atom    2 type  2   force =     0.00000000    0.00101978   -0.21317042
     atom    3 type  3   force =     0.00000000    0.00105078    0.20964709
     The ionic contribution  to forces
     atom    1 type  1   force =    -0.00000001    0.00421394   -0.32405926
     atom    2 type  2   force =     0.00000000   -0.00200505   21.06165958
     atom    3 type  3   force =     0.00000000   -0.00220890  -20.73760033
     The local contribution  to forces
     atom    1 type  1   force =     0.00000000   -0.00650488    0.32425468
     atom    2 type  2   force =     0.00000003    0.00237314  -20.85723998
     atom    3 type  3   force =    -0.00000000    0.00256673   20.53255534
     The core correction contribution to forces
     atom    1 type  1   force =     0.00000000   -0.00004869    0.00035695
     atom    2 type  2   force =    -0.00000000    0.00002342    0.00801464
     atom    3 type  3   force =    -0.00000000   -0.00006613   -0.00365505
     The Hubbard contrib.    to forces
     atom    1 type  1   force =     0.00000000    0.00000000    0.00000000
     atom    2 type  2   force =     0.00000000    0.00000000    0.00000000
     atom    3 type  3   force =     0.00000000    0.00000000    0.00000000
     The SCF correction term to forces
     atom    1 type  1   force =    -0.00000000   -0.00000081    0.00001692
     atom    2 type  2   force =     0.00000000    0.00000019   -0.00001043
     atom    3 type  3   force =     0.00000000    0.00000013   -0.00001468

     Total force =     0.003531     Total SCF correction =     0.000025

     BFGS Geometry Optimization
     Energy error            =      0.0E+00 Ry
     Gradient error          =      2.7E-03 Ry/Bohr

     number of scf cycles    =   1
     number of bfgs steps    =   0

     energy             new  =    -591.2441609235 Ry

     new trust radius        =       0.0027150151 bohr
     new conv_thr            =       0.0000000100 Ry


ATOMIC_POSITIONS (angstrom)
Zr            0.0000000000       -0.0014360605       10.2766864612
Cl           -0.0000000017        2.0151646710       11.9643682590
Br           -0.0000000017        2.0151282341        8.4220940542



     Writing config-only to output data dir ./tmp/ZrClBr.save/
     NEW-OLD atomic charge density approx. for the potential

     Check: negative core charge=   -0.000004

     negative rho (up, down):  1.456E-08 0.000E+00

     total cpu time spent up to now is       19.8 secs

     Self-consistent Calculation

     iteration #  1     ecut=    65.00 Ry     beta= 0.70
     Davidson diagonalization with overlap
     ethr =  1.00E-06,  avg # of iterations =  2.9

     Threshold (ethr) on eigenvalues was too large:
     Diagonalizing with lowered threshold

     Davidson diagonalization with overlap
     ethr =  1.45E-09,  avg # of iterations =  4.0

     negative rho (up, down):  1.468E-08 0.000E+00

     total cpu time spent up to now is       23.6 secs

     total energy              =    -591.24417170 Ry
     estimated scf accuracy    <       0.00000039 Ry

     iteration #  2     ecut=    65.00 Ry     beta= 0.70
     Davidson diagonalization with overlap
     ethr =  1.49E-09,  avg # of iterations =  2.0

     negative rho (up, down):  1.454E-08 0.000E+00

     total cpu time spent up to now is       25.2 secs

     total energy              =    -591.24417167 Ry
     estimated scf accuracy    <       0.00000048 Ry

     iteration #  3     ecut=    65.00 Ry     beta= 0.70
     Davidson diagonalization with overlap
     ethr =  1.49E-09,  avg # of iterations =  2.0

     negative rho (up, down):  1.458E-08 0.000E+00

     total cpu time spent up to now is       26.7 secs

     total energy              =    -591.24417180 Ry
     estimated scf accuracy    <       0.00000010 Ry

     iteration #  4     ecut=    65.00 Ry     beta= 0.70
     Davidson diagonalization with overlap
     ethr =  4.02E-10,  avg # of iterations =  1.0

     negative rho (up, down):  1.458E-08 0.000E+00

     total cpu time spent up to now is       28.1 secs

     End of self-consistent calculation

          k = 0.0000 0.0000 0.0000 (  6363 PWs)   bands (ev):

   -44.8463 -23.0795 -22.6892 -22.6819 -12.6853 -12.1267  -2.0457   0.0115
     0.2488   0.2795   1.4233   1.4656   4.3117   5.9841   6.0491   6.7057
     6.7122   6.8419   8.4192   9.4915  11.3851  13.6373  13.6930  13.9727
    14.6883  15.2572

          k = 0.0000 0.0718 0.0000 (  6375 PWs)   bands (ev):

   -44.8451 -23.0756 -22.7043 -22.6850 -12.6597 -12.1155  -2.0012  -0.0586
     0.1983   0.2672   1.2649   1.4308   4.3139   5.9228   6.0830   6.6777
     6.7645   7.0214   8.5450   9.7232  11.4509  13.1956  13.8186  14.3352
    14.6905  14.8398

          k = 0.0000 0.1436 0.0000 (  6379 PWs)   bands (ev):

   -44.8415 -23.0645 -22.7473 -22.6940 -12.5876 -12.0821  -1.8759  -0.2901
     0.0847   0.2280   0.8757   1.3397   4.2943   5.8215   6.1918   6.6436
     6.9216   7.4564   8.8984  10.2752  11.6476  12.6440  14.0507  14.1764
    14.5739  14.9111

          k = 0.0000 0.2154 0.0000 (  6359 PWs)   bands (ev):

   -44.8361 -23.0479 -22.8106 -22.7073 -12.4820 -12.0268  -1.6954  -0.6492
    -0.1189   0.1587   0.4620   1.2228   4.2027   5.8367   6.3900   6.6862
     7.1303   7.9611   9.3997  10.8505  11.8856  12.2491  13.5708  14.3762
    14.6967  15.1740

          k = 0.0000 0.2872 0.0000 (  6337 PWs)   bands (ev):

   -44.8298 -23.0281 -22.8842 -22.7230 -12.3636 -11.9504  -1.5117  -1.0419
    -0.5039   0.0638   0.2348   1.1081   4.0502   6.0402   6.6840   6.8023
     7.3400   8.4340   9.8338  11.2216  11.8359  12.1198  13.7726  14.0737
    15.0342  15.1593

          k = 0.0000 0.3590 0.0000 (  6325 PWs)   bands (ev):

   -44.8234 -23.0084 -22.9565 -22.7386 -12.2556 -11.8575  -1.5620  -1.2135
    -0.9292  -0.0412   0.1429   1.0117   3.9104   6.3902   6.9510   7.0570
     7.5148   8.8570   9.9667  11.3010  11.7620  12.1015  13.7389  14.3244
    14.6870  15.0041

          k = 0.0000 0.4309 0.0000 (  6306 PWs)   bands (ev):

   -44.8180 -23.0174 -22.9911 -22.7518 -12.1743 -11.7629  -1.8620  -1.3192
    -1.0690  -0.1350   0.1025   0.9396   3.8311   6.7838   7.1094   7.4537
     7.6411   9.2134   9.8789  11.1687  11.7813  12.0986  13.2537  14.2711
    14.4312  14.6251

          k = 0.0000 0.5027 0.0000 (  6310 PWs)   bands (ev):

   -44.8144 -23.0571 -22.9800 -22.7606 -12.1252 -11.6912  -2.0820  -1.5291
    -1.0023  -0.1990   0.0865   0.8950   3.8068   7.0171   7.3367   7.6923
     7.8014   9.4324   9.7903  11.0568  11.7489  12.0819  12.7422  13.9384
    14.1346  14.3871

          k = 0.0000-0.5745 0.0000 (  6294 PWs)   bands (ev):

   -44.8131 -23.0710 -22.9760 -22.7636 -12.1089 -11.6645  -2.1604  -1.6026
    -0.9782  -0.2217   0.0826   0.8799   3.8047   7.0668   7.4768   7.7211
     7.9265   9.4601   9.8081  11.0218  11.6619  12.1116  12.5619  13.7458
    14.0401  14.2621

          k = 0.0625 0.0359 0.0000 (  6379 PWs)   bands (ev):

   -44.8451 -23.0756 -22.7000 -22.6896 -12.6596 -12.1151  -2.0010  -0.0520
     0.2104   0.2467   1.2919   1.4011   4.3163   5.9574   6.0442   6.6711
     6.7700   7.0225   8.5475   9.7245  11.4512  13.2137  13.7781  14.3521
    14.7063  14.8905

          k = 0.0625 0.1077 0.0000 (  6375 PWs)   bands (ev):

   -44.8426 -23.0681 -22.7313 -22.6934 -12.6107 -12.0928  -1.9161  -0.2026
     0.1127   0.2374   1.0052   1.3508   4.3093   5.8452   6.1472   6.6499
     6.8685   7.3280   8.7867  10.1138  11.5863  12.7974  13.9922  14.2698
    14.6233  14.8309

          k = 0.0625 0.1795 0.0000 (  6357 PWs)   bands (ev):

   -44.8382 -23.0542 -22.7841 -22.7048 -12.5218 -12.0484  -1.7620  -0.4956
    -0.0347   0.1736   0.6069   1.2412   4.2598   5.7773   6.3289   6.6707
     7.0452   7.7917   9.2192  10.6684  11.8577  12.3673  13.6536  14.2290
    14.7118  15.1495

          k = 0.0625 0.2513 0.0000 (  6342 PWs)   bands (ev):

   -44.8323 -23.0360 -22.8514 -22.7206 -12.4099 -11.9823  -1.5729  -0.8704
    -0.3055   0.0223   0.3394   1.1100   4.1454   5.8610   6.6078   6.7707
     7.2463   8.2739   9.7060  11.1168  11.9857  12.2029  13.4378  14.1125
    14.9559  15.1597

          k = 0.0625 0.3231 0.0000 (  6326 PWs)   bands (ev):

   -44.8259 -23.0162 -22.9228 -22.7378 -12.2972 -11.8966  -1.4493  -1.1962
    -0.7267  -0.1041   0.2267   0.9820   4.0116   6.1154   6.8920   7.0027
     7.4272   8.7259   9.9829  11.3469  11.8884  12.1465  13.7881  14.0350
    14.6778  15.0118

          k = 0.0625 0.3950 0.0000 (  6335 PWs)   bands (ev):

   -44.8201 -22.9985 -22.9871 -22.7536 -12.2040 -11.8005  -1.6915  -1.2007
    -1.0721  -0.1874   0.1552   0.8736   3.9196   6.4928   7.0525   7.3932
     7.5652   9.1416   9.9623  11.3287  11.8495  12.1431  13.5325  14.1091
    14.4856  14.7982

          k = 0.0625 0.4668 0.0000 (  6311 PWs)   bands (ev):

   -44.8155 -23.0369 -22.9836 -22.7658 -12.1403 -11.7150  -1.9561  -1.4327
    -1.0262  -0.2421   0.1087   0.7958   3.8860   6.8988   7.1955   7.6231
     7.7415   9.4860   9.8377  11.2253  11.8420  12.1074  12.9513  13.7897
    14.3599  14.6463

          k = 0.0625 0.5386 0.0000 (  6308 PWs)   bands (ev):

   -44.8131 -23.0631 -22.9760 -22.7723 -12.1084 -11.6643  -2.1034  -1.5779
    -0.9779  -0.2702   0.0864   0.7555   3.8848   7.1110   7.3973   7.6624
     7.8701   9.5368   9.9299  11.1678  11.7644  12.1110  12.5482  13.5388
    14.2626  14.3673

          k = 0.1250 0.0718 0.0000 (  6380 PWs)   bands (ev):

   -44.8414 -23.0644 -22.7425 -22.6997 -12.5869 -12.0806  -1.8754  -0.2751
     0.0908   0.2022   0.8982   1.3066   4.3040   5.8501   6.1494   6.6347
     6.9270   7.4583   8.9068  10.2778  11.6486  12.6536  14.0993  14.1390
    14.5724  14.9457

          k = 0.1250 0.1436 0.0000 (  6345 PWs)   bands (ev):

   -44.8381 -23.0541 -22.7819 -22.7078 -12.5213 -12.0473  -1.7617  -0.4873
    -0.0329   0.1621   0.6151   1.2231   4.2676   5.7832   6.3131   6.6691
     7.0446   7.7923   9.2245  10.6694  11.8582  12.3741  13.6756  14.2214
    14.7011  15.1681

          k = 0.1250 0.2154 0.0000 (  6346 PWs)   bands (ev):

   -44.8331 -23.0387 -22.8364 -22.7238 -12.4260 -11.9919  -1.5955  -0.7853
    -0.2185  -0.0270   0.3848   1.0789   4.2038   5.7651   6.6010   6.7698
     7.2027   8.2252   9.6590  11.0767  12.1339  12.2618  13.2188  14.0477
    14.9184  15.0725

          k = 0.1250 0.2872 0.0000 (  6334 PWs)   bands (ev):

   -44.8272 -23.0204 -22.8981 -22.7443 -12.3201 -11.9154  -1.4185  -1.1151
    -0.5476  -0.2327   0.2797   0.9023   4.1264   5.8775   6.9022   7.0120
     7.3632   8.6824  10.0074  11.3616  12.0921  12.4436  13.2292  13.8484
    14.6087  14.9558

          k = 0.1250 0.3590 0.0000 (  6330 PWs)   bands (ev):

   -44.8214 -23.0022 -22.9583 -22.7654 -12.2241 -11.8235  -1.4981  -1.1969
    -0.9450  -0.3302   0.2013   0.7218   4.0714   6.1398   7.0780   7.3950
     7.5296   9.1440  10.0792  11.5114  12.1266  12.2858  13.6059  13.7950
    14.0526  14.7958

          k = 0.1250 0.4309 0.0000 (  6323 PWs)   bands (ev):

   -44.8164 -23.0088 -22.9862 -22.7835 -12.1515 -11.7320  -1.7637  -1.3004
    -1.0528  -0.3771   0.1343   0.5661   4.0623   6.5218   7.2129   7.5596
     7.7913   9.6213   9.9500  11.5351  12.0411  12.1968  13.1301  13.6427
    14.4274  14.7128

          k = 0.1250 0.5027 0.0000 (  6309 PWs)   bands (ev):

   -44.8130 -23.0417 -22.9760 -22.7957 -12.1072 -11.6637  -1.9474  -1.5095
    -0.9803  -0.3936   0.0872   0.4610   4.0838   6.9422   7.3054   7.6174
     7.8784   9.7294  10.1476  11.5319  11.9506  12.1295  12.5853  13.4672
    14.3698  14.6512

          k = 0.1250 0.5745 0.0000 (  6320 PWs)   bands (ev):

   -44.8119 -23.0533 -22.9723 -22.7999 -12.0924 -11.6385  -2.0124  -1.5820
    -0.9559  -0.3964   0.0699   0.4240   4.0977   7.1557   7.3827   7.6236
     7.8103   9.6374  10.4218  11.5390  11.9021  12.1814  12.2290  13.4048
    14.3260  14.5241

          k = 0.1250 0.0000 0.0000 (  6373 PWs)   bands (ev):

   -44.8426 -23.0680 -22.7267 -22.6988 -12.6102 -12.0917  -1.9156  -0.1908
     0.1172   0.2172   1.0247   1.3250   4.3155   5.8790   6.1036   6.6318
     6.8834   7.3299   8.7932  10.1158  11.5865  12.8030  13.9599  14.3109
    14.6444  14.8408

          k = 0.1875 0.1077 0.0000 (  6354 PWs)   bands (ev):

   -44.8359 -23.0476 -22.8064 -22.7136 -12.4805 -12.0235  -1.6946  -0.6352
    -0.1083   0.1295   0.4732   1.1878   4.2217   5.8508   6.3530   6.6745
     7.1347   7.9618   9.4134  10.8518  11.8852  12.2592  13.6125  14.3760
    14.6640  15.2167

          k = 0.1875 0.1795 0.0000 (  6343 PWs)   bands (ev):

   -44.8321 -23.0358 -22.8484 -22.7254 -12.4085 -11.9794  -1.5726  -0.8598
    -0.2935   0.0016   0.3405   1.0820   4.1627   5.8612   6.5883   6.7651
     7.2458   8.2734   9.7154  11.1187  11.9860  12.2117  13.4682  14.1136
    14.9498  15.1717

          k = 0.1875 0.2513 0.0000 (  6339 PWs)   bands (ev):

   -44.8271 -23.0203 -22.8966 -22.7469 -12.3193 -11.9136  -1.4185  -1.1099
    -0.5391  -0.2450   0.2781   0.8884   4.1363   5.8744   6.8959   7.0063
     7.3643   8.6817  10.0114  11.3641  12.0975  12.4311  13.2515  13.8539
    14.6037  14.9645

          k = 0.1875 0.3231 0.0000 (  6333 PWs)   bands (ev):

   -44.8217 -23.0036 -22.9441 -22.7743 -12.2306 -11.8300  -1.3877  -1.2266
    -0.8552  -0.4166   0.1969   0.6476   4.1559   5.9845   7.0866   7.3816
     7.5412   9.1482  10.1433  11.5705  12.3281  12.5211  13.3286  13.6445
    13.7599  14.8896

          k = 0.1875 0.3950 0.0000 (  6323 PWs)   bands (ev):

   -44.8167 -22.9892 -22.9838 -22.8022 -12.1570 -11.7399  -1.5931  -1.1793
    -1.0882  -0.4988   0.0937   0.4138   4.2199   6.2256   7.1956   7.5868
     7.8422   9.6742  10.0979  11.7274  12.2562  12.4252  13.1856  13.5147
    14.0818  14.6400

          k = 0.1875 0.4668 0.0000 (  6311 PWs)   bands (ev):

   -44.8129 -23.0150 -22.9758 -22.8247 -12.1057 -11.6626  -1.7503  -1.4210
    -0.9921  -0.5297   0.0011   0.2291   4.3075   6.5756   7.2233   7.7533
     7.9259   9.9513  10.2967  11.7873  11.9242  12.3640  12.9317  13.6245
    14.3616  14.6168

          k = 0.1875 0.5386 0.0000 (  6308 PWs)   bands (ev):

   -44.8108 -23.0306 -22.9694 -22.8372 -12.0795 -11.6179  -1.8334  -1.5526
    -0.9430  -0.5361  -0.0484   0.1228   4.3729   6.9272   7.2294   7.7656
     7.8504   9.8248  10.8730  11.6812  11.9875  12.3145  12.4652  13.5790
    14.4063  14.5981

          k = 0.1875-0.0359 0.0000 (  6356 PWs)   bands (ev):

   -44.8380 -23.0540 -22.7798 -22.7109 -12.5205 -12.0455  -1.7611  -0.4828
    -0.0301   0.1495   0.6183   1.2136   4.2741   5.7973   6.2900   6.6457
     7.0626   7.7931   9.2328  10.6694  11.8566  12.3653  13.6924  14.2138
    14.7008  15.1806

          k = 0.2500 0.1436 0.0000 (  6335 PWs)   bands (ev):

   -44.8294 -23.0277 -22.8807 -22.7298 -12.3610 -11.9450  -1.5111  -1.0314
    -0.4913   0.0307   0.2403   1.0712   4.0750   6.0434   6.6560   6.7870
     7.3420   8.4327   9.8481  11.2251  11.8323  12.1302  13.8068  14.0860
    15.0720  15.1374

          k = 0.2500 0.2154 0.0000 (  6328 PWs)   bands (ev):

   -44.8256 -23.0158 -22.9197 -22.7438 -12.2947 -11.8915  -1.4470  -1.1885
    -0.7153  -0.1298   0.2265   0.9480   4.0351   6.1116   6.8759   6.9867
     7.4287   8.7240   9.9938  11.3549  11.8795  12.1538  13.8129  14.0649
    14.6867  15.0187

          k = 0.2500 0.2872 0.0000 (  6326 PWs)   bands (ev):

   -44.8211 -23.0019 -22.9560 -22.7700 -12.2221 -11.8197  -1.4913  -1.1964
    -0.9381  -0.3486   0.2006   0.6990   4.0887   6.1352   7.0601   7.3906
     7.5307   9.1427  10.0868  11.5176  12.1111  12.2854  13.6245  13.7911
    14.0819  14.8187

          k = 0.2500 0.3590 0.0000 (  6325 PWs)   bands (ev):

   -44.8166 -22.9889 -22.9828 -22.8046 -12.1558 -11.7379  -1.5887  -1.1779
    -1.0888  -0.5077   0.0914   0.4060   4.2285   6.2241   7.1850   7.5895
     7.8381   9.6746  10.1011  11.7299  12.2558  12.4081  13.1656  13.5422
    14.1048  14.6572

          k = 0.2500 0.4309 0.0000 (  6310 PWs)   bands (ev):

   -44.8128 -23.0005 -22.9756 -22.8410 -12.1042 -11.6608  -1.6447  -1.3739
    -1.0045  -0.5956  -0.1200   0.1975   4.4188   6.4081   7.1735   7.8297
     7.9463  10.0660  10.3375  11.7154  11.9863  12.5923  13.2444  13.6613
    14.2881  14.4116

          k = 0.2500 0.5027 0.0000 (  6309 PWs)   bands (ev):

   -44.8102 -23.0064 -22.9677 -22.8702 -12.0717 -11.6057  -1.6623  -1.5053
    -0.9425  -0.6537  -0.3131   0.0846   4.5941   6.6631   7.1274   7.7670
     8.0358  10.0429  10.9290  11.5043  12.1637  12.6752  13.0423  13.7833
    14.2682  14.5222

          k = 0.2500 0.5745 0.0000 (  6326 PWs)   bands (ev):

   -44.8093 -23.0072 -22.9650 -22.8818 -12.0606 -11.5856  -1.6695  -1.5420
    -0.9210  -0.6860  -0.3770   0.0451   4.6675   6.8324   7.1049   7.5976
     8.1110  10.0212  11.0299  11.8041  12.2716  12.6552  12.6841  13.6953
    14.5131  14.5638

          k = 0.2500-0.0718 0.0000 (  6340 PWs)   bands (ev):

   -44.8319 -23.0356 -22.8480 -22.7270 -12.4075 -11.9773  -1.5719  -0.8620
    -0.2947  -0.0036   0.3396   1.0818   4.1657   5.8665   6.5810   6.7441
     7.2587   8.2735   9.7223  11.1160  11.9783  12.2029  13.4668  14.1144
    14.9456  15.1810

          k = 0.2500 0.0000 0.0000 (  6343 PWs)   bands (ev):

   -44.8328 -23.0384 -22.8343 -22.7282 -12.4241 -11.9880  -1.5944  -0.7832
    -0.2121  -0.0452   0.3835   1.0675   4.2150   5.7717   6.5825   6.7361
     7.2242   8.2254   9.6728  11.0742  12.1167  12.2513  13.2379  14.0494
    14.9158  15.0831

          k = 0.3125 0.1795 0.0000 (  6329 PWs)   bands (ev):

   -44.8229 -23.0078 -22.9536 -22.7459 -12.2517 -11.8500  -1.5564  -1.2109
    -0.9233  -0.0779   0.1519   0.9727   3.9376   6.3864   6.9312   7.0408
     7.5134   8.8538   9.9818  11.3083  11.7496  12.1080  13.7721  14.3550
    14.7262  14.9709

          k = 0.3125 0.2513 0.0000 (  6328 PWs)   bands (ev):

   -44.8196 -22.9978 -22.9844 -22.7606 -12.2000 -11.7936  -1.6829  -1.1993
    -1.0692  -0.2179   0.1602   0.8360   3.9461   6.4886   7.0294   7.3781
     7.5683   9.1388   9.9773  11.3293  11.8394  12.1476  13.5678  14.1110
    14.4987  14.8262

          k = 0.3125 0.3231 0.0000 (  6309 PWs)   bands (ev):

   -44.8160 -23.0065 -22.9857 -22.7894 -12.1480 -11.7262  -1.7550  -1.2994
    -1.0542  -0.4008   0.1382   0.5383   4.0835   6.5199   7.1844   7.5674
     7.7809   9.6195   9.9625  11.5297  12.0327  12.1952  13.1274  13.6624
    14.4508  14.7479

          k = 0.3125 0.3950 0.0000 (  6308 PWs)   bands (ev):

   -44.8126 -23.0132 -22.9755 -22.8289 -12.1030 -11.6586  -1.7435  -1.4226
    -0.9942  -0.5450  -0.0060   0.2234   4.3207   6.5776   7.2104   7.7483
     7.9193   9.9601  10.2960  11.7855  11.9158  12.3472  12.9331  13.6375
    14.3851  14.6387

          k = 0.3125 0.4668 0.0000 (  6316 PWs)   bands (ev):

   -44.8101 -23.0053 -22.9676 -22.8725 -12.0703 -11.6037  -1.6598  -1.5066
    -0.9437  -0.6601  -0.3213   0.0883   4.5988   6.6669   7.1246   7.7649
     8.0274  10.0494  10.9253  11.4998  12.1629  12.6637  13.0584  13.7678
    14.2777  14.5262

          k = 0.3125 0.5386 0.0000 (  6319 PWs)   bands (ev):

   -44.8087 -22.9892 -22.9633 -22.9080 -12.0531 -11.5729  -1.6326  -1.4469
    -0.9152  -0.8243  -0.4957   0.0297   4.8072   6.7535   7.0550   7.5372
     8.2128  10.1868  10.7877  12.1031  12.3564  12.8854  13.0466  13.3455
    14.4111  14.6634

          k = 0.3125-0.1077 0.0000 (  6328 PWs)   bands (ev):

   -44.8254 -23.0157 -22.9202 -22.7446 -12.2936 -11.8894  -1.4481  -1.1918
    -0.7221  -0.1289   0.2264   0.9521   4.0338   6.1114   6.8683   6.9898
     7.4299   8.7238   9.9967  11.3498  11.8773  12.1459  13.8055  14.0490
    14.7199  15.0113

          k = 0.3125-0.0359 0.0000 (  6342 PWs)   bands (ev):

   -44.8268 -23.0200 -22.8965 -22.7494 -12.3171 -11.9094  -1.4176  -1.1158
    -0.5483  -0.2477   0.2773   0.8892   4.1392   5.8762   6.8708   7.0060
     7.3743   8.6821  10.0198  11.3573  12.0727  12.4257  13.2455  13.8513
    14.6471  14.9714

          k = 0.3750 0.2154 0.0000 (  6318 PWs)   bands (ev):

   -44.8174 -23.0151 -22.9903 -22.7596 -12.1688 -11.7539  -1.8545  -1.3213
    -1.0700  -0.1744   0.1159   0.8989   3.8595   6.7713   7.0883   7.4502
     7.6367   9.2092   9.8998  11.1593  11.7813  12.1023  13.2938  14.3047
    14.3903  14.6638

          k = 0.3750 0.2872 0.0000 (  6317 PWs)   bands (ev):

   -44.8149 -23.0346 -22.9829 -22.7733 -12.1349 -11.7064  -1.9471  -1.4357
    -1.0284  -0.2774   0.1203   0.7566   3.9137   6.8889   7.1740   7.6216
     7.7336   9.4814   9.8600  11.2058  11.8484  12.1170  12.9825  13.7637
    14.3848  14.6811

          k = 0.3750 0.3590 0.0000 (  6307 PWs)   bands (ev):

   -44.8125 -23.0396 -22.9753 -22.8023 -12.1023 -11.6564  -1.9388  -1.5143
    -0.9832  -0.4221   0.0971   0.4314   4.1059   6.9418   7.2811   7.6160
     7.8694   9.7364  10.1559  11.5067  11.9504  12.1397  12.6018  13.4594
    14.3940  14.6747

          k = 0.3750 0.4309 0.0000 (  6318 PWs)   bands (ev):

   -44.8104 -23.0288 -22.9689 -22.8425 -12.0755 -11.6122  -1.8273  -1.5592
    -0.9457  -0.5551  -0.0620   0.1260   4.3862   6.9332   7.2231   7.7596
     7.8324   9.8360  10.8747  11.6672  11.9643  12.3189  12.4868  13.5702
    14.4274  14.6041

          k = 0.3750 0.5027 0.0000 (  6324 PWs)   bands (ev):

   -44.8091 -23.0058 -22.9647 -22.8854 -12.0580 -11.5819  -1.6704  -1.5461
    -0.9221  -0.6951  -0.3887   0.0534   4.6709   6.8394   7.1040   7.6032
     8.0896  10.0339  11.0129  11.8141  12.2598  12.6627  12.6864  13.6610
    14.5275  14.5657

          k = 0.3750 0.5745 0.0000 (  6316 PWs)   bands (ev):

   -44.8086 -22.9888 -22.9632 -22.9094 -12.0519 -11.5712  -1.6367  -1.4503
    -0.9112  -0.8294  -0.4981   0.0335   4.8051   6.7560   7.0555   7.5474
     8.2004  10.1969  10.7734  12.1313  12.3424  12.8829  13.0325  13.3307
    14.4440  14.6471

          k = 0.3750-0.1436 0.0000 (  6315 PWs)   bands (ev):

   -44.8194 -22.9977 -22.9851 -22.7609 -12.1990 -11.7918  -1.6875  -1.2024
    -1.0732  -0.2159   0.1607   0.8410   3.9426   6.4824   7.0287   7.3975
     7.5583   9.1373   9.9790  11.3282  11.8369  12.1413  13.5654  14.1367
    14.4920  14.7980

          k = 0.3750-0.0718 0.0000 (  6318 PWs)   bands (ev):

   -44.8208 -23.0016 -22.9570 -22.7712 -12.2198 -11.8158  -1.4995  -1.1967
    -0.9524  -0.3457   0.2017   0.7058   4.0845   6.1337   7.0530   7.4019
     7.5277   9.1431  10.0889  11.5068  12.1073  12.2729  13.6173  13.8193
    14.0566  14.8200

          k = 0.3750 0.0000 0.0000 (  6325 PWs)   bands (ev):

   -44.8213 -23.0031 -22.9442 -22.7777 -12.2273 -11.8240  -1.3953  -1.2261
    -0.8707  -0.4189   0.1975   0.6475   4.1578   5.9835   7.0667   7.3896
     7.5431   9.1496  10.1481  11.5589  12.2982  12.5108  13.3297  13.6590
    13.7729  14.9048

          k = 0.4375 0.2513 0.0000 (  6310 PWs)   bands (ev):

   -44.8137 -23.0552 -22.9791 -22.7686 -12.1186 -11.6812  -2.0740  -1.5362
    -1.0054  -0.2401   0.1031   0.8530   3.8360   6.9909   7.3212   7.6855
     7.8097   9.4304   9.8150  11.0315  11.7619  12.1008  12.7698  13.8861
    14.1705  14.4154

          k = 0.4375 0.3231 0.0000 (  6309 PWs)   bands (ev):

   -44.8124 -23.0612 -22.9752 -22.7801 -12.1019 -11.6548  -2.0950  -1.5857
    -0.9814  -0.3081   0.1022   0.7163   3.9123   7.0824   7.3905   7.6569
     7.8719   9.5406   9.9488  11.1370  11.7796  12.1365  12.5664  13.5085
    14.2831  14.3884

          k = 0.4375 0.3950 0.0000 (  6310 PWs)   bands (ev):

   -44.8112 -23.0515 -22.9716 -22.8068 -12.0865 -11.6301  -2.0058  -1.5914
    -0.9591  -0.4265   0.0829   0.3956   4.1181   7.1442   7.3732   7.6060
     7.8168   9.6496  10.4294  11.5049  11.9084  12.2027  12.2327  13.4009
    14.3479  14.5300

          k = 0.4375 0.4668 0.0000 (  6319 PWs)   bands (ev):

   -44.8104 -23.0293 -22.9688 -22.8426 -12.0747 -11.6111  -1.8310  -1.5639
    -0.9451  -0.5546  -0.0609   0.1289   4.3827   6.9269   7.2267   7.7773
     7.8235   9.8383  10.8775  11.6731  11.9526  12.3264  12.4677  13.5784
    14.4269  14.5962

          k = 0.4375 0.5386 0.0000 (  6303 PWs)   bands (ev):

   -44.8099 -23.0060 -22.9673 -22.8735 -12.0683 -11.6008  -1.6674  -1.5169
    -0.9418  -0.6618  -0.3196   0.0936   4.5926   6.6657   7.1288   7.7945
     8.0032  10.0566  10.9186  11.5167  12.1342  12.6804  13.0213  13.7747
    14.2878  14.5349

          k = 0.4375-0.1795 0.0000 (  6306 PWs)   bands (ev):

   -44.8149 -23.0352 -22.9828 -22.7733 -12.1341 -11.7052  -1.9506  -1.4405
    -1.0282  -0.2759   0.1208   0.7604   3.9104   6.8825   7.1714   7.6123
     7.7572   9.4819   9.8606  11.2081  11.8428  12.1132  12.9758  13.7959
    14.3727  14.6545

          k = 0.4375-0.1077 0.0000 (  6313 PWs)   bands (ev):

   -44.8158 -23.0077 -22.9855 -22.7898 -12.1461 -11.7233  -1.7633  -1.3108
    -1.0542  -0.3979   0.1396   0.5460   4.0769   6.5128   7.1988   7.5369
     7.8131   9.6189   9.9657  11.5232  12.0265  12.1901  13.1346  13.6672
    14.4399  14.7199

          k = 0.4375-0.0359 0.0000 (  6320 PWs)   bands (ev):

   -44.8162 -22.9889 -22.9835 -22.8063 -12.1526 -11.7329  -1.6000  -1.1947
    -1.0890  -0.5061   0.0945   0.4125   4.2222   6.2231   7.1943   7.5569
     7.8684   9.6780  10.1026  11.7090  12.2427  12.4146  13.1702  13.5304
    14.0906  14.6623

          k =-0.5000-0.2872 0.0000 (  6298 PWs)   bands (ev):

   -44.8124 -23.0692 -22.9751 -22.7718 -12.1018 -11.6541  -2.1523  -1.6115
    -0.9819  -0.2633   0.1003   0.8374   3.8342   7.0368   7.4615   7.7128
     7.9405   9.4633   9.8309  10.9911  11.6812  12.1402  12.5811  13.6904
    14.0739  14.2831

          k =-0.5000-0.2154 0.0000 (  6320 PWs)   bands (ev):

   -44.8124 -23.0614 -22.9752 -22.7801 -12.1017 -11.6543  -2.0963  -1.5874
    -0.9813  -0.3076   0.1025   0.7177   3.9109   7.0852   7.3773   7.6531
     7.8885   9.5460   9.9444  11.1385  11.7789  12.1343  12.5590  13.5251
    14.2762  14.3797

          k =-0.5000-0.1436 0.0000 (  6313 PWs)   bands (ev):

   -44.8124 -23.0404 -22.9752 -22.8024 -12.1012 -11.6548  -1.9438  -1.5209
    -0.9827  -0.4204   0.0979   0.4363   4.1012   6.9321   7.2930   7.5880
     7.9036   9.7423  10.1549  11.5055  11.9448  12.1398  12.5866  13.4797
    14.3886  14.6530

          k =-0.5000-0.0718 0.0000 (  6311 PWs)   bands (ev):

   -44.8124 -23.0144 -22.9752 -22.8296 -12.1008 -11.6553  -1.7530  -1.4357
    -0.9930  -0.5436  -0.0030   0.2303   4.3129   6.5726   7.2247   7.7130
     7.9580   9.9636  10.3020  11.7703  11.9022  12.3653  12.9097  13.6453
    14.3806  14.6189

          k =-0.5000 0.0000 0.0000 (  6326 PWs)   bands (ev):

   -44.8124 -23.0012 -22.9752 -22.8434 -12.1006 -11.6555  -1.6545  -1.3907
    -1.0033  -0.5989  -0.1189   0.2044   4.4133   6.4085   7.1808   7.7937
     7.9816  10.0747  10.3419  11.7049  11.9601  12.6031  13.2013  13.6769
    14.2970  14.4187

     highest occupied, lowest unoccupied level (ev):     4.8072    5.7651

!    total energy              =    -591.24417182 Ry
     total all-electron energy =    -13333.877448 Ry
     estimated scf accuracy    <          1.6E-09 Ry

     The total energy is the sum of the following terms:
     one-electron contribution =    -204.27073605 Ry
     hartree contribution      =     110.00402952 Ry
     xc contribution           =     -37.59736356 Ry
     ewald contribution        =     -28.26395989 Ry
     one-center paw contrib.   =    -431.11614184 Ry

     convergence has been achieved in   4 iterations

     negative rho (up, down):  1.458E-08 0.000E+00

     Forces acting on atoms (cartesian axes, Ry/au):

     atom    1 type  1   force =     0.00000000   -0.00198375   -0.00004271
     atom    2 type  2   force =     0.00000000    0.00102036   -0.00069562
     atom    3 type  3   force =     0.00000000    0.00096339    0.00073832
     The non-local contrib.  to forces
     atom    1 type  1   force =     0.00000000   -0.00006347   -0.00062790
     atom    2 type  2   force =     0.00000000    0.00088218   -0.21310467
     atom    3 type  3   force =     0.00000000    0.00090274    0.20957343
     The ionic contribution  to forces
     atom    1 type  1   force =    -0.00000001    0.01226521   -0.32332174
     atom    2 type  2   force =     0.00000000   -0.00666072   21.06519106
     atom    3 type  3   force =     0.00000000   -0.00560449  -20.74186932
     The local contribution  to forces
     atom    1 type  1   force =     0.00000000   -0.01412611    0.32346175
     atom    2 type  2   force =     0.00000003    0.00681002  -20.86077820
     atom    3 type  3   force =    -0.00000000    0.00574245   20.53669627
     The core correction contribution to forces
     atom    1 type  1   force =     0.00000000   -0.00004406    0.00035765
     atom    2 type  2   force =    -0.00000000    0.00003463    0.00799994
     atom    3 type  3   force =    -0.00000000   -0.00004197   -0.00364495
     The Hubbard contrib.    to forces
     atom    1 type  1   force =     0.00000000    0.00000000    0.00000000
     atom    2 type  2   force =     0.00000000    0.00000000    0.00000000
     atom    3 type  3   force =     0.00000000    0.00000000    0.00000000
     The SCF correction term to forces
     atom    1 type  1   force =     0.00000000    0.00000879    0.00012670
     atom    2 type  2   force =     0.00000000   -0.00002166    0.00003543
     atom    3 type  3   force =    -0.00000000   -0.00001126    0.00002206

     Total force =     0.002634     Total SCF correction =     0.000136
     Energy error            =      1.1E-05 Ry
     Gradient error          =      2.0E-03 Ry/Bohr

     number of scf cycles    =   2
     number of bfgs steps    =   1

     energy             old  =    -591.2441609235 Ry
     energy             new  =    -591.2441718200 Ry

     CASE: energy            _new < energy            _old

     new trust radius        =       0.0029865166 bohr
     new conv_thr            =       0.0000000001 Ry


ATOMIC_POSITIONS (angstrom)
Zr            0.0000000000       -0.0030160884       10.2766523292
Cl           -0.0000000017        2.0159773479       11.9638149514
Br           -0.0000000017        2.0158955851        8.4226814937



     Writing config-only to output data dir ./tmp/ZrClBr.save/
     NEW-OLD atomic charge density approx. for the potential

     Check: negative core charge=   -0.000004

     negative rho (up, down):  1.484E-08 0.000E+00

     total cpu time spent up to now is       28.6 secs

     Self-consistent Calculation

     iteration #  1     ecut=    65.00 Ry     beta= 0.70
     Davidson diagonalization with overlap
     ethr =  1.00E-06,  avg # of iterations =  3.0

     Threshold (ethr) on eigenvalues was too large:
     Diagonalizing with lowered threshold

     Davidson diagonalization with overlap
     ethr =  2.02E-09,  avg # of iterations =  3.9

     negative rho (up, down):  1.497E-08 0.000E+00

     total cpu time spent up to now is       32.5 secs

     total energy              =    -591.24418014 Ry
     estimated scf accuracy    <       0.00000055 Ry

     iteration #  2     ecut=    65.00 Ry     beta= 0.70
     Davidson diagonalization with overlap
     ethr =  2.11E-09,  avg # of iterations =  2.0

     negative rho (up, down):  1.480E-08 0.000E+00

     total cpu time spent up to now is       34.0 secs

     total energy              =    -591.24418008 Ry
     estimated scf accuracy    <       0.00000095 Ry

     iteration #  3     ecut=    65.00 Ry     beta= 0.70
     Davidson diagonalization with overlap
     ethr =  2.11E-09,  avg # of iterations =  2.0

     negative rho (up, down):  1.484E-08 0.000E+00

     total cpu time spent up to now is       35.5 secs

     total energy              =    -591.24418032 Ry
     estimated scf accuracy    <       0.00000010 Ry

     iteration #  4     ecut=    65.00 Ry     beta= 0.70
     Davidson diagonalization with overlap
     ethr =  3.73E-10,  avg # of iterations =  1.0

     negative rho (up, down):  1.483E-08 0.000E+00

     total cpu time spent up to now is       36.9 secs

     total energy              =    -591.24418033 Ry
     estimated scf accuracy    <          1.1E-09 Ry

     iteration #  5     ecut=    65.00 Ry     beta= 0.70
     Davidson diagonalization with overlap
     ethr =  4.33E-12,  avg # of iterations =  2.0

     negative rho (up, down):  1.483E-08 0.000E+00

     total cpu time spent up to now is       38.5 secs

     total energy              =    -591.24418033 Ry
     estimated scf accuracy    <          8.4E-10 Ry

     iteration #  6     ecut=    65.00 Ry     beta= 0.70
     Davidson diagonalization with overlap
     ethr =  3.21E-12,  avg # of iterations =  1.6

     negative rho (up, down):  1.484E-08 0.000E+00

     total cpu time spent up to now is       40.0 secs

     End of self-consistent calculation

          k = 0.0000 0.0000 0.0000 (  6363 PWs)   bands (ev):

   -44.8449 -23.0784 -22.6879 -22.6807 -12.6864 -12.1271  -2.0467   0.0120
     0.2484   0.2766   1.4238   1.4616   4.3138   5.9883   6.0483   6.7076
     6.7111   6.8420   8.4186   9.4915  11.3840  13.6341  13.6955  13.9745
    14.6880  15.2641

          k = 0.0000 0.0718 0.0000 (  6375 PWs)   bands (ev):

   -44.8436 -23.0745 -22.7031 -22.6839 -12.6609 -12.1159  -2.0023  -0.0580
     0.1976   0.2642   1.2654   1.4269   4.3161   5.9265   6.0823   6.6736
     6.7698   7.0217   8.5445   9.7228  11.4498  13.1943  13.8210  14.3354
    14.6915  14.8448

          k = 0.0000 0.1436 0.0000 (  6379 PWs)   bands (ev):

   -44.8401 -23.0634 -22.7460 -22.6928 -12.5887 -12.0825  -1.8772  -0.2896
     0.0842   0.2249   0.8760   1.3363   4.2968   5.8245   6.1913   6.6406
     6.9266   7.4568   8.8982  10.2736  11.6464  12.6436  14.0571  14.1786
    14.5720  14.9124

          k = 0.0000 0.2154 0.0000 (  6359 PWs)   bands (ev):

   -44.8347 -23.0467 -22.8093 -22.7062 -12.4832 -12.0272  -1.6969  -0.6493
    -0.1186   0.1554   0.4620   1.2197   4.2056   5.8389   6.3899   6.6839
     7.1348   7.9613   9.4003  10.8480  11.8841  12.2493  13.5771  14.3735
    14.6985  15.1760

          k = 0.0000 0.2872 0.0000 (  6337 PWs)   bands (ev):

   -44.8283 -23.0270 -22.8829 -22.7218 -12.3647 -11.9508  -1.5136  -1.0423
    -0.5036   0.0603   0.2352   1.1055   4.0534   6.0416   6.6843   6.8004
     7.3441   8.4339   9.8356  11.2196  11.8344  12.1203  13.7767  14.0710
    15.0370  15.1610

          k = 0.0000 0.3590 0.0000 (  6325 PWs)   bands (ev):

   -44.8220 -23.0073 -22.9552 -22.7374 -12.2566 -11.8580  -1.5631  -1.2148
    -0.9296  -0.0448   0.1441   1.0093   3.9138   6.3908   6.9490   7.0576
     7.5184   8.8571   9.9691  11.3013  11.7595  12.1012  13.7385  14.3253
    14.6894  15.0060

          k = 0.0000 0.4309 0.0000 (  6306 PWs)   bands (ev):

   -44.8166 -23.0161 -22.9900 -22.7506 -12.1751 -11.7636  -1.8625  -1.3201
    -1.0713  -0.1386   0.1043   0.9374   3.8347   6.7832   7.1076   7.4547
     7.6443   9.2145   9.8800  11.1692  11.7802  12.0975  13.2554  14.2728
    14.4331  14.6275

          k = 0.0000 0.5027 0.0000 (  6310 PWs)   bands (ev):

   -44.8129 -23.0558 -22.9789 -22.7594 -12.1259 -11.6920  -2.0822  -1.5304
    -1.0048  -0.2026   0.0886   0.8929   3.8105   7.0148   7.3364   7.6953
     7.8027   9.4330   9.7911  11.0566  11.7493  12.0817  12.7434  13.9403
    14.1394  14.3880

          k = 0.0000-0.5745 0.0000 (  6294 PWs)   bands (ev):

   -44.8117 -23.0697 -22.9749 -22.7625 -12.1096 -11.6653  -2.1605  -1.6041
    -0.9807  -0.2253   0.0848   0.8777   3.8084   7.0640   7.4769   7.7241
     7.9278   9.4576   9.8118  11.0213  11.6626  12.1119  12.5627  13.7477
    14.0475  14.2607

          k = 0.0625 0.0359 0.0000 (  6379 PWs)   bands (ev):

   -44.8436 -23.0744 -22.6988 -22.6884 -12.6606 -12.1155  -2.0020  -0.0524
     0.2095   0.2453   1.2898   1.3998   4.3182   5.9593   6.0456   6.6739
     6.7679   7.0227   8.5470   9.7248  11.4503  13.2151  13.7764  14.3537
    14.7059  14.8895

          k = 0.0625 0.1077 0.0000 (  6375 PWs)   bands (ev):

   -44.8412 -23.0669 -22.7301 -22.6922 -12.6118 -12.0932  -1.9172  -0.2026
     0.1121   0.2350   1.0048   1.3481   4.3115   5.8477   6.1475   6.6482
     6.8716   7.3284   8.7864  10.1131  11.5854  12.7971  13.9935  14.2732
    14.6248  14.8296

          k = 0.0625 0.1795 0.0000 (  6357 PWs)   bands (ev):

   -44.8367 -23.0531 -22.7829 -22.7037 -12.5229 -12.0488  -1.7633  -0.4958
    -0.0348   0.1706   0.6069   1.2384   4.2622   5.7795   6.3292   6.6686
     7.0493   7.7920   9.2194  10.6664  11.8566  12.3670  13.6588  14.2300
    14.7113  15.1502

          k = 0.0625 0.2513 0.0000 (  6342 PWs)   bands (ev):

   -44.8308 -23.0349 -22.8501 -22.7194 -12.4110 -11.9827  -1.5745  -0.8708
    -0.3051   0.0192   0.3392   1.1074   4.1482   5.8625   6.6082   6.7688
     7.2503   8.2739   9.7072  11.1144  11.9846  12.2024  13.4431  14.1114
    14.9567  15.1609

          k = 0.0625 0.3231 0.0000 (  6326 PWs)   bands (ev):

   -44.8245 -23.0151 -22.9215 -22.7366 -12.2982 -11.8970  -1.4510  -1.1969
    -0.7269  -0.1067   0.2267   0.9797   4.0147   6.1164   6.8905   7.0031
     7.4308   8.7258   9.9852  11.3457  11.8867  12.1464  13.7888  14.0356
    14.6808  15.0133

          k = 0.0625 0.3950 0.0000 (  6335 PWs)   bands (ev):

   -44.8186 -22.9973 -22.9858 -22.7525 -12.2049 -11.8011  -1.6921  -1.2018
    -1.0736  -0.1902   0.1561   0.8714   3.9228   6.4932   7.0505   7.3942
     7.5683   9.1421   9.9643  11.3293  11.8474  12.1422  13.5337  14.1117
    14.4852  14.8000

          k = 0.0625 0.4668 0.0000 (  6311 PWs)   bands (ev):

   -44.8141 -23.0356 -22.9825 -22.7646 -12.1411 -11.7157  -1.9564  -1.4339
    -1.0285  -0.2452   0.1104   0.7937   3.8894   6.8983   7.1937   7.6259
     7.7428   9.4874   9.8381  11.2257  11.8417  12.1066  12.9532  13.7922
    14.3598  14.6499

          k = 0.0625 0.5386 0.0000 (  6308 PWs)   bands (ev):

   -44.8116 -23.0618 -22.9749 -22.7712 -12.1091 -11.6651  -2.1035  -1.5794
    -0.9804  -0.2735   0.0885   0.7535   3.8883   7.1087   7.3970   7.6652
     7.8717   9.5350   9.9328  11.1677  11.7649  12.1112  12.5495  13.5411
    14.2636  14.3710

          k = 0.1250 0.0718 0.0000 (  6380 PWs)   bands (ev):

   -44.8399 -23.0632 -22.7414 -22.6984 -12.5879 -12.0811  -1.8764  -0.2767
     0.0905   0.2015   0.8963   1.3057   4.3052   5.8513   6.1516   6.6370
     6.9254   7.4587   8.9067  10.2782  11.6483  12.6547  14.0974  14.1374
    14.5756  14.9436

          k = 0.1250 0.1436 0.0000 (  6345 PWs)   bands (ev):

   -44.8366 -23.0529 -22.7807 -22.7066 -12.5223 -12.0477  -1.7628  -0.4884
    -0.0329   0.1599   0.6147   1.2212   4.2692   5.7850   6.3144   6.6690
     7.0461   7.7928   9.2247  10.6686  11.8582  12.3737  13.6764  14.2244
    14.6998  15.1673

          k = 0.1250 0.2154 0.0000 (  6346 PWs)   bands (ev):

   -44.8316 -23.0375 -22.8351 -22.7227 -12.4270 -11.9924  -1.5968  -0.7862
    -0.2182  -0.0296   0.3846   1.0768   4.2058   5.7667   6.6022   6.7690
     7.2054   8.2255   9.6600  11.0747  12.1330  12.2612  13.2218  14.0502
    14.9171  15.0730

          k = 0.1250 0.2872 0.0000 (  6334 PWs)   bands (ev):

   -44.8258 -23.0193 -22.8969 -22.7432 -12.3211 -11.9159  -1.4201  -1.1159
    -0.5480  -0.2346   0.2794   0.9003   4.1287   5.8788   6.9015   7.0132
     7.3658   8.6824  10.0095  11.3596  12.0906  12.4421  13.2336  13.8494
    14.6104  14.9562

          k = 0.1250 0.3590 0.0000 (  6330 PWs)   bands (ev):

   -44.8199 -23.0011 -22.9570 -22.7643 -12.2250 -11.8242  -1.4989  -1.1984
    -0.9460  -0.3320   0.2014   0.7199   4.0739   6.1408   7.0770   7.3970
     7.5311   9.1441  10.0816  11.5104  12.1250  12.2849  13.6071  13.7975
    14.0542  14.7971

          k = 0.1250 0.4309 0.0000 (  6323 PWs)   bands (ev):

   -44.8149 -23.0075 -22.9851 -22.7824 -12.1523 -11.7327  -1.7641  -1.3016
    -1.0549  -0.3792   0.1350   0.5643   4.0650   6.5225   7.2121   7.5613
     7.7926   9.6220   9.9512  11.5354  12.0402  12.1960  13.1324  13.6438
    14.4274  14.7144

          k = 0.1250 0.5027 0.0000 (  6309 PWs)   bands (ev):

   -44.8116 -23.0404 -22.9748 -22.7945 -12.1080 -11.6646  -1.9475  -1.5110
    -0.9826  -0.3962   0.0887   0.4593   4.0866   6.9424   7.3049   7.6183
     7.8802   9.7285  10.1496  11.5323  11.9510  12.1293  12.5866  13.4685
    14.3697  14.6550

          k = 0.1250 0.5745 0.0000 (  6320 PWs)   bands (ev):

   -44.8104 -23.0520 -22.9712 -22.7988 -12.0931 -11.6393  -2.0125  -1.5836
    -0.9582  -0.3993   0.0717   0.4224   4.1006   7.1553   7.3826   7.6241
     7.8126   9.6357  10.4248  11.5394  11.9021  12.1812  12.2309  13.4059
    14.3254  14.5295

          k = 0.1250 0.0000 0.0000 (  6373 PWs)   bands (ev):

   -44.8411 -23.0668 -22.7255 -22.6975 -12.6112 -12.0922  -1.9165  -0.1929
     0.1164   0.2176   1.0215   1.3250   4.3166   5.8793   6.1069   6.6363
     6.8793   7.3302   8.7930  10.1167  11.5860  12.8055  13.9564  14.3074
    14.6475  14.8388

          k = 0.1875 0.1077 0.0000 (  6354 PWs)   bands (ev):

   -44.8344 -23.0464 -22.8053 -22.7123 -12.4814 -12.0241  -1.6955  -0.6370
    -0.1093   0.1289   0.4726   1.1867   4.2221   5.8525   6.3549   6.6767
     7.1338   7.9624   9.4140  10.8519  11.8863  12.2596  13.6096  14.3791
    14.6629  15.2147

          k = 0.1875 0.1795 0.0000 (  6343 PWs)   bands (ev):

   -44.8306 -23.0346 -22.8472 -22.7242 -12.4094 -11.9800  -1.5736  -0.8612
    -0.2946   0.0008   0.3405   1.0805   4.1635   5.8629   6.5900   6.7663
     7.2464   8.2740   9.7165  11.1175  11.9866  12.2121  13.4664  14.1182
    14.9465  15.1727

          k = 0.1875 0.2513 0.0000 (  6339 PWs)   bands (ev):

   -44.8257 -23.0191 -22.8954 -22.7457 -12.3202 -11.9143  -1.4198  -1.1110
    -0.5407  -0.2451   0.2777   0.8867   4.1374   5.8761   6.8973   7.0079
     7.3650   8.6820  10.0133  11.3622  12.0957  12.4326  13.2516  13.8576
    14.6046  14.9645

          k = 0.1875 0.3231 0.0000 (  6333 PWs)   bands (ev):

   -44.8203 -23.0024 -22.9429 -22.7732 -12.2315 -11.8307  -1.3889  -1.2278
    -0.8568  -0.4169   0.1964   0.6460   4.1573   5.9862   7.0885   7.3828
     7.5417   9.1483  10.1458  11.5687  12.3255  12.5216  13.3309  13.6461
    13.7619  14.8899

          k = 0.1875 0.3950 0.0000 (  6323 PWs)   bands (ev):

   -44.8153 -22.9880 -22.9825 -22.8011 -12.1578 -11.7407  -1.5938  -1.1809
    -1.0899  -0.4997   0.0933   0.4127   4.2215   6.2271   7.1977   7.5864
     7.8436   9.6743  10.1000  11.7259  12.2553  12.4256  13.1861  13.5163
    14.0840  14.6415

          k = 0.1875 0.4668 0.0000 (  6311 PWs)   bands (ev):

   -44.8114 -23.0137 -22.9746 -22.8236 -12.1065 -11.6634  -1.7505  -1.4227
    -0.9940  -0.5312   0.0005   0.2291   4.3094   6.5767   7.2251   7.7525
     7.9278   9.9514  10.2980  11.7874  11.9242  12.3645  12.9318  13.6254
    14.3633  14.6178

          k = 0.1875 0.5386 0.0000 (  6308 PWs)   bands (ev):

   -44.8094 -23.0293 -22.9682 -22.8362 -12.0802 -11.6188  -1.8335  -1.5544
    -0.9451  -0.5380  -0.0497   0.1239   4.3750   6.9278   7.2311   7.7677
     7.8495   9.8241  10.8753  11.6821  11.9875  12.3147  12.4652  13.5796
    14.4070  14.6014

          k = 0.1875-0.0359 0.0000 (  6356 PWs)   bands (ev):

   -44.8365 -23.0528 -22.7788 -22.7096 -12.5214 -12.0462  -1.7619  -0.4850
    -0.0313   0.1504   0.6164   1.2133   4.2742   5.7989   6.2923   6.6494
     7.0597   7.7936   9.2332  10.6706  11.8573  12.3673  13.6883  14.2103
    14.7065  15.1771

          k = 0.2500 0.1436 0.0000 (  6335 PWs)   bands (ev):

   -44.8279 -23.0265 -22.8796 -22.7286 -12.3619 -11.9458  -1.5120  -1.0329
    -0.4929   0.0303   0.2406   1.0701   4.0746   6.0456   6.6574   6.7894
     7.3419   8.4336   9.8496  11.2246  11.8339  12.1305  13.8044  14.0881
    15.0726  15.1354

          k = 0.2500 0.2154 0.0000 (  6328 PWs)   bands (ev):

   -44.8241 -23.0146 -22.9186 -22.7426 -12.2956 -11.8923  -1.4482  -1.1896
    -0.7170  -0.1293   0.2260   0.9466   4.0351   6.1136   6.8787   6.9887
     7.4282   8.7247   9.9955  11.3537  11.8814  12.1533  13.8140  14.0646
    14.6879  15.0170

          k = 0.2500 0.2872 0.0000 (  6326 PWs)   bands (ev):

   -44.8196 -23.0007 -22.9549 -22.7688 -12.2229 -11.8205  -1.4927  -1.1972
    -0.9399  -0.3479   0.1999   0.6975   4.0889   6.1372   7.0645   7.3918
     7.5298   9.1430  10.0890  11.5164  12.1124  12.2841  13.6270  13.7914
    14.0820  14.8189

          k = 0.2500 0.3590 0.0000 (  6325 PWs)   bands (ev):

   -44.8151 -22.9877 -22.9816 -22.8035 -12.1566 -11.7387  -1.5899  -1.1798
    -1.0898  -0.5074   0.0907   0.4048   4.2289   6.2261   7.1898   7.5875
     7.8398   9.6744  10.1036  11.7283  12.2540  12.4099  13.1662  13.5439
    14.1060  14.6582

          k = 0.2500 0.4309 0.0000 (  6310 PWs)   bands (ev):

   -44.8113 -22.9993 -22.9744 -22.8399 -12.1050 -11.6617  -1.6455  -1.3757
    -1.0057  -0.5959  -0.1211   0.1973   4.4195   6.4099   7.1768   7.8289
     7.9481  10.0676  10.3377  11.7150  11.9848  12.5943  13.2436  13.6629
    14.2897  14.4134

          k = 0.2500 0.5027 0.0000 (  6309 PWs)   bands (ev):

   -44.8087 -23.0052 -22.9665 -22.8692 -12.0725 -11.6066  -1.6628  -1.5069
    -0.9439  -0.6548  -0.3145   0.0853   4.5952   6.6643   7.1298   7.7693
     8.0353  10.0437  10.9294  11.5052  12.1621  12.6766  13.0423  13.7835
    14.2708  14.5237

          k = 0.2500 0.5745 0.0000 (  6326 PWs)   bands (ev):

   -44.8079 -23.0059 -22.9638 -22.8808 -12.0614 -11.5865  -1.6701  -1.5434
    -0.9227  -0.6873  -0.3785   0.0462   4.6688   6.8330   7.1072   7.6003
     8.1106  10.0217  11.0309  11.8052  12.2701  12.6552  12.6851  13.6956
    14.5144  14.5663

          k = 0.2500-0.0718 0.0000 (  6340 PWs)   bands (ev):

   -44.8305 -23.0344 -22.8470 -22.7257 -12.4083 -11.9781  -1.5726  -0.8638
    -0.2966  -0.0036   0.3395   1.0812   4.1648   5.8690   6.5823   6.7471
     7.2578   8.2743   9.7237  11.1165  11.9798  12.2045  13.4635  14.1136
    14.9486  15.1801

          k = 0.2500 0.0000 0.0000 (  6343 PWs)   bands (ev):

   -44.8314 -23.0371 -22.8333 -22.7269 -12.4249 -11.9889  -1.5951  -0.7851
    -0.2146  -0.0442   0.3829   1.0673   4.2139   5.7743   6.5838   6.7395
     7.2227   8.2262   9.6741  11.0752  12.1190  12.2537  13.2335  14.0467
    14.9195  15.0831

          k = 0.3125 0.1795 0.0000 (  6329 PWs)   bands (ev):

   -44.8214 -23.0065 -22.9527 -22.7447 -12.2525 -11.8509  -1.5578  -1.2116
    -0.9245  -0.0783   0.1519   0.9717   3.9368   6.3889   6.9341   7.0417
     7.5139   8.8551   9.9835  11.3077  11.7516  12.1083  13.7726  14.3544
    14.7262  14.9704

          k = 0.3125 0.2513 0.0000 (  6328 PWs)   bands (ev):

   -44.8181 -22.9966 -22.9834 -22.7594 -12.2008 -11.7945  -1.6844  -1.2003
    -1.0702  -0.2173   0.1593   0.8348   3.9456   6.4907   7.0337   7.3802
     7.5670   9.1395   9.9789  11.3297  11.8405  12.1474  13.5685  14.1115
    14.4983  14.8253

          k = 0.3125 0.3231 0.0000 (  6309 PWs)   bands (ev):

   -44.8145 -23.0054 -22.9844 -22.7882 -12.1488 -11.7271  -1.7564  -1.3008
    -1.0549  -0.4001   0.1373   0.5370   4.0832   6.5220   7.1910   7.5644
     7.7829   9.6197   9.9643  11.5303  12.0328  12.1949  13.1284  13.6634
    14.4506  14.7473

          k = 0.3125 0.3950 0.0000 (  6308 PWs)   bands (ev):

   -44.8112 -23.0121 -22.9742 -22.8278 -12.1039 -11.6595  -1.7447  -1.4241
    -0.9948  -0.5447  -0.0066   0.2224   4.3205   6.5796   7.2154   7.7470
     7.9214   9.9625  10.2954  11.7844  11.9155  12.3489  12.9335  13.6386
    14.3857  14.6385

          k = 0.3125 0.4668 0.0000 (  6316 PWs)   bands (ev):

   -44.8086 -23.0042 -22.9663 -22.8714 -12.0711 -11.6046  -1.6609  -1.5081
    -0.9445  -0.6606  -0.3221   0.0880   4.5989   6.6684   7.1277   7.7671
     8.0279  10.0515  10.9243  11.5007  12.1612  12.6653  13.0590  13.7678
    14.2795  14.5277

          k = 0.3125 0.5386 0.0000 (  6319 PWs)   bands (ev):

   -44.8072 -22.9881 -22.9620 -22.9069 -12.0540 -11.5738  -1.6341  -1.4477
    -0.9159  -0.8258  -0.4962   0.0300   4.8077   6.7539   7.0575   7.5400
     8.2140  10.1886  10.7874  12.1037  12.3553  12.8859  13.0470  13.3459
    14.4138  14.6635

          k = 0.3125-0.1077 0.0000 (  6328 PWs)   bands (ev):

   -44.8240 -23.0144 -22.9192 -22.7433 -12.2944 -11.8904  -1.4491  -1.1929
    -0.7234  -0.1300   0.2270   0.9515   4.0326   6.1142   6.8701   6.9905
     7.4313   8.7250   9.9988  11.3495  11.8789  12.1471  13.8050  14.0482
    14.7181  15.0119

          k = 0.3125-0.0359 0.0000 (  6342 PWs)   bands (ev):

   -44.8254 -23.0187 -22.8956 -22.7481 -12.3179 -11.9104  -1.4184  -1.1173
    -0.5496  -0.2486   0.2776   0.8890   4.1376   5.8790   6.8729   7.0063
     7.3758   8.6831  10.0222  11.3578  12.0751  12.4271  13.2430  13.8493
    14.6456  14.9721

          k = 0.3750 0.2154 0.0000 (  6318 PWs)   bands (ev):

   -44.8159 -23.0142 -22.9890 -22.7583 -12.1697 -11.7548  -1.8561  -1.3220
    -1.0705  -0.1748   0.1156   0.8980   3.8586   6.7742   7.0915   7.4507
     7.6377   9.2112   9.9006  11.1599  11.7826  12.1034  13.2936  14.3050
    14.3895  14.6635

          k = 0.3750 0.2872 0.0000 (  6317 PWs)   bands (ev):

   -44.8135 -23.0336 -22.9816 -22.7721 -12.1357 -11.7074  -1.9486  -1.4365
    -1.0289  -0.2770   0.1192   0.7556   3.9130   6.8919   7.1779   7.6213
     7.7351   9.4832   9.8601  11.2075  11.8490  12.1174  12.9815  13.7661
    14.3839  14.6793

          k = 0.3750 0.3590 0.0000 (  6307 PWs)   bands (ev):

   -44.8110 -23.0386 -22.9740 -22.8011 -12.1032 -11.6573  -1.9403  -1.5152
    -0.9837  -0.4217   0.0962   0.4303   4.1053   6.9441   7.2869   7.6140
     7.8716   9.7389  10.1549  11.5083  11.9517  12.1395  12.6003  13.4621
    14.3933  14.6733

          k = 0.3750 0.4309 0.0000 (  6318 PWs)   bands (ev):

   -44.8090 -23.0278 -22.9676 -22.8413 -12.0764 -11.6132  -1.8287  -1.5602
    -0.9463  -0.5551  -0.0624   0.1250   4.3858   6.9348   7.2265   7.7619
     7.8334   9.8379  10.8743  11.6682  11.9644  12.3193  12.4871  13.5715
    14.4269  14.6040

          k = 0.3750 0.5027 0.0000 (  6324 PWs)   bands (ev):

   -44.8076 -23.0049 -22.9634 -22.8841 -12.0589 -11.5829  -1.6716  -1.5473
    -0.9229  -0.6956  -0.3890   0.0531   4.6708   6.8400   7.1066   7.6054
     8.0924  10.0352  11.0140  11.8140  12.2596  12.6631  12.6865  13.6619
    14.5271  14.5661

          k = 0.3750 0.5745 0.0000 (  6316 PWs)   bands (ev):

   -44.8071 -22.9880 -22.9619 -22.9081 -12.0528 -11.5721  -1.6378  -1.4516
    -0.9130  -0.8291  -0.4984   0.0334   4.8052   6.7560   7.0580   7.5497
     8.2037  10.1978  10.7752  12.1312  12.3427  12.8815  13.0326  13.3321
    14.4427  14.6490

          k = 0.3750-0.1436 0.0000 (  6315 PWs)   bands (ev):

   -44.8180 -22.9964 -22.9842 -22.7596 -12.1998 -11.7928  -1.6891  -1.2029
    -1.0738  -0.2173   0.1613   0.8405   3.9414   6.4852   7.0305   7.3972
     7.5615   9.1393   9.9804  11.3273  11.8389  12.1430  13.5649  14.1355
    14.4922  14.7982

          k = 0.3750-0.0718 0.0000 (  6318 PWs)   bands (ev):

   -44.8194 -23.0003 -22.9561 -22.7699 -12.2206 -11.8168  -1.5010  -1.1973
    -0.9528  -0.3475   0.2022   0.7057   4.0831   6.1364   7.0535   7.4029
     7.5309   9.1446  10.0914  11.5067  12.1086  12.2749  13.6159  13.8182
    14.0558  14.8192

          k = 0.3750 0.0000 0.0000 (  6325 PWs)   bands (ev):

   -44.8198 -23.0018 -22.9434 -22.7763 -12.2281 -11.8251  -1.3970  -1.2266
    -0.8708  -0.4209   0.1978   0.6477   4.1562   5.9861   7.0667   7.3916
     7.5457   9.1508  10.1511  11.5595  12.3025  12.5090  13.3292  13.6569
    13.7711  14.9047

          k = 0.4375 0.2513 0.0000 (  6310 PWs)   bands (ev):

   -44.8122 -23.0543 -22.9778 -22.7674 -12.1195 -11.6822  -2.0756  -1.5365
    -1.0058  -0.2405   0.1025   0.8522   3.8351   6.9947   7.3239   7.6868
     7.8100   9.4339   9.8142  11.0329  11.7628  12.1016  12.7700  13.8857
    14.1697  14.4148

          k = 0.4375 0.3231 0.0000 (  6309 PWs)   bands (ev):

   -44.8109 -23.0603 -22.9739 -22.7789 -12.1028 -11.6557  -2.0966  -1.5861
    -0.9818  -0.3082   0.1013   0.7154   3.9115   7.0871   7.3922   7.6576
     7.8732   9.5435   9.9480  11.1387  11.7810  12.1367  12.5656  13.5103
    14.2818  14.3869

          k = 0.4375 0.3950 0.0000 (  6310 PWs)   bands (ev):

   -44.8098 -23.0507 -22.9703 -22.8056 -12.0875 -11.6310  -2.0074  -1.5919
    -0.9596  -0.4268   0.0823   0.3949   4.1175   7.1472   7.3762   7.6075
     7.8179   9.6513  10.4302  11.5057  11.9092  12.2031  12.2328  13.4015
    14.3469  14.5293

          k = 0.4375 0.4668 0.0000 (  6319 PWs)   bands (ev):

   -44.8089 -23.0284 -22.9675 -22.8414 -12.0756 -11.6120  -1.8325  -1.5644
    -0.9458  -0.5552  -0.0613   0.1285   4.3822   6.9283   7.2289   7.7788
     7.8269   9.8395  10.8798  11.6731  11.9524  12.3264  12.4689  13.5786
    14.4257  14.5961

          k = 0.4375 0.5386 0.0000 (  6303 PWs)   bands (ev):

   -44.8084 -23.0052 -22.9660 -22.8722 -12.0692 -11.6017  -1.6688  -1.5175
    -0.9429  -0.6623  -0.3198   0.0935   4.5923   6.6667   7.1307   7.7950
     8.0083  10.0570  10.9221  11.5169  12.1351  12.6778  13.0225  13.7762
    14.2855  14.5334

          k = 0.4375-0.1795 0.0000 (  6306 PWs)   bands (ev):

   -44.8134 -23.0343 -22.9815 -22.7721 -12.1350 -11.7062  -1.9522  -1.4407
    -1.0287  -0.2771   0.1209   0.7599   3.9093   6.8851   7.1739   7.6154
     7.7568   9.4856   9.8603  11.2080  11.8445  12.1148  12.9764  13.7929
    14.3730  14.6555

          k = 0.4375-0.1077 0.0000 (  6313 PWs)   bands (ev):

   -44.8143 -23.0068 -22.9841 -22.7885 -12.1470 -11.7242  -1.7649  -1.3109
    -1.0547  -0.3995   0.1399   0.5459   4.0757   6.5152   7.1980   7.5436
     7.8125   9.6217   9.9667  11.5222  12.0290  12.1923  13.1338  13.6657
    14.4397  14.7203

          k = 0.4375-0.0359 0.0000 (  6320 PWs)   bands (ev):

   -44.8148 -22.9877 -22.9826 -22.8049 -12.1535 -11.7339  -1.6016  -1.1946
    -1.0896  -0.5081   0.0945   0.4129   4.2210   6.2253   7.1925   7.5648
     7.8678   9.6793  10.1051  11.7097  12.2474  12.4123  13.1702  13.5284
    14.0897  14.6608

          k =-0.5000-0.2872 0.0000 (  6298 PWs)   bands (ev):

   -44.8109 -23.0683 -22.9738 -22.7706 -12.1028 -11.6551  -2.1539  -1.6117
    -0.9823  -0.2637   0.0996   0.8366   3.8333   7.0408   7.4640   7.7142
     7.9407   9.4669   9.8301  10.9926  11.6818  12.1406  12.5822  13.6898
    14.0729  14.2824

          k =-0.5000-0.2154 0.0000 (  6320 PWs)   bands (ev):

   -44.8109 -23.0606 -22.9738 -22.7789 -12.1026 -11.6553  -2.0979  -1.5876
    -0.9817  -0.3083   0.1020   0.7170   3.9101   7.0885   7.3805   7.6550
     7.8883   9.5490   9.9445  11.1394  11.7791  12.1351  12.5609  13.5230
    14.2760  14.3795

          k =-0.5000-0.1436 0.0000 (  6313 PWs)   bands (ev):

   -44.8109 -23.0395 -22.9739 -22.8011 -12.1021 -11.6558  -1.9454  -1.5210
    -0.9833  -0.4215   0.0977   0.4360   4.1004   6.9343   7.2940   7.5936
     7.9031   9.7443  10.1563  11.5050  11.9463  12.1407  12.5881  13.4775
    14.3881  14.6537

          k =-0.5000-0.0718 0.0000 (  6311 PWs)   bands (ev):

   -44.8109 -23.0136 -22.9739 -22.8283 -12.1017 -11.6562  -1.7546  -1.4358
    -0.9937  -0.5449  -0.0032   0.2305   4.3121   6.5744   7.2247   7.7200
     7.9573   9.9648  10.3042  11.7718  11.9039  12.3636  12.9110  13.6440
    14.3792  14.6193

          k =-0.5000 0.0000 0.0000 (  6326 PWs)   bands (ev):

   -44.8109 -23.0004 -22.9739 -22.8421 -12.1015 -11.6564  -1.6561  -1.3907
    -1.0042  -0.6004  -0.1191   0.2048   4.4126   6.4101   7.1810   7.8007
     7.9810  10.0750  10.3449  11.7078  11.9616  12.5987  13.2051  13.6745
    14.2961  14.4171

     highest occupied, lowest unoccupied level (ev):     4.8077    5.7667

!    total energy              =    -591.24418034 Ry
     total all-electron energy =    -13333.877456 Ry
     estimated scf accuracy    <          4.3E-11 Ry

     The total energy is the sum of the following terms:
     one-electron contribution =    -204.36040102 Ry
     hartree contribution      =     110.04915062 Ry
     xc contribution           =     -37.59790815 Ry
     ewald contribution        =     -28.21884921 Ry
     one-center paw contrib.   =    -431.11617258 Ry

     convergence has been achieved in   6 iterations

     negative rho (up, down):  1.484E-08 0.000E+00

     Forces acting on atoms (cartesian axes, Ry/au):

     atom    1 type  1   force =     0.00000000   -0.00120150    0.00000202
     atom    2 type  2   force =     0.00000000    0.00062914   -0.00054130
     atom    3 type  3   force =     0.00000000    0.00057236    0.00053929
     The non-local contrib.  to forces
     atom    1 type  1   force =     0.00000000    0.00020165   -0.00063198
     atom    2 type  2   force =     0.00000000    0.00071230   -0.21301379
     atom    3 type  3   force =     0.00000000    0.00072031    0.20950483
     The ionic contribution  to forces
     atom    1 type  1   force =    -0.00000001    0.02110244   -0.32250665
     atom    2 type  2   force =     0.00000000   -0.01177395   21.06978862
     atom    3 type  3   force =     0.00000000   -0.00932849  -20.74728196
     The local contribution  to forces
     atom    1 type  1   force =    -0.00000000   -0.02244837    0.32279628
     atom    2 type  2   force =     0.00000003    0.01166348  -20.86526230
     atom    3 type  3   force =    -0.00000000    0.00921522   20.54199093
     The core correction contribution to forces
     atom    1 type  1   force =     0.00000000   -0.00003597    0.00035944
     atom    2 type  2   force =    -0.00000000    0.00004932    0.00798317
     atom    3 type  3   force =    -0.00000000   -0.00001533   -0.00363319
     The Hubbard contrib.    to forces
     atom    1 type  1   force =     0.00000000    0.00000000    0.00000000
     atom    2 type  2   force =     0.00000000    0.00000000    0.00000000
     atom    3 type  3   force =     0.00000000    0.00000000    0.00000000
     The SCF correction term to forces
     atom    1 type  1   force =     0.00000000   -0.00000269    0.00002822
     atom    2 type  2   force =     0.00000000   -0.00000346    0.00000628
     atom    3 type  3   force =    -0.00000000   -0.00000080    0.00000195

     Total force =     0.001659     Total SCF correction =     0.000029
     Energy error            =      8.5E-06 Ry
     Gradient error          =      1.2E-03 Ry/Bohr

     number of scf cycles    =   3
     number of bfgs steps    =   2

     energy             old  =    -591.2441718200 Ry
     energy             new  =    -591.2441803352 Ry

     CASE: energy            _new < energy            _old

     new trust radius        =       0.0044797748 bohr
     new conv_thr            =            1.0E-10 Ry


ATOMIC_POSITIONS (angstrom)
Zr            0.0000000000       -0.0053866318       10.2766367253
Cl           -0.0000000017        2.0172108898       11.9628319962
Br           -0.0000000017        2.0170325866        8.4236800529



     Writing config-only to output data dir ./tmp/ZrClBr.save/
     NEW-OLD atomic charge density approx. for the potential

     Check: negative core charge=   -0.000004

     negative rho (up, down):  1.480E-08 0.000E+00

     total cpu time spent up to now is       40.5 secs

     Self-consistent Calculation

     iteration #  1     ecut=    65.00 Ry     beta= 0.70
     Davidson diagonalization with overlap
     ethr =  1.00E-06,  avg # of iterations =  3.0

     Threshold (ethr) on eigenvalues was too large:
     Diagonalizing with lowered threshold

     Davidson diagonalization with overlap
     ethr =  4.70E-09,  avg # of iterations =  3.3

     negative rho (up, down):  1.502E-08 0.000E+00

     total cpu time spent up to now is       44.3 secs

     total energy              =    -591.24418537 Ry
     estimated scf accuracy    <       0.00000137 Ry

     iteration #  2     ecut=    65.00 Ry     beta= 0.70
     Davidson diagonalization with overlap
     ethr =  5.28E-09,  avg # of iterations =  2.0

     negative rho (up, down):  1.472E-08 0.000E+00

     total cpu time spent up to now is       45.9 secs

     total energy              =    -591.24418524 Ry
     estimated scf accuracy    <       0.00000256 Ry

     iteration #  3     ecut=    65.00 Ry     beta= 0.70
     Davidson diagonalization with overlap
     ethr =  5.28E-09,  avg # of iterations =  2.0

     negative rho (up, down):  1.478E-08 0.000E+00

     total cpu time spent up to now is       47.4 secs

     total energy              =    -591.24418585 Ry
     estimated scf accuracy    <       0.00000021 Ry

     iteration #  4     ecut=    65.00 Ry     beta= 0.70
     Davidson diagonalization with overlap
     ethr =  7.93E-10,  avg # of iterations =  1.0

     negative rho (up, down):  1.477E-08 0.000E+00

     total cpu time spent up to now is       48.7 secs

     total energy              =    -591.24418588 Ry
     estimated scf accuracy    <          9.4E-09 Ry

     iteration #  5     ecut=    65.00 Ry     beta= 0.70
     Davidson diagonalization with overlap
     ethr =  3.61E-11,  avg # of iterations =  2.0

     negative rho (up, down):  1.477E-08 0.000E+00

     total cpu time spent up to now is       50.3 secs

     total energy              =    -591.24418589 Ry
     estimated scf accuracy    <          6.8E-09 Ry

     iteration #  6     ecut=    65.00 Ry     beta= 0.70
     Davidson diagonalization with overlap
     ethr =  2.60E-11,  avg # of iterations =  1.2

     negative rho (up, down):  1.478E-08 0.000E+00

     total cpu time spent up to now is       51.7 secs

     End of self-consistent calculation

          k = 0.0000 0.0000 0.0000 (  6363 PWs)   bands (ev):

   -44.8424 -23.0764 -22.6856 -22.6787 -12.6883 -12.1277  -2.0485   0.0128
     0.2474   0.2717   1.4243   1.4555   4.3176   5.9948   6.0475   6.7007
     6.7195   6.8425   8.4176   9.4916  11.3822  13.6292  13.6993  13.9779
    14.6876  15.2748

          k = 0.0000 0.0718 0.0000 (  6375 PWs)   bands (ev):

   -44.8411 -23.0725 -22.7008 -22.6818 -12.6628 -12.1164  -2.0041  -0.0570
     0.1963   0.2592   1.2659   1.4210   4.3200   5.9325   6.0816   6.6676
     6.7780   7.0224   8.5436   9.7220  11.4480  13.1926  13.8247  14.3361
    14.6930  14.8528

          k = 0.0000 0.1436 0.0000 (  6379 PWs)   bands (ev):

   -44.8375 -23.0614 -22.7437 -22.6908 -12.5907 -12.0830  -1.8793  -0.2891
     0.0834   0.2196   0.8763   1.3309   4.3010   5.8294   6.1910   6.6362
     6.9343   7.4575   8.8979  10.2712  11.6444  12.6431  14.0668  14.1819
    14.5694  14.9144

          k = 0.0000 0.2154 0.0000 (  6359 PWs)   bands (ev):

   -44.8321 -23.0448 -22.8071 -22.7041 -12.4851 -12.0277  -1.6994  -0.6498
    -0.1183   0.1499   0.4620   1.2150   4.2103   5.8426   6.3900   6.6807
     7.1419   7.9616   9.4014  10.8442  11.8818  12.2497  13.5867  14.3699
    14.7013  15.1789

          k = 0.0000 0.2872 0.0000 (  6337 PWs)   bands (ev):

   -44.8258 -23.0250 -22.8807 -22.7198 -12.3666 -11.9515  -1.5166  -1.0432
    -0.5033   0.0546   0.2359   1.1014   4.0584   6.0441   6.6850   6.7977
     7.3506   8.4339   9.8387  11.2163  11.8323  12.1212  13.7828  14.0671
    15.0413  15.1636

          k = 0.0000 0.3590 0.0000 (  6325 PWs)   bands (ev):

   -44.8194 -23.0053 -22.9530 -22.7354 -12.2584 -11.8588  -1.5651  -1.2170
    -0.9304  -0.0506   0.1459   1.0055   3.9191   6.3920   6.9463   7.0588
     7.5243   8.8575   9.9731  11.3017  11.7558  12.1009  13.7380  14.3265
    14.6933  15.0089

          k = 0.0000 0.4309 0.0000 (  6306 PWs)   bands (ev):

   -44.8140 -23.0138 -22.9880 -22.7486 -12.1767 -11.7646  -1.8635  -1.3215
    -1.0748  -0.1444   0.1070   0.9339   3.8402   6.7827   7.1054   7.4564
     7.6497   9.2166   9.8819  11.1702  11.7786  12.0959  13.2579  14.2754
    14.4361  14.6315

          k = 0.0000 0.5027 0.0000 (  6310 PWs)   bands (ev):

   -44.8104 -23.0536 -22.9769 -22.7574 -12.1273 -11.6933  -2.0827  -1.5324
    -1.0088  -0.2084   0.0919   0.8894   3.8161   7.0115   7.3362   7.7001
     7.8048   9.4346   9.7924  11.0565  11.7500  12.0815  12.7454  13.9432
    14.1467  14.3895

          k = 0.0000-0.5745 0.0000 (  6294 PWs)   bands (ev):

   -44.8091 -23.0675 -22.9729 -22.7605 -12.1109 -11.6666  -2.1608  -1.6063
    -0.9848  -0.2311   0.0883   0.8744   3.8140   7.0600   7.4777   7.7293
     7.9298   9.4543   9.8175  11.0209  11.6638  12.1125  12.5641  13.7506
    14.0592  14.2584

          k = 0.0625 0.0359 0.0000 (  6379 PWs)   bands (ev):

   -44.8411 -23.0724 -22.6966 -22.6863 -12.6625 -12.1162  -2.0038  -0.0530
     0.2078   0.2428   1.2864   1.3979   4.3216   5.9623   6.0483   6.6776
     6.7656   7.0232   8.5463   9.7251  11.4486  13.2173  13.7737  14.3564
    14.7053  14.8881

          k = 0.0625 0.1077 0.0000 (  6375 PWs)   bands (ev):

   -44.8387 -23.0649 -22.7279 -22.6902 -12.6137 -12.0938  -1.9191  -0.2029
     0.1112   0.2309   1.0041   1.3438   4.3151   5.8519   6.1484   6.6456
     6.8766   7.3292   8.7859  10.1120  11.5838  12.7969  13.9953  14.2784
    14.6275  14.8274

          k = 0.0625 0.1795 0.0000 (  6357 PWs)   bands (ev):

   -44.8342 -23.0511 -22.7806 -22.7016 -12.5248 -12.0494  -1.7655  -0.4964
    -0.0349   0.1656   0.6069   1.2339   4.2663   5.7831   6.3300   6.6655
     7.0558   7.7927   9.2198  10.6634  11.8549  12.3667  13.6668  14.2314
    14.7110  15.1511

          k = 0.0625 0.2513 0.0000 (  6342 PWs)   bands (ev):

   -44.8283 -23.0329 -22.8479 -22.7174 -12.4128 -11.9833  -1.5772  -0.8718
    -0.3045   0.0141   0.3390   1.1034   4.1527   5.8653   6.6092   6.7663
     7.2567   8.2741   9.7095  11.1106  11.9829  12.2020  13.4510  14.1098
    14.9580  15.1627

          k = 0.0625 0.3231 0.0000 (  6326 PWs)   bands (ev):

   -44.8219 -23.0131 -22.9192 -22.7346 -12.3000 -11.8978  -1.4538  -1.1983
    -0.7272  -0.1111   0.2269   0.9760   4.0195   6.1182   6.8885   7.0038
     7.4367   8.7259   9.9892  11.3437  11.8842  12.1463  13.7899  14.0367
    14.6856  15.0156

          k = 0.0625 0.3950 0.0000 (  6335 PWs)   bands (ev):

   -44.8161 -22.9953 -22.9836 -22.7505 -12.2065 -11.8021  -1.6934  -1.2037
    -1.0761  -0.1947   0.1574   0.8680   3.9279   6.4942   7.0478   7.3959
     7.5735   9.1431   9.9676  11.3303  11.8444  12.1410  13.5353  14.1157
    14.4847  14.8030

          k = 0.0625 0.4668 0.0000 (  6311 PWs)   bands (ev):

   -44.8116 -23.0333 -22.9805 -22.7626 -12.1425 -11.7169  -1.9570  -1.4357
    -1.0323  -0.2503   0.1129   0.7905   3.8947   6.8978   7.1915   7.6305
     7.7450   9.4900   9.8386  11.2264  11.8414  12.1055  12.9560  13.7962
    14.3595  14.6557

          k = 0.0625 0.5386 0.0000 (  6308 PWs)   bands (ev):

   -44.8091 -23.0596 -22.9729 -22.7692 -12.1105 -11.6665  -2.1038  -1.5816
    -0.9844  -0.2790   0.0918   0.7502   3.8936   7.1055   7.3969   7.6698
     7.8744   9.5327   9.9375  11.1677  11.7658  12.1115  12.5516  13.5448
    14.2648  14.3774

          k = 0.1250 0.0718 0.0000 (  6380 PWs)   bands (ev):

   -44.8374 -23.0612 -22.7393 -22.6963 -12.5897 -12.0819  -1.8781  -0.2795
     0.0900   0.1998   0.8933   1.3041   4.3076   5.8535   6.1552   6.6405
     6.9234   7.4594   8.9066  10.2788  11.6476  12.6565  14.0946  14.1349
    14.5808  14.9403

          k = 0.1250 0.1436 0.0000 (  6345 PWs)   bands (ev):

   -44.8341 -23.0509 -22.7786 -22.7045 -12.5241 -12.0485  -1.7647  -0.4904
    -0.0329   0.1562   0.6140   1.2182   4.2719   5.7880   6.3166   6.6689
     7.0489   7.7937   9.2252  10.6671  11.8582  12.3732  13.6777  14.2287
    14.6984  15.1660

          k = 0.1250 0.2154 0.0000 (  6346 PWs)   bands (ev):

   -44.8291 -23.0355 -22.8330 -22.7206 -12.4288 -11.9932  -1.5990  -0.7879
    -0.2180  -0.0339   0.3844   1.0735   4.2090   5.7695   6.6041   6.7679
     7.2100   8.2261   9.6619  11.0715  12.1316  12.2605  13.2266  14.0541
    14.9155  15.0738

          k = 0.1250 0.2872 0.0000 (  6334 PWs)   bands (ev):

   -44.8232 -23.0173 -22.8947 -22.7412 -12.3229 -11.9168  -1.4228  -1.1173
    -0.5486  -0.2377   0.2789   0.8971   4.1323   5.8812   6.9005   7.0151
     7.3704   8.6827  10.0131  11.3563  12.0884  12.4399  13.2404  13.8511
    14.6132  14.9570

          k = 0.1250 0.3590 0.0000 (  6330 PWs)   bands (ev):

   -44.8174 -22.9991 -22.9548 -22.7623 -12.2267 -11.8252  -1.5005  -1.2009
    -0.9476  -0.3350   0.2015   0.7170   4.0778   6.1428   7.0758   7.4003
     7.5340   9.1445  10.0858  11.5089  12.1228  12.2836  13.6089  13.8015
    14.0566  14.7990

          k = 0.1250 0.4309 0.0000 (  6323 PWs)   bands (ev):

   -44.8124 -23.0053 -22.9831 -22.7805 -12.1538 -11.7339  -1.7650  -1.3036
    -1.0583  -0.3827   0.1362   0.5617   4.0692   6.5239   7.2112   7.5644
     7.7947   9.6234   9.9533  11.5358  12.0390  12.1948  13.1359  13.6454
    14.4273  14.7170

          k = 0.1250 0.5027 0.0000 (  6309 PWs)   bands (ev):

   -44.8090 -23.0382 -22.9728 -22.7926 -12.1093 -11.6659  -1.9479  -1.5133
    -0.9863  -0.4005   0.0909   0.4568   4.0911   6.9431   7.3045   7.6201
     7.8833   9.7274  10.1529  11.5332  11.9519  12.1290  12.5887  13.4706
    14.3693  14.6612

          k = 0.1250 0.5745 0.0000 (  6320 PWs)   bands (ev):

   -44.8079 -23.0497 -22.9692 -22.7969 -12.0944 -11.6408  -2.0127  -1.5862
    -0.9620  -0.4039   0.0744   0.4198   4.1052   7.1550   7.3829   7.6253
     7.8166   9.6333  10.4295  11.5401  11.9023  12.1809  12.2339  13.4077
    14.3243  14.5379

          k = 0.1250 0.0000 0.0000 (  6373 PWs)   bands (ev):

   -44.8386 -23.0648 -22.7236 -22.6952 -12.6130 -12.0930  -1.9181  -0.1962
     0.1151   0.2178   1.0166   1.3250   4.3188   5.8803   6.1121   6.6432
     6.8732   7.3307   8.7928  10.1182  11.5851  12.8093  13.9510  14.3022
    14.6525  14.8357

          k = 0.1875 0.1077 0.0000 (  6354 PWs)   bands (ev):

   -44.8319 -23.0443 -22.8034 -22.7102 -12.4830 -12.0252  -1.6971  -0.6400
    -0.1108   0.1276   0.4718   1.1850   4.2229   5.8555   6.3580   6.6800
     7.1329   7.9635   9.4151  10.8520  11.8880  12.2605  13.6052  14.3838
    14.6615  15.2116

          k = 0.1875 0.1795 0.0000 (  6343 PWs)   bands (ev):

   -44.8281 -23.0325 -22.8452 -22.7221 -12.4111 -11.9810  -1.5754  -0.8637
    -0.2965  -0.0008   0.3404   1.0780   4.1648   5.8660   6.5928   6.7683
     7.2477   8.2750   9.7186  11.1154  11.9875  12.2128  13.4638  14.1253
    14.9415  15.1744

          k = 0.1875 0.2513 0.0000 (  6339 PWs)   bands (ev):

   -44.8231 -23.0171 -22.8934 -22.7437 -12.3218 -11.9153  -1.4219  -1.1130
    -0.5432  -0.2455   0.2771   0.8841   4.1392   5.8792   6.8994   7.0106
     7.3665   8.6827  10.0167  11.3592  12.0929  12.4351  13.2520  13.8632
    14.6062  14.9647

          k = 0.1875 0.3231 0.0000 (  6333 PWs)   bands (ev):

   -44.8177 -23.0003 -22.9408 -22.7712 -12.2331 -11.8319  -1.3910  -1.2298
    -0.8594  -0.4175   0.1958   0.6436   4.1594   5.9892   7.0914   7.3849
     7.5430   9.1485  10.1501  11.5657  12.3214  12.5224  13.3348  13.6487
    13.7653  14.8906

          k = 0.1875 0.3950 0.0000 (  6323 PWs)   bands (ev):

   -44.8127 -22.9860 -22.9804 -22.7992 -12.1593 -11.7419  -1.5951  -1.1833
    -1.0928  -0.5011   0.0927   0.4111   4.2241   6.2297   7.2012   7.5863
     7.8460   9.6745  10.1037  11.7236  12.2541  12.4261  13.1870  13.5190
    14.0875  14.6438

          k = 0.1875 0.4668 0.0000 (  6311 PWs)   bands (ev):

   -44.8089 -23.0115 -22.9726 -22.8217 -12.1078 -11.6648  -1.7512  -1.4254
    -0.9972  -0.5336  -0.0006   0.2290   4.3124   6.5787   7.2285   7.7516
     7.9308   9.9518  10.3001  11.7878  11.9243  12.3652  12.9320  13.6268
    14.3659  14.6195

          k = 0.1875 0.5386 0.0000 (  6308 PWs)   bands (ev):

   -44.8068 -23.0271 -22.9662 -22.8343 -12.0816 -11.6202  -1.8338  -1.5572
    -0.9484  -0.5411  -0.0518   0.1256   4.3784   6.9290   7.2342   7.7711
     7.8487   9.8233  10.8790  11.6836  11.9874  12.3152  12.4653  13.5806
    14.4078  14.6065

          k = 0.1875-0.0359 0.0000 (  6356 PWs)   bands (ev):

   -44.8340 -23.0507 -22.7770 -22.7074 -12.5230 -12.0472  -1.7634  -0.4887
    -0.0332   0.1513   0.6135   1.2126   4.2745   5.8018   6.2960   6.6552
     7.0556   7.7945   9.2339  10.6721  11.8582  12.3706  13.6823  14.2052
    14.7155  15.1717

          k = 0.2500 0.1436 0.0000 (  6335 PWs)   bands (ev):

   -44.8254 -23.0243 -22.8778 -22.7264 -12.3633 -11.9471  -1.5135  -1.0354
    -0.4955   0.0292   0.2412   1.0684   4.0742   6.0493   6.6598   6.7932
     7.3422   8.4350   9.8523  11.2236  11.8365  12.1312  13.8008  14.0914
    15.0731  15.1328

          k = 0.2500 0.2154 0.0000 (  6328 PWs)   bands (ev):

   -44.8216 -23.0125 -22.9168 -22.7405 -12.2970 -11.8936  -1.4503  -1.1915
    -0.7196  -0.1290   0.2253   0.9444   4.0353   6.1170   6.8831   6.9919
     7.4281   8.7259   9.9987  11.3516  11.8842  12.1526  13.8157  14.0642
    14.6899  15.0146

          k = 0.2500 0.2872 0.0000 (  6326 PWs)   bands (ev):

   -44.8171 -22.9986 -22.9530 -22.7668 -12.2244 -11.8218  -1.4952  -1.1987
    -0.9428  -0.3472   0.1989   0.6952   4.0894   6.1407   7.0712   7.3936
     7.5290   9.1435  10.0928  11.5144  12.1145  12.2822  13.6307  13.7921
    14.0822  14.8193

          k = 0.2500 0.3590 0.0000 (  6325 PWs)   bands (ev):

   -44.8126 -22.9856 -22.9796 -22.8015 -12.1581 -11.7401  -1.5919  -1.1828
    -1.0915  -0.5071   0.0897   0.4030   4.2296   6.2296   7.1974   7.5849
     7.8426   9.6743  10.1078  11.7258  12.2516  12.4126  13.1672  13.5465
    14.1080  14.6598

          k = 0.2500 0.4309 0.0000 (  6310 PWs)   bands (ev):

   -44.8088 -22.9972 -22.9723 -22.8380 -12.1064 -11.6631  -1.6470  -1.3787
    -1.0078  -0.5965  -0.1228   0.1971   4.4207   6.4130   7.1823   7.8282
     7.9511  10.0701  10.3384  11.7144  11.9824  12.5974  13.2425  13.6653
    14.2925  14.4162

          k = 0.2500 0.5027 0.0000 (  6309 PWs)   bands (ev):

   -44.8062 -23.0030 -22.9644 -22.8673 -12.0739 -11.6080  -1.6640  -1.5096
    -0.9464  -0.6565  -0.3167   0.0865   4.5970   6.6664   7.1341   7.7731
     8.0350  10.0453  10.9303  11.5067  12.1596  12.6788  13.0423  13.7839
    14.2748  14.5263

          k = 0.2500 0.5745 0.0000 (  6326 PWs)   bands (ev):

   -44.8053 -23.0037 -22.9616 -22.8790 -12.0628 -11.5880  -1.6714  -1.5455
    -0.9253  -0.6895  -0.3809   0.0480   4.6708   6.8340   7.1111   7.6048
     8.1104  10.0226  11.0328  11.8069  12.2677  12.6553  12.6867  13.6961
    14.5163  14.5705

          k = 0.2500-0.0718 0.0000 (  6340 PWs)   bands (ev):

   -44.8279 -23.0322 -22.8452 -22.7235 -12.4097 -11.9794  -1.5740  -0.8667
    -0.2995  -0.0038   0.3394   1.0802   4.1637   5.8731   6.5843   6.7517
     7.2569   8.2757   9.7261  11.1171  11.9822  12.2071  13.4585  14.1125
    14.9531  15.1787

          k = 0.2500 0.0000 0.0000 (  6343 PWs)   bands (ev):

   -44.8288 -23.0350 -22.8316 -22.7246 -12.4264 -11.9902  -1.5964  -0.7884
    -0.2184  -0.0429   0.3820   1.0668   4.2125   5.7786   6.5859   6.7447
     7.2208   8.2274   9.6764  11.0763  12.1225  12.2573  13.2270  14.0429
    14.9252  15.0833

          k = 0.3125 0.1795 0.0000 (  6329 PWs)   bands (ev):

   -44.8189 -23.0043 -22.9509 -22.7426 -12.2539 -11.8524  -1.5602  -1.2129
    -0.9264  -0.0792   0.1521   0.9700   3.9358   6.3930   6.9387   7.0433
     7.5154   8.8571   9.9864  11.3068  11.7548  12.1089  13.7734  14.3536
    14.7263  14.9698

          k = 0.3125 0.2513 0.0000 (  6328 PWs)   bands (ev):

   -44.8156 -22.9944 -22.9816 -22.7573 -12.2023 -11.7959  -1.6870  -1.2018
    -1.0718  -0.2166   0.1580   0.8328   3.9452   6.4941   7.0404   7.3836
     7.5658   9.1410   9.9817  11.3304  11.8423  12.1472  13.5696  14.1123
    14.4978  14.8243

          k = 0.3125 0.3231 0.0000 (  6309 PWs)   bands (ev):

   -44.8119 -23.0036 -22.9822 -22.7862 -12.1503 -11.7286  -1.7589  -1.3031
    -1.0561  -0.3993   0.1360   0.5350   4.0829   6.5254   7.2013   7.5604
     7.7862   9.6204   9.9673  11.5312  12.0332  12.1945  13.1299  13.6649
    14.4502  14.7466

          k = 0.3125 0.3950 0.0000 (  6308 PWs)   bands (ev):

   -44.8086 -23.0103 -22.9720 -22.8258 -12.1054 -11.6610  -1.7470  -1.4267
    -0.9961  -0.5444  -0.0077   0.2208   4.3205   6.5829   7.2233   7.7454
     7.9249   9.9665  10.2948  11.7830  11.9152  12.3514  12.9344  13.6405
    14.3866  14.6384

          k = 0.3125 0.4668 0.0000 (  6316 PWs)   bands (ev):

   -44.8061 -23.0023 -22.9641 -22.8694 -12.0726 -11.6061  -1.6629  -1.5107
    -0.9459  -0.6614  -0.3232   0.0877   4.5993   6.6708   7.1329   7.7709
     8.0291  10.0549  10.9229  11.5021  12.1586  12.6678  13.0601  13.7679
    14.2823  14.5303

          k = 0.3125 0.5386 0.0000 (  6319 PWs)   bands (ev):

   -44.8047 -22.9861 -22.9599 -22.9050 -12.0555 -11.5753  -1.6366  -1.4493
    -0.9172  -0.8282  -0.4970   0.0304   4.8086   6.7546   7.0619   7.5447
     8.2163  10.1917  10.7872  12.1046  12.3534  12.8867  13.0477  13.3465
    14.4181  14.6641

          k = 0.3125-0.1077 0.0000 (  6328 PWs)   bands (ev):

   -44.8214 -23.0122 -22.9176 -22.7411 -12.2957 -11.8919  -1.4509  -1.1948
    -0.7253  -0.1319   0.2280   0.9504   4.0310   6.1188   6.8730   6.9918
     7.4340   8.7269  10.0024  11.3488  11.8815  12.1489  13.8043  14.0472
    14.7157  15.0130

          k = 0.3125-0.0359 0.0000 (  6342 PWs)   bands (ev):

   -44.8228 -23.0165 -22.8940 -22.7458 -12.3192 -11.9119  -1.4197  -1.1198
    -0.5516  -0.2502   0.2780   0.8887   4.1355   5.8838   6.8761   7.0070
     7.3786   8.6847  10.0262  11.3583  12.0786  12.4294  13.2394  13.8464
    14.6435  14.9732

          k = 0.3750 0.2154 0.0000 (  6318 PWs)   bands (ev):

   -44.8134 -23.0125 -22.9868 -22.7562 -12.1712 -11.7564  -1.8587  -1.3231
    -1.0714  -0.1758   0.1152   0.8965   3.8574   6.7787   7.0966   7.4517
     7.6400   9.2145   9.9019  11.1610  11.7846  12.1050  13.2934  14.3054
    14.3885  14.6633

          k = 0.3750 0.2872 0.0000 (  6317 PWs)   bands (ev):

   -44.8109 -23.0320 -22.9793 -22.7700 -12.1372 -11.7089  -1.9512  -1.4378
    -1.0298  -0.2767   0.1177   0.7539   3.9122   6.8966   7.1841   7.6214
     7.7378   9.4865   9.8603  11.2104  11.8501  12.1182  12.9802  13.7700
    14.3826  14.6768

          k = 0.3750 0.3590 0.0000 (  6307 PWs)   bands (ev):

   -44.8085 -23.0370 -22.9718 -22.7990 -12.1047 -11.6588  -1.9428  -1.5168
    -0.9847  -0.4214   0.0950   0.4286   4.1047   6.9479   7.2961   7.6115
     7.8753   9.7430  10.1536  11.5107  11.9539  12.1393  12.5983  13.4663
    14.3921  14.6715

          k = 0.3750 0.4309 0.0000 (  6318 PWs)   bands (ev):

   -44.8064 -23.0261 -22.9654 -22.8392 -12.0780 -11.6147  -1.8311  -1.5620
    -0.9474  -0.5553  -0.0632   0.1237   4.3854   6.9375   7.2322   7.7657
     7.8354   9.8408  10.8740  11.6697  11.9645  12.3200  12.4876  13.5736
    14.4261  14.6042

          k = 0.3750 0.5027 0.0000 (  6324 PWs)   bands (ev):

   -44.8050 -23.0032 -22.9611 -22.8820 -12.0605 -11.5844  -1.6738  -1.5493
    -0.9244  -0.6963  -0.3895   0.0527   4.6708   6.8410   7.1111   7.6092
     8.0971  10.0374  11.0159  11.8141  12.2592  12.6637  12.6868  13.6634
    14.5263  14.5672

          k = 0.3750 0.5745 0.0000 (  6316 PWs)   bands (ev):

   -44.8045 -22.9864 -22.9596 -22.9058 -12.0544 -11.5736  -1.6399  -1.4538
    -0.9160  -0.8287  -0.4988   0.0333   4.8055   6.7562   7.0623   7.5537
     8.2091  10.1993  10.7779  12.1311  12.3432  12.8795  13.0330  13.3342
    14.4409  14.6521

          k = 0.3750-0.1436 0.0000 (  6315 PWs)   bands (ev):

   -44.8154 -22.9943 -22.9826 -22.7574 -12.2012 -11.7943  -1.6916  -1.2038
    -1.0748  -0.2198   0.1622   0.8395   3.9398   6.4897   7.0334   7.3968
     7.5669   9.1426   9.9830  11.3261  11.8421  12.1457  13.5643  14.1339
    14.4926  14.7987

          k = 0.3750-0.0718 0.0000 (  6318 PWs)   bands (ev):

   -44.8168 -22.9981 -22.9546 -22.7676 -12.2220 -11.8184  -1.5036  -1.1983
    -0.9535  -0.3504   0.2029   0.7054   4.0810   6.1408   7.0542   7.4045
     7.5366   9.1469  10.0957  11.5063  12.1106  12.2780  13.6139  13.8168
    14.0548  14.8181

          k = 0.3750 0.0000 0.0000 (  6325 PWs)   bands (ev):

   -44.8173 -22.9995 -22.9419 -22.7740 -12.2295 -11.8267  -1.3998  -1.2274
    -0.8713  -0.4242   0.1983   0.6479   4.1539   5.9906   7.0668   7.3948
     7.5505   9.1526  10.1561  11.5603  12.3089  12.5064  13.3288  13.6540
    13.7687  14.9046

          k = 0.4375 0.2513 0.0000 (  6310 PWs)   bands (ev):

   -44.8097 -23.0527 -22.9755 -22.7653 -12.1211 -11.6837  -2.0782  -1.5371
    -1.0066  -0.2415   0.1017   0.8508   3.8340   7.0004   7.3283   7.6894
     7.8107   9.4397   9.8130  11.0353  11.7644  12.1028  12.7705  13.8853
    14.1688  14.4140

          k = 0.4375 0.3231 0.0000 (  6309 PWs)   bands (ev):

   -44.8084 -23.0587 -22.9716 -22.7768 -12.1044 -11.6572  -2.0992  -1.5868
    -0.9827  -0.3087   0.1001   0.7140   3.9106   7.0942   7.3949   7.6595
     7.8755   9.5483   9.9470  11.1416  11.7830  12.1371  12.5644  13.5132
    14.2798  14.3849

          k = 0.4375 0.3950 0.0000 (  6310 PWs)   bands (ev):

   -44.8072 -23.0491 -22.9680 -22.8034 -12.0891 -11.6325  -2.0100  -1.5927
    -0.9606  -0.4275   0.0814   0.3937   4.1167   7.1519   7.3808   7.6104
     7.8200   9.6541  10.4315  11.5072  11.9106  12.2037  12.2332  13.4026
    14.3453  14.5287

          k = 0.4375 0.4668 0.0000 (  6319 PWs)   bands (ev):

   -44.8063 -23.0269 -22.9652 -22.8392 -12.0773 -11.6135  -1.8351  -1.5654
    -0.9471  -0.5562  -0.0619   0.1280   4.3817   6.9308   7.2325   7.7812
     7.8328   9.8413  10.8835  11.6732  11.9523  12.3264  12.4708  13.5790
    14.4238  14.5963

          k = 0.4375 0.5386 0.0000 (  6303 PWs)   bands (ev):

   -44.8058 -23.0037 -22.9638 -22.8699 -12.0708 -11.6032  -1.6711  -1.5188
    -0.9449  -0.6631  -0.3204   0.0936   4.5920   6.6684   7.1339   7.7961
     8.0166  10.0579  10.9275  11.5174  12.1363  12.6738  13.0245  13.7785
    14.2820  14.5315

          k = 0.4375-0.1795 0.0000 (  6306 PWs)   bands (ev):

   -44.8108 -23.0327 -22.9792 -22.7699 -12.1365 -11.7078  -1.9548  -1.4411
    -1.0296  -0.2792   0.1212   0.7588   3.9080   6.8893   7.1779   7.6207
     7.7564   9.4917   9.8598  11.2081  11.8471  12.1172  12.9776  13.7884
    14.3735  14.6575

          k = 0.4375-0.1077 0.0000 (  6313 PWs)   bands (ev):

   -44.8117 -23.0053 -22.9819 -22.7863 -12.1485 -11.7258  -1.7675  -1.3112
    -1.0558  -0.4023   0.1404   0.5455   4.0742   6.5192   7.1970   7.5544
     7.8117   9.6261   9.9684  11.5208  12.0326  12.1958  13.1327  13.6636
    14.4395  14.7212

          k = 0.4375-0.0359 0.0000 (  6320 PWs)   bands (ev):

   -44.8122 -22.9858 -22.9808 -22.8027 -12.1550 -11.7354  -1.6043  -1.1946
    -1.0907  -0.5113   0.0946   0.4134   4.2193   6.2291   7.1902   7.5769
     7.8673   9.6814  10.1096  11.7106  12.2544  12.4090  13.1703  13.5255
    14.0886  14.6586

          k =-0.5000-0.2872 0.0000 (  6298 PWs)   bands (ev):

   -44.8084 -23.0668 -22.9715 -22.7684 -12.1044 -11.6566  -2.1565  -1.6121
    -0.9831  -0.2647   0.0987   0.8353   3.8323   7.0470   7.4680   7.7171
     7.9411   9.4728   9.8291  10.9952  11.6828  12.1414  12.5838  13.6890
    14.0721  14.2810

          k =-0.5000-0.2154 0.0000 (  6320 PWs)   bands (ev):

   -44.8084 -23.0590 -22.9716 -22.7767 -12.1042 -11.6568  -2.1006  -1.5880
    -0.9826  -0.3096   0.1015   0.7158   3.9090   7.0936   7.3855   7.6587
     7.8881   9.5537   9.9450  11.1410  11.7796  12.1364  12.5637  13.5201
    14.2758  14.3793

          k =-0.5000-0.1436 0.0000 (  6313 PWs)   bands (ev):

   -44.8084 -23.0380 -22.9716 -22.7989 -12.1037 -11.6573  -1.9480  -1.5214
    -0.9843  -0.4234   0.0976   0.4353   4.0993   6.9377   7.2956   7.6027
     7.9025   9.7476  10.1585  11.5044  11.9488  12.1422  12.5905  13.4744
    14.3874  14.6550

          k =-0.5000-0.0718 0.0000 (  6311 PWs)   bands (ev):

   -44.8084 -23.0122 -22.9716 -22.8260 -12.1033 -11.6578  -1.7572  -1.4361
    -0.9951  -0.5471  -0.0037   0.2309   4.3111   6.5775   7.2250   7.7311
     7.9566   9.9666  10.3078  11.7739  11.9067  12.3611  12.9131  13.6421
    14.3772  14.6200

          k =-0.5000 0.0000 0.0000 (  6326 PWs)   bands (ev):

   -44.8084 -22.9990 -22.9716 -22.8398 -12.1031 -11.6580  -1.6587  -1.3910
    -1.0058  -0.6027  -0.1195   0.2054   4.4116   6.4130   7.1816   7.8115
     7.9805  10.0755  10.3498  11.7122  11.9637  12.5922  13.2110  13.6709
    14.2949  14.4149

     highest occupied, lowest unoccupied level (ev):     4.8086    5.7695

!    total energy              =    -591.24418589 Ry
     total all-electron energy =    -13333.877462 Ry
     estimated scf accuracy    <          4.4E-11 Ry

     The total energy is the sum of the following terms:
     one-electron contribution =    -204.51633548 Ry
     hartree contribution      =     110.12760018 Ry
     xc contribution           =     -37.59885567 Ry
     ewald contribution        =     -28.14036819 Ry
     one-center paw contrib.   =    -431.11622673 Ry

     convergence has been achieved in   6 iterations

     negative rho (up, down):  1.478E-08 0.000E+00

     Forces acting on atoms (cartesian axes, Ry/au):

     atom    1 type  1   force =     0.00000000   -0.00001070    0.00003081
     atom    2 type  2   force =     0.00000000    0.00002628   -0.00025269
     atom    3 type  3   force =     0.00000000   -0.00001558    0.00022188
     The non-local contrib.  to forces
     atom    1 type  1   force =     0.00000000    0.00063991   -0.00063753
     atom    2 type  2   force =     0.00000000    0.00046939   -0.21284128
     atom    3 type  3   force =     0.00000000    0.00046018    0.20936800
     The ionic contribution  to forces
     atom    1 type  1   force =    -0.00000001    0.03433170   -0.32135101
     atom    2 type  2   force =     0.00000000   -0.01945092   21.07789447
     atom    3 type  3   force =     0.00000000   -0.01488078  -20.75654347
     The local contribution  to forces
     atom    1 type  1   force =     0.00000000   -0.03493371    0.32167670
     atom    2 type  2   force =     0.00000003    0.01896093  -20.87321755
     atom    3 type  3   force =    -0.00000000    0.01439913   20.55104830
     The core correction contribution to forces
     atom    1 type  1   force =     0.00000000   -0.00002619    0.00036009
     atom    2 type  2   force =    -0.00000000    0.00006873    0.00795091
     atom    3 type  3   force =    -0.00000000    0.00002437   -0.00361233
     The Hubbard contrib.    to forces
     atom    1 type  1   force =     0.00000000    0.00000000    0.00000000
     atom    2 type  2   force =     0.00000000    0.00000000    0.00000000
     atom    3 type  3   force =     0.00000000    0.00000000    0.00000000
     The SCF correction term to forces
     atom    1 type  1   force =     0.00000000   -0.00000484    0.00002254
     atom    2 type  2   force =    -0.00000000   -0.00000430    0.00000074
     atom    3 type  3   force =    -0.00000000   -0.00000092    0.00000137

     Total force =     0.000339     Total SCF correction =     0.000024
     Energy error            =      5.6E-06 Ry
     Gradient error          =      2.5E-04 Ry/Bohr

     number of scf cycles    =   4
     number of bfgs steps    =   3

     energy             old  =    -591.2441803352 Ry
     energy             new  =    -591.2441858882 Ry

     CASE: energy            _new < energy            _old

     new trust radius        =       0.0004883027 bohr
     new conv_thr            =            1.0E-10 Ry


ATOMIC_POSITIONS (angstrom)
Zr            0.0000000000       -0.0055974158       10.2766524395
Cl           -0.0000000017        2.0173323431       11.9626039195
Br           -0.0000000017        2.0171219173        8.4238924154



     Writing config-only to output data dir ./tmp/ZrClBr.save/
     NEW-OLD atomic charge density approx. for the potential

     Check: negative core charge=   -0.000004

     negative rho (up, down):  1.484E-08 0.000E+00

     total cpu time spent up to now is       52.2 secs

     Self-consistent Calculation

     iteration #  1     ecut=    65.00 Ry     beta= 0.70
     Davidson diagonalization with overlap
     ethr =  1.00E-06,  avg # of iterations =  2.0

     Threshold (ethr) on eigenvalues was too large:
     Diagonalizing with lowered threshold

     Davidson diagonalization with overlap
     ethr =  2.00E-10,  avg # of iterations =  4.0

     negative rho (up, down):  1.489E-08 0.000E+00

     total cpu time spent up to now is       55.7 secs

     total energy              =    -591.24418602 Ry
     estimated scf accuracy    <       0.00000004 Ry

     iteration #  2     ecut=    65.00 Ry     beta= 0.70
     Davidson diagonalization with overlap
     ethr =  1.50E-10,  avg # of iterations =  2.0

     negative rho (up, down):  1.483E-08 0.000E+00

     total cpu time spent up to now is       57.3 secs

     total energy              =    -591.24418601 Ry
     estimated scf accuracy    <       0.00000013 Ry

     iteration #  3     ecut=    65.00 Ry     beta= 0.70
     Davidson diagonalization with overlap
     ethr =  1.50E-10,  avg # of iterations =  2.0

     negative rho (up, down):  1.483E-08 0.000E+00

     total cpu time spent up to now is       58.8 secs

     total energy              =    -591.24418604 Ry
     estimated scf accuracy    <          1.2E-09 Ry

     iteration #  4     ecut=    65.00 Ry     beta= 0.70
     Davidson diagonalization with overlap
     ethr =  4.71E-12,  avg # of iterations =  2.0

     negative rho (up, down):  1.483E-08 0.000E+00

     total cpu time spent up to now is       60.3 secs

     total energy              =    -591.24418604 Ry
     estimated scf accuracy    <          4.1E-10 Ry

     iteration #  5     ecut=    65.00 Ry     beta= 0.70
     Davidson diagonalization with overlap
     ethr =  1.57E-12,  avg # of iterations =  1.9

     negative rho (up, down):  1.483E-08 0.000E+00

     total cpu time spent up to now is       61.8 secs

     End of self-consistent calculation

          k = 0.0000 0.0000 0.0000 (  6363 PWs)   bands (ev):

   -44.8418 -23.0759 -22.6852 -22.6782 -12.6888 -12.1277  -2.0489   0.0130
     0.2468   0.2707   1.4241   1.4547   4.3184   5.9957   6.0478   6.7002
     6.7204   6.8426   8.4174   9.4917  11.3818  13.6286  13.6996  13.9787
    14.6875  15.2759

          k = 0.0000 0.0718 0.0000 (  6375 PWs)   bands (ev):

   -44.8406 -23.0721 -22.7003 -22.6814 -12.6632 -12.1165  -2.0045  -0.0569
     0.1958   0.2583   1.2658   1.4203   4.3208   5.9333   6.0819   6.6672
     6.7789   7.0225   8.5435   9.7220  11.4476  13.1926  13.8249  14.3364
    14.6931  14.8537

          k = 0.0000 0.1436 0.0000 (  6379 PWs)   bands (ev):

   -44.8370 -23.0610 -22.7432 -22.6903 -12.5912 -12.0831  -1.8797  -0.2894
     0.0832   0.2187   0.8762   1.3302   4.3018   5.8302   6.1913   6.6359
     6.9352   7.4577   8.8979  10.2709  11.6441  12.6432  14.0679  14.1821
    14.5695  14.9144

          k = 0.0000 0.2154 0.0000 (  6359 PWs)   bands (ev):

   -44.8316 -23.0443 -22.8066 -22.7037 -12.4856 -12.0278  -1.6999  -0.6502
    -0.1183   0.1489   0.4620   1.2144   4.2110   5.8433   6.3903   6.6806
     7.1428   7.9618   9.4016  10.8436  11.8817  12.2499  13.5876  14.3698
    14.7015  15.1790

          k = 0.0000 0.2872 0.0000 (  6337 PWs)   bands (ev):

   -44.8252 -23.0246 -22.8802 -22.7193 -12.3671 -11.9515  -1.5172  -1.0437
    -0.5034   0.0536   0.2361   1.1008   4.0591   6.0447   6.6852   6.7977
     7.3515   8.4340   9.8394  11.2157  11.8323  12.1214  13.7833  14.0669
    15.0417  15.1638

          k = 0.0000 0.3590 0.0000 (  6325 PWs)   bands (ev):

   -44.8189 -23.0048 -22.9525 -22.7350 -12.2588 -11.8589  -1.5656  -1.2175
    -0.9306  -0.0516   0.1462   1.0050   3.9197   6.3925   6.9464   7.0591
     7.5252   8.8577   9.9739  11.3017  11.7556  12.1009  13.7379  14.3266
    14.6938  15.0093

          k = 0.0000 0.4309 0.0000 (  6306 PWs)   bands (ev):

   -44.8135 -23.0134 -22.9876 -22.7481 -12.1771 -11.7648  -1.8639  -1.3218
    -1.0754  -0.1454   0.1074   0.9334   3.8409   6.7829   7.1055   7.4567
     7.6506   9.2172   9.8823  11.1704  11.7786  12.0959  13.2582  14.2756
    14.4365  14.6321

          k = 0.0000 0.5027 0.0000 (  6310 PWs)   bands (ev):

   -44.8099 -23.0531 -22.9765 -22.7569 -12.1277 -11.6934  -2.0830  -1.5327
    -1.0094  -0.2094   0.0924   0.8890   3.8168   7.0116   7.3366   7.7010
     7.8052   9.4353   9.7924  11.0568  11.7503  12.0816  12.7457  13.9436
    14.1476  14.3897

          k = 0.0000-0.5745 0.0000 (  6294 PWs)   bands (ev):

   -44.8086 -23.0670 -22.9725 -22.7600 -12.1113 -11.6668  -2.1611  -1.6066
    -0.9855  -0.2320   0.0887   0.8739   3.8147   7.0600   7.4781   7.7302
     7.9301   9.4544   9.8182  11.0211  11.6640  12.1127  12.5644  13.7509
    14.0607  14.2580

          k = 0.0625 0.0359 0.0000 (  6379 PWs)   bands (ev):

   -44.8405 -23.0720 -22.6962 -22.6858 -12.6630 -12.1162  -2.0042  -0.0531
     0.2073   0.2420   1.2859   1.3975   4.3224   5.9629   6.0489   6.6779
     6.7656   7.0233   8.5461   9.7252  11.4483  13.2176  13.7734  14.3568
    14.7053  14.8880

          k = 0.0625 0.1077 0.0000 (  6375 PWs)   bands (ev):

   -44.8381 -23.0645 -22.7274 -22.6897 -12.6142 -12.0939  -1.9195  -0.2032
     0.1109   0.2301   1.0039   1.3432   4.3159   5.8526   6.1488   6.6455
     6.8772   7.3294   8.7859  10.1118  11.5835  12.7970  13.9954  14.2791
    14.6281  14.8270

          k = 0.0625 0.1795 0.0000 (  6357 PWs)   bands (ev):

   -44.8336 -23.0506 -22.7802 -22.7012 -12.5253 -12.0495  -1.7660  -0.4968
    -0.0350   0.1647   0.6068   1.2333   4.2670   5.7838   6.3303   6.6654
     7.0567   7.7928   9.2200  10.6630  11.8547  12.3668  13.6676  14.2316
    14.7113  15.1509

          k = 0.0625 0.2513 0.0000 (  6342 PWs)   bands (ev):

   -44.8277 -23.0324 -22.8474 -22.7169 -12.4133 -11.9834  -1.5777  -0.8723
    -0.3045   0.0133   0.3389   1.1028   4.1533   5.8659   6.6095   6.7662
     7.2576   8.2742   9.7100  11.1100  11.9828  12.2021  13.4518  14.1099
    14.9581  15.1630

          k = 0.0625 0.3231 0.0000 (  6326 PWs)   bands (ev):

   -44.8214 -23.0127 -22.9188 -22.7341 -12.3005 -11.8979  -1.4544  -1.1987
    -0.7273  -0.1118   0.2269   0.9755   4.0201   6.1188   6.8886   7.0041
     7.4376   8.7261   9.9900  11.3433  11.8841  12.1463  13.7901  14.0368
    14.6862  15.0158

          k = 0.0625 0.3950 0.0000 (  6335 PWs)   bands (ev):

   -44.8155 -22.9949 -22.9831 -22.7500 -12.2069 -11.8023  -1.6939  -1.2041
    -1.0764  -0.1955   0.1576   0.8675   3.9285   6.4946   7.0479   7.3962
     7.5744   9.1434   9.9683  11.3304  11.8443  12.1410  13.5356  14.1162
    14.4847  14.8034

          k = 0.0625 0.4668 0.0000 (  6311 PWs)   bands (ev):

   -44.8110 -23.0329 -22.9801 -22.7622 -12.1429 -11.7171  -1.9574  -1.4360
    -1.0329  -0.2512   0.1132   0.7900   3.8953   6.8981   7.1917   7.6314
     7.7454   9.4908   9.8387  11.2266  11.8415  12.1054  12.9564  13.7967
    14.3594  14.6565

          k = 0.0625 0.5386 0.0000 (  6308 PWs)   bands (ev):

   -44.8086 -23.0591 -22.9725 -22.7687 -12.1109 -11.6667  -2.1041  -1.5819
    -0.9850  -0.2799   0.0922   0.7498   3.8943   7.1056   7.3973   7.6707
     7.8749   9.5328   9.9381  11.1679  11.7660  12.1115  12.5519  13.5454
    14.2648  14.3782

          k = 0.1250 0.0718 0.0000 (  6380 PWs)   bands (ev):

   -44.8369 -23.0608 -22.7389 -22.6958 -12.5901 -12.0819  -1.8785  -0.2800
     0.0899   0.1992   0.8929   1.3037   4.3082   5.8540   6.1559   6.6409
     6.9235   7.4596   8.9066  10.2788  11.6474  12.6568  14.0945  14.1346
    14.5816  14.9398

          k = 0.1250 0.1436 0.0000 (  6345 PWs)   bands (ev):

   -44.8335 -23.0505 -22.7781 -22.7041 -12.5246 -12.0486  -1.7651  -0.4910
    -0.0330   0.1554   0.6139   1.2178   4.2725   5.7886   6.3171   6.6690
     7.0494   7.7938   9.2254  10.6669  11.8582  12.3733  13.6780  14.2291
    14.6985  15.1657

          k = 0.1250 0.2154 0.0000 (  6346 PWs)   bands (ev):

   -44.8286 -23.0351 -22.8325 -22.7202 -12.4292 -11.9933  -1.5995  -0.7885
    -0.2180  -0.0347   0.3843   1.0730   4.2095   5.7702   6.6045   6.7680
     7.2108   8.2263   9.6623  11.0709  12.1315  12.2605  13.2271  14.0547
    14.9154  15.0740

          k = 0.1250 0.2872 0.0000 (  6334 PWs)   bands (ev):

   -44.8227 -23.0168 -22.8942 -22.7407 -12.3233 -11.9169  -1.4233  -1.1178
    -0.5488  -0.2383   0.2788   0.8966   4.1327   5.8819   6.9006   7.0155
     7.3712   8.6828  10.0140  11.3557  12.0881  12.4398  13.2412  13.8514
    14.6135  14.9572

          k = 0.1250 0.3590 0.0000 (  6330 PWs)   bands (ev):

   -44.8168 -22.9986 -22.9543 -22.7619 -12.2271 -11.8253  -1.5009  -1.2014
    -0.9479  -0.3355   0.2015   0.7166   4.0783   6.1434   7.0760   7.4008
     7.5347   9.1446  10.0867  11.5086  12.1226  12.2835  13.6092  13.8020
    14.0570  14.7992

          k = 0.1250 0.4309 0.0000 (  6323 PWs)   bands (ev):

   -44.8118 -23.0048 -22.9826 -22.7800 -12.1542 -11.7341  -1.7654  -1.3039
    -1.0589  -0.3834   0.1364   0.5613   4.0697   6.5244   7.2115   7.5651
     7.7952   9.6238   9.9538  11.5358  12.0390  12.1947  13.1364  13.6456
    14.4273  14.7173

          k = 0.1250 0.5027 0.0000 (  6309 PWs)   bands (ev):

   -44.8085 -23.0377 -22.9723 -22.7922 -12.1098 -11.6661  -1.9482  -1.5137
    -0.9869  -0.4012   0.0912   0.4564   4.0917   6.9435   7.3050   7.6206
     7.8838   9.7276  10.1534  11.5334  11.9522  12.1290  12.5890  13.4709
    14.3692  14.6620

          k = 0.1250 0.5745 0.0000 (  6320 PWs)   bands (ev):

   -44.8073 -23.0493 -22.9687 -22.7964 -12.0949 -11.6409  -2.0130  -1.5865
    -0.9626  -0.4047   0.0748   0.4195   4.1057   7.1554   7.3833   7.6258
     7.8173   9.6332  10.4302  11.5403  11.9024  12.1809  12.2343  13.4081
    14.3240  14.5390

          k = 0.1250 0.0000 0.0000 (  6373 PWs)   bands (ev):

   -44.8380 -23.0644 -22.7232 -22.6948 -12.6134 -12.0931  -1.9185  -0.1968
     0.1148   0.2174   1.0160   1.3247   4.3195   5.8807   6.1129   6.6440
     6.8729   7.3309   8.7927  10.1183  11.5849  12.8098  13.9504  14.3019
    14.6533  14.8351

          k = 0.1875 0.1077 0.0000 (  6354 PWs)   bands (ev):

   -44.8313 -23.0439 -22.8029 -22.7097 -12.4835 -12.0253  -1.6975  -0.6407
    -0.1110   0.1270   0.4717   1.1846   4.2232   5.8562   6.3585   6.6805
     7.1330   7.9637   9.4154  10.8518  11.8882  12.2607  13.6049  14.3845
    14.6613  15.2112

          k = 0.1875 0.1795 0.0000 (  6343 PWs)   bands (ev):

   -44.8275 -23.0321 -22.8448 -22.7216 -12.4115 -11.9812  -1.5758  -0.8643
    -0.2968  -0.0013   0.3404   1.0776   4.1652   5.8667   6.5933   6.7686
     7.2482   8.2752   9.7190  11.1150  11.9876  12.2130  13.4636  14.1261
    14.9410  15.1746

          k = 0.1875 0.2513 0.0000 (  6339 PWs)   bands (ev):

   -44.8226 -23.0166 -22.8929 -22.7432 -12.3223 -11.9155  -1.4224  -1.1136
    -0.5436  -0.2459   0.2770   0.8837   4.1395   5.8799   6.8998   7.0111
     7.3671   8.6828  10.0175  11.3587  12.0926  12.4354  13.2522  13.8639
    14.6064  14.9648

          k = 0.1875 0.3231 0.0000 (  6333 PWs)   bands (ev):

   -44.8172 -22.9999 -22.9403 -22.7708 -12.2335 -11.8320  -1.3916  -1.2302
    -0.8598  -0.4178   0.1957   0.6434   4.1596   5.9899   7.0919   7.3854
     7.5435   9.1486  10.1511  11.5653  12.3209  12.5224  13.3355  13.6491
    13.7658  14.8907

          k = 0.1875 0.3950 0.0000 (  6323 PWs)   bands (ev):

   -44.8122 -22.9855 -22.9799 -22.7987 -12.1597 -11.7421  -1.5955  -1.1837
    -1.0933  -0.5015   0.0927   0.4110   4.2244   6.2304   7.2019   7.5867
     7.8464   9.6746  10.1046  11.7232  12.2541  12.4262  13.1872  13.5193
    14.0881  14.6441

          k = 0.1875 0.4668 0.0000 (  6311 PWs)   bands (ev):

   -44.8083 -23.0111 -22.9721 -22.8213 -12.1083 -11.6650  -1.7516  -1.4259
    -0.9977  -0.5341  -0.0007   0.2290   4.3128   6.5792   7.2293   7.7519
     7.9313   9.9522  10.3005  11.7879  11.9244  12.3653  12.9322  13.6270
    14.3662  14.6198

          k = 0.1875 0.5386 0.0000 (  6308 PWs)   bands (ev):

   -44.8063 -23.0266 -22.9657 -22.8339 -12.0820 -11.6204  -1.8341  -1.5577
    -0.9490  -0.5416  -0.0520   0.1258   4.3788   6.9294   7.2350   7.7717
     7.8490   9.8234  10.8797  11.6838  11.9874  12.3153  12.4654  13.5808
    14.4078  14.6073

          k = 0.1875-0.0359 0.0000 (  6356 PWs)   bands (ev):

   -44.8334 -23.0503 -22.7765 -22.7069 -12.5234 -12.0473  -1.7637  -0.4894
    -0.0335   0.1509   0.6131   1.2123   4.2749   5.8024   6.2966   6.6558
     7.0555   7.7947   9.2341  10.6721  11.8583  12.3710  13.6819  14.2047
    14.7165  15.1709

          k = 0.2500 0.1436 0.0000 (  6335 PWs)   bands (ev):

   -44.8248 -23.0239 -22.8774 -22.7259 -12.3638 -11.9472  -1.5139  -1.0360
    -0.4958   0.0286   0.2413   1.0680   4.0744   6.0501   6.6602   6.7938
     7.3426   8.4353   9.8530  11.2232  11.8369  12.1313  13.8004  14.0918
    15.0732  15.1327

          k = 0.2500 0.2154 0.0000 (  6328 PWs)   bands (ev):

   -44.8210 -23.0120 -22.9163 -22.7401 -12.2975 -11.8938  -1.4508  -1.1919
    -0.7200  -0.1293   0.2253   0.9441   4.0355   6.1177   6.8837   6.9924
     7.4285   8.7261   9.9995  11.3512  11.8846  12.1526  13.8159  14.0642
    14.6903  15.0144

          k = 0.2500 0.2872 0.0000 (  6326 PWs)   bands (ev):

   -44.8165 -22.9981 -22.9525 -22.7663 -12.2248 -11.8220  -1.4958  -1.1991
    -0.9432  -0.3474   0.1988   0.6949   4.0896   6.1414   7.0721   7.3941
     7.5294   9.1437  10.0937  11.5141  12.1148  12.2820  13.6312  13.7923
    14.0823  14.8194

          k = 0.2500 0.3590 0.0000 (  6325 PWs)   bands (ev):

   -44.8120 -22.9852 -22.9791 -22.8010 -12.1585 -11.7403  -1.5925  -1.1832
    -1.0919  -0.5073   0.0896   0.4028   4.2297   6.2303   7.1985   7.5851
     7.8431   9.6744  10.1088  11.7254  12.2514  12.4129  13.1674  13.5468
    14.1085  14.6600

          k = 0.2500 0.4309 0.0000 (  6310 PWs)   bands (ev):

   -44.8082 -22.9968 -22.9718 -22.8376 -12.1069 -11.6633  -1.6475  -1.3792
    -1.0083  -0.5968  -0.1230   0.1972   4.4209   6.4136   7.1833   7.8285
     7.9516  10.0706  10.3388  11.7146  11.9821  12.5976  13.2426  13.6655
    14.2930  14.4166

          k = 0.2500 0.5027 0.0000 (  6309 PWs)   bands (ev):

   -44.8056 -23.0026 -22.9639 -22.8669 -12.0743 -11.6082  -1.6644  -1.5100
    -0.9469  -0.6568  -0.3169   0.0867   4.5972   6.6668   7.1350   7.7738
     8.0353  10.0457  10.9306  11.5070  12.1592  12.6790  13.0425  13.7840
    14.2753  14.5267

          k = 0.2500 0.5745 0.0000 (  6326 PWs)   bands (ev):

   -44.8047 -23.0033 -22.9612 -22.8786 -12.0633 -11.5882  -1.6719  -1.5459
    -0.9259  -0.6899  -0.3811   0.0482   4.6711   6.8342   7.1120   7.6057
     8.1108  10.0230  11.0332  11.8071  12.2674  12.6555  12.6868  13.6963
    14.5165  14.5712

          k = 0.2500-0.0718 0.0000 (  6340 PWs)   bands (ev):

   -44.8274 -23.0318 -22.8448 -22.7230 -12.4102 -11.9796  -1.5743  -0.8674
    -0.2998  -0.0042   0.3394   1.0800   4.1639   5.8739   6.5847   6.7523
     7.2572   8.2759   9.7266  11.1169  11.9825  12.2075  13.4581  14.1126
    14.9535  15.1786

          k = 0.2500 0.0000 0.0000 (  6343 PWs)   bands (ev):

   -44.8283 -23.0346 -22.8312 -22.7241 -12.4268 -11.9903  -1.5967  -0.7891
    -0.2188  -0.0432   0.3819   1.0666   4.2126   5.7794   6.5864   6.7454
     7.2210   8.2276   9.6769  11.0762  12.1228  12.2578  13.2266  14.0428
    14.9257  15.0834

          k = 0.3125 0.1795 0.0000 (  6329 PWs)   bands (ev):

   -44.8183 -23.0039 -22.9505 -22.7421 -12.2543 -11.8526  -1.5608  -1.2133
    -0.9267  -0.0798   0.1522   0.9697   3.9359   6.3937   6.9395   7.0436
     7.5160   8.8575   9.9872  11.3067  11.7552  12.1090  13.7735  14.3535
    14.7265  14.9699

          k = 0.3125 0.2513 0.0000 (  6328 PWs)   bands (ev):

   -44.8150 -22.9940 -22.9812 -22.7568 -12.2027 -11.7961  -1.6876  -1.2022
    -1.0722  -0.2169   0.1580   0.8325   3.9453   6.4948   7.0414   7.3841
     7.5662   9.1413   9.9824  11.3305  11.8425  12.1472  13.5697  14.1125
    14.4978  14.8243

          k = 0.3125 0.3231 0.0000 (  6309 PWs)   bands (ev):

   -44.8114 -23.0032 -22.9818 -22.7857 -12.1507 -11.7288  -1.7594  -1.3035
    -1.0564  -0.3996   0.1360   0.5347   4.0830   6.5261   7.2026   7.5605
     7.7867   9.6207   9.9678  11.5313  12.0333  12.1946  13.1303  13.6651
    14.4501  14.7466

          k = 0.3125 0.3950 0.0000 (  6308 PWs)   bands (ev):

   -44.8080 -23.0099 -22.9716 -22.8253 -12.1058 -11.6612  -1.7474  -1.4271
    -0.9965  -0.5446  -0.0078   0.2207   4.3206   6.5835   7.2245   7.7456
     7.9255   9.9671  10.2949  11.7829  11.9152  12.3516  12.9346  13.6407
    14.3868  14.6385

          k = 0.3125 0.4668 0.0000 (  6316 PWs)   bands (ev):

   -44.8055 -23.0019 -22.9637 -22.8690 -12.0731 -11.6063  -1.6634  -1.5111
    -0.9463  -0.6617  -0.3234   0.0878   4.5994   6.6713   7.1340   7.7716
     8.0296  10.0555  10.9230  11.5024  12.1582  12.6681  13.0604  13.7680
    14.2827  14.5307

          k = 0.3125 0.5386 0.0000 (  6319 PWs)   bands (ev):

   -44.8041 -22.9857 -22.9594 -22.9045 -12.0559 -11.5755  -1.6372  -1.4496
    -0.9176  -0.8286  -0.4971   0.0306   4.8087   6.7547   7.0629   7.5457
     8.2169  10.1923  10.7873  12.1048  12.3531  12.8867  13.0479  13.3467
    14.4187  14.6644

          k = 0.3125-0.1077 0.0000 (  6328 PWs)   bands (ev):

   -44.8209 -23.0118 -22.9172 -22.7406 -12.2962 -11.8920  -1.4515  -1.1952
    -0.7256  -0.1325   0.2281   0.9502   4.0310   6.1196   6.8734   6.9922
     7.4347   8.7272  10.0032  11.3485  11.8819  12.1491  13.8043  14.0471
    14.7157  15.0132

          k = 0.3125-0.0359 0.0000 (  6342 PWs)   bands (ev):

   -44.8223 -23.0161 -22.8936 -22.7454 -12.3196 -11.9121  -1.4202  -1.1204
    -0.5519  -0.2506   0.2780   0.8885   4.1354   5.8846   6.8766   7.0073
     7.3793   8.6849  10.0271  11.3581  12.0788  12.4297  13.2393  13.8463
    14.6434  14.9734

          k = 0.3750 0.2154 0.0000 (  6318 PWs)   bands (ev):

   -44.8128 -23.0121 -22.9863 -22.7557 -12.1716 -11.7566  -1.8592  -1.3233
    -1.0718  -0.1763   0.1153   0.8962   3.8575   6.7794   7.0974   7.4519
     7.6407   9.2152   9.9022  11.1613  11.7849  12.1053  13.2934  14.3054
    14.3885  14.6635

          k = 0.3750 0.2872 0.0000 (  6317 PWs)   bands (ev):

   -44.8104 -23.0316 -22.9789 -22.7695 -12.1377 -11.7091  -1.9517  -1.4380
    -1.0302  -0.2771   0.1177   0.7536   3.9123   6.8973   7.1851   7.6218
     7.7382   9.4874   9.8603  11.2108  11.8503  12.1183  12.9802  13.7704
    14.3824  14.6768

          k = 0.3750 0.3590 0.0000 (  6307 PWs)   bands (ev):

   -44.8079 -23.0366 -22.9713 -22.7985 -12.1052 -11.6590  -1.9433  -1.5171
    -0.9851  -0.4217   0.0949   0.4284   4.1048   6.9485   7.2974   7.6116
     7.8759   9.7437  10.1537  11.5111  11.9544  12.1393  12.5982  13.4668
    14.3919  14.6717

          k = 0.3750 0.4309 0.0000 (  6318 PWs)   bands (ev):

   -44.8058 -23.0258 -22.9649 -22.8387 -12.0784 -11.6149  -1.8316  -1.5623
    -0.9478  -0.5556  -0.0633   0.1237   4.3855   6.9380   7.2333   7.7664
     7.8360   9.8413  10.8743  11.6700  11.9646  12.3201  12.4877  13.5739
    14.4259  14.6045

          k = 0.3750 0.5027 0.0000 (  6324 PWs)   bands (ev):

   -44.8045 -23.0028 -22.9607 -22.8816 -12.0609 -11.5846  -1.6744  -1.5497
    -0.9248  -0.6966  -0.3896   0.0528   4.6709   6.8412   7.1120   7.6100
     8.0980  10.0379  11.0164  11.8141  12.2590  12.6638  12.6869  13.6637
    14.5262  14.5676

          k = 0.3750 0.5745 0.0000 (  6316 PWs)   bands (ev):

   -44.8040 -22.9860 -22.9592 -22.9054 -12.0548 -11.5738  -1.6405  -1.4543
    -0.9165  -0.8288  -0.4989   0.0334   4.8057   6.7562   7.0632   7.5546
     8.2100  10.1998  10.7783  12.1311  12.3431  12.8793  13.0331  13.3346
    14.4410  14.6525

          k = 0.3750-0.1436 0.0000 (  6315 PWs)   bands (ev):

   -44.8149 -22.9938 -22.9822 -22.7569 -12.2016 -11.7945  -1.6922  -1.2041
    -1.0751  -0.2203   0.1623   0.8392   3.9398   6.4905   7.0339   7.3970
     7.5679   9.1431   9.9836  11.3261  11.8424  12.1460  13.5643  14.1339
    14.4926  14.7989

          k = 0.3750-0.0718 0.0000 (  6318 PWs)   bands (ev):

   -44.8162 -22.9976 -22.9542 -22.7671 -12.2224 -11.8186  -1.5042  -1.1987
    -0.9538  -0.3510   0.2030   0.7053   4.0810   6.1416   7.0545   7.4048
     7.5376   9.1472  10.0966  11.5061  12.1108  12.2783  13.6138  13.8168
    14.0548  14.8181

          k = 0.3750 0.0000 0.0000 (  6325 PWs)   bands (ev):

   -44.8167 -22.9991 -22.9415 -22.7735 -12.2299 -11.8269  -1.4005  -1.2278
    -0.8715  -0.4247   0.1983   0.6478   4.1538   5.9914   7.0671   7.3954
     7.5513   9.1529  10.1572  11.5601  12.3094  12.5061  13.3291  13.6539
    13.7686  14.9046

          k = 0.4375 0.2513 0.0000 (  6310 PWs)   bands (ev):

   -44.8091 -23.0523 -22.9751 -22.7648 -12.1215 -11.6839  -2.0787  -1.5373
    -1.0070  -0.2420   0.1018   0.8505   3.8341   7.0012   7.3290   7.6901
     7.8109   9.4409   9.8129  11.0358  11.7646  12.1031  12.7707  13.8853
    14.1690  14.4139

          k = 0.4375 0.3231 0.0000 (  6309 PWs)   bands (ev):

   -44.8078 -23.0583 -22.9711 -22.7763 -12.1049 -11.6574  -2.0997  -1.5870
    -0.9831  -0.3091   0.1001   0.7138   3.9107   7.0951   7.3955   7.6601
     7.8760   9.5490   9.9470  11.1421  11.7834  12.1372  12.5645  13.5137
    14.2796  14.3850

          k = 0.4375 0.3950 0.0000 (  6310 PWs)   bands (ev):

   -44.8067 -23.0487 -22.9675 -22.8030 -12.0895 -11.6327  -2.0105  -1.5929
    -0.9610  -0.4279   0.0814   0.3935   4.1168   7.1526   7.3816   7.6110
     7.8206   9.6545  10.4320  11.5075  11.9108  12.2038  12.2334  13.4029
    14.3450  14.5290

          k = 0.4375 0.4668 0.0000 (  6319 PWs)   bands (ev):

   -44.8058 -23.0265 -22.9648 -22.8387 -12.0777 -11.6137  -1.8356  -1.5657
    -0.9475  -0.5566  -0.0621   0.1281   4.3817   6.9312   7.2333   7.7817
     7.8337   9.8417  10.8842  11.6734  11.9524  12.3265  12.4711  13.5792
    14.4236  14.5966

          k = 0.4375 0.5386 0.0000 (  6303 PWs)   bands (ev):

   -44.8053 -23.0034 -22.9633 -22.8694 -12.0713 -11.6034  -1.6717  -1.5191
    -0.9453  -0.6634  -0.3205   0.0937   4.5921   6.6688   7.1347   7.7966
     8.0177  10.0582  10.9283  11.5176  12.1363  12.6734  13.0248  13.7788
    14.2818  14.5315

          k = 0.4375-0.1795 0.0000 (  6306 PWs)   bands (ev):

   -44.8103 -23.0324 -22.9787 -22.7695 -12.1370 -11.7080  -1.9554  -1.4413
    -1.0300  -0.2798   0.1213   0.7586   3.9081   6.8900   7.1786   7.6216
     7.7565   9.4927   9.8597  11.2083  11.8475  12.1175  12.9778  13.7882
    14.3734  14.6579

          k = 0.4375-0.1077 0.0000 (  6313 PWs)   bands (ev):

   -44.8112 -23.0050 -22.9814 -22.7858 -12.1489 -11.7260  -1.7681  -1.3114
    -1.0562  -0.4029   0.1405   0.5454   4.0742   6.5199   7.1973   7.5557
     7.8119   9.6267   9.9689  11.5207  12.0330  12.1962  13.1328  13.6634
    14.4394  14.7214

          k = 0.4375-0.0359 0.0000 (  6320 PWs)   bands (ev):

   -44.8117 -22.9853 -22.9804 -22.8022 -12.1554 -11.7356  -1.6049  -1.1948
    -1.0911  -0.5118   0.0946   0.4134   4.2193   6.2299   7.1904   7.5784
     7.8675   9.6816  10.1106  11.7105  12.2551  12.4087  13.1704  13.5253
    14.0888  14.6585

          k =-0.5000-0.2872 0.0000 (  6298 PWs)   bands (ev):

   -44.8078 -23.0664 -22.9711 -22.7680 -12.1048 -11.6568  -2.1570  -1.6122
    -0.9835  -0.2653   0.0987   0.8350   3.8324   7.0479   7.4688   7.7179
     7.9413   9.4738   9.8291  10.9957  11.6830  12.1416  12.5841  13.6890
    14.0725  14.2807

          k =-0.5000-0.2154 0.0000 (  6320 PWs)   bands (ev):

   -44.8078 -23.0586 -22.9711 -22.7763 -12.1046 -11.6570  -2.1011  -1.5881
    -0.9830  -0.3102   0.1015   0.7156   3.9091   7.0943   7.3862   7.6595
     7.8883   9.5545   9.9452  11.1414  11.7798  12.1366  12.5641  13.5200
    14.2758  14.3794

          k =-0.5000-0.1436 0.0000 (  6313 PWs)   bands (ev):

   -44.8078 -23.0377 -22.9711 -22.7985 -12.1042 -11.6575  -1.9485  -1.5216
    -0.9847  -0.4239   0.0977   0.4351   4.0993   6.9383   7.2962   7.6040
     7.9028   9.7482  10.1589  11.5045  11.9492  12.1423  12.5909  13.4742
    14.3872  14.6554

          k =-0.5000-0.0718 0.0000 (  6311 PWs)   bands (ev):

   -44.8078 -23.0118 -22.9711 -22.8255 -12.1037 -11.6580  -1.7577  -1.4363
    -0.9955  -0.5476  -0.0037   0.2309   4.3111   6.5781   7.2255   7.7325
     7.9568   9.9671  10.3083  11.7741  11.9071  12.3610  12.9134  13.6420
    14.3771  14.6201

          k =-0.5000 0.0000 0.0000 (  6326 PWs)   bands (ev):

   -44.8078 -22.9986 -22.9711 -22.8393 -12.1036 -11.6582  -1.6593  -1.3913
    -1.0062  -0.6031  -0.1196   0.2056   4.4116   6.4137   7.1821   7.8129
     7.9807  10.0758  10.3505  11.7128  11.9638  12.5916  13.2117  13.6706
    14.2951  14.4148

     highest occupied, lowest unoccupied level (ev):     4.8087    5.7702

!    total energy              =    -591.24418604 Ry
     total all-electron energy =    -13333.877462 Ry
     estimated scf accuracy    <          6.1E-11 Ry

     The total energy is the sum of the following terms:
     one-electron contribution =    -204.55102311 Ry
     hartree contribution      =     110.14506147 Ry
     xc contribution           =     -37.59906451 Ry
     ewald contribution        =     -28.12292248 Ry
     one-center paw contrib.   =    -431.11623741 Ry

     convergence has been achieved in   5 iterations

     negative rho (up, down):  1.483E-08 0.000E+00

     Forces acting on atoms (cartesian axes, Ry/au):

     atom    1 type  1   force =     0.00000000    0.00009295    0.00002246
     atom    2 type  2   force =     0.00000000   -0.00002846   -0.00018229
     atom    3 type  3   force =     0.00000000   -0.00006449    0.00015984
     The non-local contrib.  to forces
     atom    1 type  1   force =     0.00000000    0.00067733   -0.00062818
     atom    2 type  2   force =     0.00000000    0.00044930   -0.21279729
     atom    3 type  3   force =     0.00000000    0.00043920    0.20934274
     The ionic contribution  to forces
     atom    1 type  1   force =    -0.00000001    0.03551940   -0.32120239
     atom    2 type  2   force =     0.00000000   -0.02016019   21.07972655
     atom    3 type  3   force =     0.00000000   -0.01535921  -20.75852416
     The local contribution  to forces
     atom    1 type  1   force =     0.00000000   -0.03606328    0.32157052
     atom    2 type  2   force =     0.00000003    0.01963072  -20.87501068
     atom    3 type  3   force =    -0.00000000    0.01484440   20.55299498
     The core correction contribution to forces
     atom    1 type  1   force =     0.00000000   -0.00002545    0.00036007
     atom    2 type  2   force =    -0.00000000    0.00007013    0.00794308
     atom    3 type  3   force =    -0.00000000    0.00002769   -0.00360833
     The Hubbard contrib.    to forces
     atom    1 type  1   force =     0.00000000    0.00000000    0.00000000
     atom    2 type  2   force =     0.00000000    0.00000000    0.00000000
     atom    3 type  3   force =     0.00000000    0.00000000    0.00000000
     The SCF correction term to forces
     atom    1 type  1   force =     0.00000000    0.00000027   -0.00003593
     atom    2 type  2   force =    -0.00000000   -0.00000310   -0.00000231
     atom    3 type  3   force =     0.00000000   -0.00000125   -0.00000374

     Total force =     0.000270     Total SCF correction =     0.000036
     SCF correction compared to forces is large: reduce conv_thr to get better values
     Energy error            =      1.5E-07 Ry
     Gradient error          =      1.8E-04 Ry/Bohr

     number of scf cycles    =   5
     number of bfgs steps    =   4

     energy             old  =    -591.2441858882 Ry
     energy             new  =    -591.2441860372 Ry

     CASE: energy            _new < energy            _old

     new trust radius        =       0.0005717523 bohr
     new conv_thr            =            1.0E-10 Ry


ATOMIC_POSITIONS (angstrom)
Zr            0.0000000000       -0.0056553072       10.2766804466
Cl           -0.0000000017        2.0173867641       11.9623062958
Br           -0.0000000017        2.0171253876        8.4241620320



     Writing config-only to output data dir ./tmp/ZrClBr.save/
     NEW-OLD atomic charge density approx. for the potential

     Check: negative core charge=   -0.000004

     negative rho (up, down):  1.501E-08 0.000E+00

     total cpu time spent up to now is       62.3 secs

     Self-consistent Calculation

     iteration #  1     ecut=    65.00 Ry     beta= 0.70
     Davidson diagonalization with overlap
     ethr =  1.00E-06,  avg # of iterations =  2.0

     Threshold (ethr) on eigenvalues was too large:
     Diagonalizing with lowered threshold

     Davidson diagonalization with overlap
     ethr =  1.96E-10,  avg # of iterations =  4.0

     negative rho (up, down):  1.507E-08 0.000E+00

     total cpu time spent up to now is       65.8 secs

     total energy              =    -591.24418613 Ry
     estimated scf accuracy    <       0.00000005 Ry

     iteration #  2     ecut=    65.00 Ry     beta= 0.70
     Davidson diagonalization with overlap
     ethr =  1.94E-10,  avg # of iterations =  2.0

     negative rho (up, down):  1.500E-08 0.000E+00

     total cpu time spent up to now is       67.4 secs

     total energy              =    -591.24418613 Ry
     estimated scf accuracy    <       0.00000018 Ry

     iteration #  3     ecut=    65.00 Ry     beta= 0.70
     Davidson diagonalization with overlap
     ethr =  1.94E-10,  avg # of iterations =  2.0

     negative rho (up, down):  1.500E-08 0.000E+00

     total cpu time spent up to now is       68.9 secs

     total energy              =    -591.24418616 Ry
     estimated scf accuracy    <          1.1E-09 Ry

     iteration #  4     ecut=    65.00 Ry     beta= 0.70
     Davidson diagonalization with overlap
     ethr =  4.34E-12,  avg # of iterations =  2.0

     negative rho (up, down):  1.500E-08 0.000E+00

     total cpu time spent up to now is       70.5 secs

     total energy              =    -591.24418616 Ry
     estimated scf accuracy    <          7.9E-10 Ry

     iteration #  5     ecut=    65.00 Ry     beta= 0.70
     Davidson diagonalization with overlap
     ethr =  3.04E-12,  avg # of iterations =  1.2

     negative rho (up, down):  1.500E-08 0.000E+00

     total cpu time spent up to now is       71.9 secs

     End of self-consistent calculation

          k = 0.0000 0.0000 0.0000 (  6363 PWs)   bands (ev):

   -44.8411 -23.0754 -22.6846 -22.6776 -12.6893 -12.1278  -2.0494   0.0132
     0.2458   0.2696   1.4236   1.4541   4.3195   5.9966   6.0485   6.7002
     6.7208   6.8428   8.4172   9.4917  11.3812  13.6283  13.6995  13.9797
    14.6874  15.2766

          k = 0.0000 0.0718 0.0000 (  6375 PWs)   bands (ev):

   -44.8398 -23.0715 -22.6997 -22.6808 -12.6638 -12.1166  -2.0051  -0.0570
     0.1952   0.2572   1.2653   1.4196   4.3218   5.9342   6.0825   6.6673
     6.7794   7.0227   8.5433   9.7219  11.4471  13.1928  13.8248  14.3369
    14.6931  14.8542

          k = 0.0000 0.1436 0.0000 (  6379 PWs)   bands (ev):

   -44.8363 -23.0604 -22.7427 -22.6897 -12.5917 -12.0832  -1.8803  -0.2900
     0.0830   0.2176   0.8759   1.3296   4.3027   5.8311   6.1919   6.6360
     6.9357   7.4579   8.8979  10.2708  11.6438  12.6435  14.0685  14.1821
    14.5700  14.9140

          k = 0.0000 0.2154 0.0000 (  6359 PWs)   bands (ev):

   -44.8309 -23.0437 -22.8060 -22.7031 -12.4862 -12.0279  -1.7004  -0.6510
    -0.1184   0.1479   0.4619   1.2138   4.2116   5.8442   6.3908   6.6809
     7.1435   7.9620   9.4019  10.8432  11.8817  12.2501  13.5879  14.3703
    14.7014  15.1788

          k = 0.0000 0.2872 0.0000 (  6337 PWs)   bands (ev):

   -44.8245 -23.0240 -22.8797 -22.7187 -12.3677 -11.9517  -1.5178  -1.0443
    -0.5037   0.0526   0.2363   1.1002   4.0596   6.0456   6.6857   6.7981
     7.3523   8.4343   9.8402  11.2151  11.8325  12.1216  13.7834  14.0670
    15.0420  15.1639

          k = 0.0000 0.3590 0.0000 (  6325 PWs)   bands (ev):

   -44.8182 -23.0043 -22.9520 -22.7344 -12.2594 -11.8592  -1.5663  -1.2180
    -0.9309  -0.0526   0.1465   1.0045   3.9202   6.3933   6.9469   7.0595
     7.5262   8.8581   9.9749  11.3015  11.7558  12.1010  13.7380  14.3266
    14.6943  15.0096

          k = 0.0000 0.4309 0.0000 (  6306 PWs)   bands (ev):

   -44.8127 -23.0128 -22.9870 -22.7475 -12.1776 -11.7650  -1.8645  -1.3221
    -1.0759  -0.1464   0.1077   0.9329   3.8413   6.7836   7.1062   7.4570
     7.6517   9.2180   9.8827  11.1707  11.7788  12.0959  13.2585  14.2757
    14.4367  14.6327

          k = 0.0000 0.5027 0.0000 (  6310 PWs)   bands (ev):

   -44.8091 -23.0526 -22.9759 -22.7563 -12.1283 -11.6937  -2.0835  -1.5330
    -1.0101  -0.2104   0.0926   0.8885   3.8172   7.0121   7.3374   7.7020
     7.8056   9.4365   9.7924  11.0572  11.7506  12.0817  12.7460  13.9438
    14.1483  14.3899

          k = 0.0000-0.5745 0.0000 (  6294 PWs)   bands (ev):

   -44.8079 -23.0665 -22.9719 -22.7594 -12.1119 -11.6671  -2.1616  -1.6069
    -0.9861  -0.2330   0.0890   0.8735   3.8152   7.0606   7.4789   7.7313
     7.9303   9.4550   9.8186  11.0215  11.6643  12.1128  12.5648  13.7511
    14.0619  14.2575

          k = 0.0625 0.0359 0.0000 (  6379 PWs)   bands (ev):

   -44.8398 -23.0715 -22.6956 -22.6852 -12.6636 -12.1163  -2.0047  -0.0532
     0.2066   0.2410   1.2853   1.3969   4.3234   5.9637   6.0496   6.6782
     6.7658   7.0235   8.5460   9.7252  11.4478  13.2179  13.7732  14.3573
    14.7052  14.8883

          k = 0.0625 0.1077 0.0000 (  6375 PWs)   bands (ev):

   -44.8374 -23.0640 -22.7268 -22.6891 -12.6147 -12.0940  -1.9200  -0.2037
     0.1106   0.2291   1.0035   1.3426   4.3168   5.8534   6.1494   6.6457
     6.8777   7.3296   8.7858  10.1117  11.5831  12.7973  13.9953  14.2796
    14.6290  14.8264

          k = 0.0625 0.1795 0.0000 (  6357 PWs)   bands (ev):

   -44.8329 -23.0501 -22.7796 -22.7006 -12.5259 -12.0496  -1.7665  -0.4976
    -0.0351   0.1637   0.6066   1.2327   4.2677   5.7847   6.3309   6.6656
     7.0573   7.7931   9.2201  10.6627  11.8546  12.3670  13.6681  14.2317
    14.7118  15.1503

          k = 0.0625 0.2513 0.0000 (  6342 PWs)   bands (ev):

   -44.8270 -23.0319 -22.8468 -22.7164 -12.4139 -11.9836  -1.5783  -0.8730
    -0.3047   0.0124   0.3389   1.1023   4.1539   5.8669   6.6100   6.7665
     7.2583   8.2745   9.7106  11.1094  11.9829  12.2023  13.4520  14.1102
    14.9581  15.1631

          k = 0.0625 0.3231 0.0000 (  6326 PWs)   bands (ev):

   -44.8207 -23.0121 -22.9182 -22.7336 -12.3010 -11.8981  -1.4551  -1.1993
    -0.7276  -0.1126   0.2269   0.9750   4.0205   6.1197   6.8890   7.0046
     7.4385   8.7263   9.9911  11.3429  11.8843  12.1464  13.7903  14.0368
    14.6867  15.0160

          k = 0.0625 0.3950 0.0000 (  6335 PWs)   bands (ev):

   -44.8148 -22.9943 -22.9826 -22.7495 -12.2075 -11.8025  -1.6945  -1.2046
    -1.0769  -0.1963   0.1577   0.8670   3.9289   6.4954   7.0484   7.3966
     7.5754   9.1439   9.9691  11.3304  11.8444  12.1410  13.5358  14.1166
    14.4846  14.8037

          k = 0.0625 0.4668 0.0000 (  6311 PWs)   bands (ev):

   -44.8103 -23.0324 -22.9795 -22.7616 -12.1435 -11.7174  -1.9579  -1.4363
    -1.0335  -0.2520   0.1135   0.7896   3.8957   6.8987   7.1924   7.6323
     7.7459   9.4919   9.8387  11.2269  11.8418  12.1055  12.9567  13.7971
    14.3592  14.6572

          k = 0.0625 0.5386 0.0000 (  6308 PWs)   bands (ev):

   -44.8078 -23.0586 -22.9719 -22.7681 -12.1114 -11.6669  -2.1046  -1.5823
    -0.9857  -0.2808   0.0924   0.7494   3.8947   7.1062   7.3980   7.6717
     7.8754   9.5333   9.9386  11.1683  11.7663  12.1117  12.5523  13.5458
    14.2646  14.3788

          k = 0.1250 0.0718 0.0000 (  6380 PWs)   bands (ev):

   -44.8361 -23.0602 -22.7383 -22.6952 -12.5907 -12.0821  -1.8790  -0.2807
     0.0897   0.1982   0.8925   1.3032   4.3090   5.8548   6.1566   6.6413
     6.9238   7.4598   8.9066  10.2787  11.6471  12.6572  14.0947  14.1344
    14.5823  14.9393

          k = 0.1250 0.1436 0.0000 (  6345 PWs)   bands (ev):

   -44.8328 -23.0499 -22.7775 -22.7035 -12.5251 -12.0488  -1.7657  -0.4918
    -0.0331   0.1545   0.6136   1.2172   4.2732   5.7895   6.3178   6.6693
     7.0499   7.7941   9.2255  10.6666  11.8582  12.3735  13.6782  14.2293
    14.6990  15.1651

          k = 0.1250 0.2154 0.0000 (  6346 PWs)   bands (ev):

   -44.8278 -23.0345 -22.8320 -22.7196 -12.4298 -11.9934  -1.6000  -0.7893
    -0.2182  -0.0356   0.3842   1.0725   4.2100   5.7712   6.6051   6.7683
     7.2115   8.2265   9.6628  11.0704  12.1316  12.2607  13.2275  14.0551
    14.9154  15.0741

          k = 0.1250 0.2872 0.0000 (  6334 PWs)   bands (ev):

   -44.8220 -23.0163 -22.8937 -22.7402 -12.3239 -11.9171  -1.4239  -1.1185
    -0.5491  -0.2389   0.2788   0.8962   4.1331   5.8828   6.9009   7.0160
     7.3721   8.6830  10.0150  11.3551  12.0879  12.4400  13.2417  13.8518
    14.6137  14.9574

          k = 0.1250 0.3590 0.0000 (  6330 PWs)   bands (ev):

   -44.8161 -22.9980 -22.9538 -22.7613 -12.2276 -11.8256  -1.5016  -1.2020
    -0.9483  -0.3361   0.2015   0.7162   4.0786   6.1443   7.0764   7.4013
     7.5355   9.1449  10.0879  11.5082  12.1227  12.2834  13.6095  13.8024
    14.0572  14.7993

          k = 0.1250 0.4309 0.0000 (  6323 PWs)   bands (ev):

   -44.8111 -23.0043 -22.9820 -22.7794 -12.1548 -11.7343  -1.7660  -1.3043
    -1.0595  -0.3840   0.1365   0.5610   4.0701   6.5252   7.2122   7.5660
     7.7956   9.6244   9.9545  11.5358  12.0392  12.1948  13.1368  13.6458
    14.4272  14.7177

          k = 0.1250 0.5027 0.0000 (  6309 PWs)   bands (ev):

   -44.8078 -23.0372 -22.9717 -22.7916 -12.1103 -11.6664  -1.9487  -1.5141
    -0.9875  -0.4019   0.0914   0.4561   4.0920   6.9442   7.3059   7.6214
     7.8844   9.7281  10.1538  11.5336  11.9527  12.1290  12.5892  13.4712
    14.3689  14.6627

          k = 0.1250 0.5745 0.0000 (  6320 PWs)   bands (ev):

   -44.8066 -23.0488 -22.9681 -22.7959 -12.0954 -11.6412  -2.0135  -1.5869
    -0.9633  -0.4055   0.0750   0.4191   4.1061   7.1560   7.3841   7.6264
     7.8181   9.6335  10.4310  11.5407  11.9026  12.1810  12.2348  13.4085
    14.3236  14.5399

          k = 0.1250 0.0000 0.0000 (  6373 PWs)   bands (ev):

   -44.8373 -23.0638 -22.7226 -22.6942 -12.6140 -12.0932  -1.9190  -0.1973
     0.1144   0.2166   1.0155   1.3242   4.3203   5.8815   6.1137   6.6444
     6.8730   7.3311   8.7927  10.1182  11.5845  12.8102  13.9501  14.3022
    14.6542  14.8344

          k = 0.1875 0.1077 0.0000 (  6354 PWs)   bands (ev):

   -44.8306 -23.0433 -22.8024 -22.7091 -12.4840 -12.0255  -1.6980  -0.6415
    -0.1112   0.1261   0.4716   1.1841   4.2238   5.8571   6.3591   6.6809
     7.1335   7.9640   9.4157  10.8515  11.8884  12.2609  13.6049  14.3851
    14.6612  15.2108

          k = 0.1875 0.1795 0.0000 (  6343 PWs)   bands (ev):

   -44.8268 -23.0315 -22.8442 -22.7210 -12.4120 -11.9813  -1.5764  -0.8651
    -0.2971  -0.0021   0.3403   1.0771   4.1656   5.8677   6.5939   6.7690
     7.2488   8.2755   9.7197  11.1145  11.9878  12.2132  13.4636  14.1266
    14.9409  15.1748

          k = 0.1875 0.2513 0.0000 (  6339 PWs)   bands (ev):

   -44.8218 -23.0160 -22.8924 -22.7427 -12.3228 -11.9157  -1.4230  -1.1142
    -0.5440  -0.2464   0.2769   0.8833   4.1398   5.8809   6.9002   7.0116
     7.3679   8.6830  10.0186  11.3581  12.0924  12.4357  13.2526  13.8644
    14.6066  14.9650

          k = 0.1875 0.3231 0.0000 (  6333 PWs)   bands (ev):

   -44.8165 -22.9993 -22.9398 -22.7702 -12.2341 -11.8322  -1.3923  -1.2307
    -0.8603  -0.4183   0.1956   0.6430   4.1599   5.9908   7.0925   7.3860
     7.5442   9.1488  10.1524  11.5648  12.3207  12.5223  13.3362  13.6494
    13.7663  14.8907

          k = 0.1875 0.3950 0.0000 (  6323 PWs)   bands (ev):

   -44.8115 -22.9849 -22.9794 -22.7981 -12.1603 -11.7424  -1.5961  -1.1842
    -1.0939  -0.5020   0.0925   0.4108   4.2246   6.2313   7.2028   7.5874
     7.8469   9.6748  10.1057  11.7229  12.2543  12.4261  13.1874  13.5196
    14.0887  14.6442

          k = 0.1875 0.4668 0.0000 (  6311 PWs)   bands (ev):

   -44.8076 -23.0106 -22.9715 -22.8207 -12.1088 -11.6653  -1.7521  -1.4264
    -0.9983  -0.5346  -0.0009   0.2290   4.3130   6.5800   7.2304   7.7527
     7.9319   9.9527  10.3010  11.7880  11.9246  12.3654  12.9325  13.6271
    14.3663  14.6200

          k = 0.1875 0.5386 0.0000 (  6308 PWs)   bands (ev):

   -44.8056 -23.0261 -22.9651 -22.8333 -12.0826 -11.6207  -1.8346  -1.5582
    -0.9497  -0.5422  -0.0522   0.1259   4.3791   6.9299   7.2361   7.7725
     7.8497   9.8237  10.8804  11.6842  11.9874  12.3154  12.4656  13.5812
    14.4076  14.6079

          k = 0.1875-0.0359 0.0000 (  6356 PWs)   bands (ev):

   -44.8327 -23.0497 -22.7760 -22.7063 -12.5240 -12.0475  -1.7643  -0.4902
    -0.0336   0.1502   0.6128   1.2118   4.2755   5.8033   6.2972   6.6562
     7.0559   7.7950   9.2343  10.6718  11.8583  12.3713  13.6821  14.2047
    14.7173  15.1702

          k = 0.2500 0.1436 0.0000 (  6335 PWs)   bands (ev):

   -44.8241 -23.0233 -22.8769 -22.7253 -12.3643 -11.9474  -1.5145  -1.0368
    -0.4962   0.0278   0.2415   1.0675   4.0748   6.0510   6.6607   6.7943
     7.3432   8.4355   9.8538  11.2227  11.8372  12.1315  13.8002  14.0921
    15.0733  15.1326

          k = 0.2500 0.2154 0.0000 (  6328 PWs)   bands (ev):

   -44.8203 -23.0115 -22.9158 -22.7395 -12.2980 -11.8940  -1.4515  -1.1925
    -0.7203  -0.1300   0.2253   0.9436   4.0358   6.1186   6.8842   6.9929
     7.4293   8.7264  10.0005  11.3508  11.8849  12.1526  13.8161  14.0642
    14.6907  15.0144

          k = 0.2500 0.2872 0.0000 (  6326 PWs)   bands (ev):

   -44.8158 -22.9975 -22.9520 -22.7657 -12.2254 -11.8223  -1.4965  -1.1996
    -0.9436  -0.3479   0.1988   0.6945   4.0898   6.1423   7.0728   7.3946
     7.5302   9.1439  10.0949  11.5137  12.1149  12.2820  13.6316  13.7926
    14.0825  14.8194

          k = 0.2500 0.3590 0.0000 (  6325 PWs)   bands (ev):

   -44.8113 -22.9846 -22.9786 -22.8005 -12.1590 -11.7405  -1.5931  -1.1837
    -1.0925  -0.5077   0.0895   0.4027   4.2299   6.2313   7.1995   7.5858
     7.8436   9.6746  10.1099  11.7250  12.2516  12.4130  13.1676  13.5471
    14.1090  14.6601

          k = 0.2500 0.4309 0.0000 (  6310 PWs)   bands (ev):

   -44.8075 -22.9963 -22.9712 -22.8370 -12.1074 -11.6636  -1.6481  -1.3798
    -1.0089  -0.5972  -0.1233   0.1973   4.4210   6.4144   7.1844   7.8292
     7.9522  10.0712  10.3393  11.7149  11.9818  12.5976  13.2429  13.6657
    14.2935  14.4169

          k = 0.2500 0.5027 0.0000 (  6309 PWs)   bands (ev):

   -44.8049 -23.0021 -22.9633 -22.8663 -12.0749 -11.6085  -1.6650  -1.5106
    -0.9475  -0.6572  -0.3172   0.0869   4.5974   6.6674   7.1362   7.7746
     8.0361  10.0462  10.9311  11.5074  12.1589  12.6790  13.0427  13.7843
    14.2756  14.5271

          k = 0.2500 0.5745 0.0000 (  6326 PWs)   bands (ev):

   -44.8040 -23.0028 -22.9606 -22.8780 -12.0638 -11.5885  -1.6725  -1.5464
    -0.9265  -0.6903  -0.3814   0.0484   4.6713   6.8345   7.1132   7.6068
     8.1116  10.0234  11.0338  11.8073  12.2670  12.6558  12.6869  13.6966
    14.5164  14.5718

          k = 0.2500-0.0718 0.0000 (  6340 PWs)   bands (ev):

   -44.8267 -23.0312 -22.8443 -22.7224 -12.4107 -11.9797  -1.5749  -0.8682
    -0.3001  -0.0050   0.3394   1.0794   4.1643   5.8749   6.5852   6.7528
     7.2578   8.2761   9.7272  11.1165  11.9827  12.2078  13.4580  14.1129
    14.9536  15.1786

          k = 0.2500 0.0000 0.0000 (  6343 PWs)   bands (ev):

   -44.8276 -23.0340 -22.8307 -22.7235 -12.4273 -11.9905  -1.5973  -0.7899
    -0.2190  -0.0438   0.3817   1.0661   4.2130   5.7804   6.5869   6.7458
     7.2216   8.2279   9.6775  11.0757  12.1230  12.2581  13.2267  14.0430
    14.9260  15.0835

          k = 0.3125 0.1795 0.0000 (  6329 PWs)   bands (ev):

   -44.8176 -23.0033 -22.9500 -22.7415 -12.2548 -11.8528  -1.5615  -1.2138
    -0.9271  -0.0806   0.1525   0.9692   3.9362   6.3945   6.9402   7.0440
     7.5168   8.8579   9.9881  11.3065  11.7554  12.1091  13.7735  14.3534
    14.7268  14.9701

          k = 0.3125 0.2513 0.0000 (  6328 PWs)   bands (ev):

   -44.8143 -22.9934 -22.9807 -22.7562 -12.2033 -11.7964  -1.6882  -1.2026
    -1.0726  -0.2176   0.1581   0.8320   3.9455   6.4956   7.0422   7.3845
     7.5670   9.1419   9.9832  11.3306  11.8427  12.1473  13.5700  14.1127
    14.4977  14.8246

          k = 0.3125 0.3231 0.0000 (  6309 PWs)   bands (ev):

   -44.8107 -23.0027 -22.9812 -22.7851 -12.1513 -11.7290  -1.7600  -1.3039
    -1.0570  -0.4001   0.1360   0.5343   4.0832   6.5269   7.2037   7.5612
     7.7872   9.6213   9.9685  11.5313  12.0335  12.1948  13.1307  13.6652
    14.4501  14.7469

          k = 0.3125 0.3950 0.0000 (  6308 PWs)   bands (ev):

   -44.8073 -23.0094 -22.9710 -22.8247 -12.1063 -11.6615  -1.7480  -1.4276
    -0.9971  -0.5451  -0.0080   0.2207   4.3207   6.5843   7.2257   7.7463
     7.9261   9.9678  10.2953  11.7830  11.9154  12.3518  12.9349  13.6408
    14.3869  14.6388

          k = 0.3125 0.4668 0.0000 (  6316 PWs)   bands (ev):

   -44.8048 -23.0014 -22.9631 -22.8684 -12.0736 -11.6066  -1.6641  -1.5116
    -0.9469  -0.6621  -0.3236   0.0879   4.5996   6.6719   7.1352   7.7724
     8.0305  10.0561  10.9234  11.5028  12.1579  12.6681  13.0607  13.7682
    14.2830  14.5311

          k = 0.3125 0.5386 0.0000 (  6319 PWs)   bands (ev):

   -44.8034 -22.9852 -22.9588 -22.9040 -12.0565 -11.5758  -1.6379  -1.4501
    -0.9181  -0.8290  -0.4972   0.0307   4.8089   6.7548   7.0641   7.5469
     8.2179  10.1930  10.7875  12.1049  12.3528  12.8866  13.0481  13.3470
    14.4193  14.6648

          k = 0.3125-0.1077 0.0000 (  6328 PWs)   bands (ev):

   -44.8202 -23.0112 -22.9166 -22.7400 -12.2967 -11.8923  -1.4521  -1.1958
    -0.7260  -0.1331   0.2282   0.9497   4.0313   6.1205   6.8739   6.9927
     7.4355   8.7275  10.0042  11.3481  11.8822  12.1492  13.8044  14.0471
    14.7159  15.0132

          k = 0.3125-0.0359 0.0000 (  6342 PWs)   bands (ev):

   -44.8215 -23.0155 -22.8931 -22.7448 -12.3202 -11.9123  -1.4208  -1.1211
    -0.5523  -0.2512   0.2780   0.8881   4.1356   5.8856   6.8769   7.0078
     7.3802   8.6851  10.0282  11.3576  12.0787  12.4299  13.2396  13.8467
    14.6435  14.9736

          k = 0.3750 0.2154 0.0000 (  6318 PWs)   bands (ev):

   -44.8121 -23.0116 -22.9857 -22.7551 -12.1721 -11.7568  -1.8598  -1.3236
    -1.0723  -0.1771   0.1155   0.8957   3.8578   6.7801   7.0983   7.4523
     7.6416   9.2161   9.9026  11.1616  11.7851  12.1055  13.2936  14.3055
    14.3886  14.6640

          k = 0.3750 0.2872 0.0000 (  6317 PWs)   bands (ev):

   -44.8096 -23.0311 -22.9783 -22.7689 -12.1382 -11.7094  -1.9523  -1.4383
    -1.0307  -0.2778   0.1178   0.7531   3.9126   6.8980   7.1860   7.6227
     7.7387   9.4885   9.8604  11.2113  11.8506  12.1185  12.9804  13.7708
    14.3822  14.6773

          k = 0.3750 0.3590 0.0000 (  6307 PWs)   bands (ev):

   -44.8072 -23.0361 -22.9707 -22.7979 -12.1057 -11.6593  -1.9439  -1.5174
    -0.9857  -0.4223   0.0950   0.4280   4.1051   6.9492   7.2986   7.6123
     7.8765   9.7444  10.1540  11.5114  11.9549  12.1393  12.5984  13.4671
    14.3916  14.6722

          k = 0.3750 0.4309 0.0000 (  6318 PWs)   bands (ev):

   -44.8051 -23.0253 -22.9643 -22.8382 -12.0790 -11.6151  -1.8322  -1.5628
    -0.9484  -0.5561  -0.0635   0.1237   4.3857   6.9385   7.2345   7.7672
     7.8367   9.8417  10.8749  11.6703  11.9646  12.3202  12.4880  13.5743
    14.4257  14.6051

          k = 0.3750 0.5027 0.0000 (  6324 PWs)   bands (ev):

   -44.8038 -23.0023 -22.9600 -22.8810 -12.0615 -11.5848  -1.6751  -1.5502
    -0.9254  -0.6970  -0.3898   0.0529   4.6711   6.8415   7.1132   7.6111
     8.0989  10.0384  11.0169  11.8142  12.2587  12.6640  12.6871  13.6640
    14.5261  14.5682

          k = 0.3750 0.5745 0.0000 (  6316 PWs)   bands (ev):

   -44.8033 -22.9855 -22.9585 -22.9048 -12.0554 -11.5741  -1.6412  -1.4548
    -0.9171  -0.8292  -0.4991   0.0336   4.8058   6.7563   7.0645   7.5558
     8.2110  10.2005  10.7786  12.1312  12.3428  12.8792  13.0333  13.3349
    14.4415  14.6529

          k = 0.3750-0.1436 0.0000 (  6315 PWs)   bands (ev):

   -44.8142 -22.9932 -22.9816 -22.7563 -12.2022 -11.7948  -1.6929  -1.2045
    -1.0755  -0.2211   0.1625   0.8388   3.9401   6.4913   7.0346   7.3973
     7.5689   9.1437   9.9844  11.3261  11.8426  12.1462  13.5645  14.1341
    14.4926  14.7992

          k = 0.3750-0.0718 0.0000 (  6318 PWs)   bands (ev):

   -44.8155 -22.9970 -22.9537 -22.7665 -12.2230 -11.8189  -1.5049  -1.1992
    -0.9541  -0.3516   0.2030   0.7049   4.0811   6.1426   7.0550   7.4054
     7.5385   9.1475  10.0978  11.5058  12.1110  12.2784  13.6140  13.8170
    14.0550  14.8181

          k = 0.3750 0.0000 0.0000 (  6325 PWs)   bands (ev):

   -44.8160 -22.9985 -22.9410 -22.7730 -12.2304 -11.8271  -1.4013  -1.2282
    -0.8719  -0.4252   0.1982   0.6475   4.1539   5.9924   7.0675   7.3960
     7.5522   9.1531  10.1585  11.5597  12.3094  12.5059  13.3297  13.6541
    13.7689  14.9046

          k = 0.4375 0.2513 0.0000 (  6310 PWs)   bands (ev):

   -44.8084 -23.0518 -22.9745 -22.7642 -12.1221 -11.6842  -2.0793  -1.5375
    -1.0075  -0.2429   0.1020   0.8501   3.8344   7.0019   7.3299   7.6910
     7.8112   9.4422   9.8127  11.0363  11.7650  12.1033  12.7709  13.8855
    14.1694  14.4140

          k = 0.4375 0.3231 0.0000 (  6309 PWs)   bands (ev):

   -44.8071 -23.0578 -22.9705 -22.7757 -12.1054 -11.6577  -2.1003  -1.5873
    -0.9836  -0.3099   0.1003   0.7134   3.9110   7.0960   7.3963   7.6611
     7.8764   9.5498   9.9474  11.1425  11.7837  12.1374  12.5648  13.5141
    14.2795  14.3853

          k = 0.4375 0.3950 0.0000 (  6310 PWs)   bands (ev):

   -44.8059 -23.0482 -22.9669 -22.8024 -12.0901 -11.6330  -2.0110  -1.5933
    -0.9616  -0.4285   0.0816   0.3932   4.1170   7.1534   7.3825   7.6118
     7.8214   9.6549  10.4327  11.5078  11.9111  12.2040  12.2337  13.4033
    14.3446  14.5296

          k = 0.4375 0.4668 0.0000 (  6319 PWs)   bands (ev):

   -44.8051 -23.0260 -22.9642 -22.8381 -12.0783 -11.6140  -1.8362  -1.5661
    -0.9481  -0.5571  -0.0623   0.1281   4.3819   6.9317   7.2345   7.7825
     7.8346   9.8421  10.8849  11.6737  11.9524  12.3266  12.4714  13.5795
    14.4234  14.5971

          k = 0.4375 0.5386 0.0000 (  6303 PWs)   bands (ev):

   -44.8046 -23.0029 -22.9627 -22.8688 -12.0719 -11.6037  -1.6723  -1.5196
    -0.9459  -0.6638  -0.3207   0.0938   4.5922   6.6694   7.1359   7.7973
     8.0187  10.0587  10.9289  11.5179  12.1360  12.6733  13.0252  13.7791
    14.2820  14.5318

          k = 0.4375-0.1795 0.0000 (  6306 PWs)   bands (ev):

   -44.8096 -23.0319 -22.9781 -22.7689 -12.1375 -11.7083  -1.9560  -1.4416
    -1.0305  -0.2806   0.1215   0.7582   3.9083   6.8907   7.1794   7.6226
     7.7569   9.4939   9.8597  11.2087  11.8478  12.1178  12.9780  13.7883
    14.3733  14.6584

          k = 0.4375-0.1077 0.0000 (  6313 PWs)   bands (ev):

   -44.8105 -23.0045 -22.9808 -22.7853 -12.1495 -11.7263  -1.7687  -1.3117
    -1.0567  -0.4035   0.1406   0.5451   4.0743   6.5207   7.1980   7.5568
     7.8123   9.6274   9.9695  11.5207  12.0333  12.1965  13.1331  13.6635
    14.4393  14.7216

          k = 0.4375-0.0359 0.0000 (  6320 PWs)   bands (ev):

   -44.8109 -22.9848 -22.9799 -22.8016 -12.1560 -11.7359  -1.6056  -1.1952
    -1.0917  -0.5124   0.0945   0.4133   4.2194   6.2308   7.1911   7.5795
     7.8680   9.6819  10.1118  11.7102  12.2555  12.4086  13.1705  13.5254
    14.0892  14.6586

          k =-0.5000-0.2872 0.0000 (  6298 PWs)   bands (ev):

   -44.8071 -23.0659 -22.9704 -22.7674 -12.1054 -11.6571  -2.1576  -1.6125
    -0.9840  -0.2661   0.0989   0.8346   3.8327   7.0487   7.4696   7.7189
     7.9415   9.4747   9.8294  10.9961  11.6833  12.1418  12.5845  13.6892
    14.0734  14.2802

          k =-0.5000-0.2154 0.0000 (  6320 PWs)   bands (ev):

   -44.8071 -23.0581 -22.9705 -22.7757 -12.1052 -11.6573  -2.1016  -1.5884
    -0.9835  -0.3109   0.1017   0.7152   3.9094   7.0951   7.3870   7.6606
     7.8888   9.5552   9.9456  11.1418  11.7801  12.1368  12.5645  13.5203
    14.2758  14.3797

          k =-0.5000-0.1436 0.0000 (  6313 PWs)   bands (ev):

   -44.8071 -23.0372 -22.9705 -22.7979 -12.1047 -11.6578  -1.9491  -1.5219
    -0.9853  -0.4246   0.0978   0.4348   4.0996   6.9390   7.2972   7.6049
     7.9033   9.7488  10.1594  11.5048  11.9497  12.1424  12.5911  13.4744
    14.3870  14.6559

          k =-0.5000-0.0718 0.0000 (  6311 PWs)   bands (ev):

   -44.8071 -23.0113 -22.9705 -22.8250 -12.1043 -11.6582  -1.7583  -1.4368
    -0.9961  -0.5481  -0.0039   0.2309   4.3112   6.5789   7.2265   7.7335
     7.9573   9.9677  10.3089  11.7743  11.9074  12.3610  12.9137  13.6420
    14.3771  14.6204

          k =-0.5000 0.0000 0.0000 (  6326 PWs)   bands (ev):

   -44.8071 -22.9981 -22.9705 -22.8387 -12.1041 -11.6584  -1.6599  -1.3918
    -1.0068  -0.6035  -0.1198   0.2057   4.4117   6.4145   7.1832   7.8139
     7.9811  10.0763  10.3512  11.7132  11.9637  12.5914  13.2121  13.6706
    14.2955  14.4151

     highest occupied, lowest unoccupied level (ev):     4.8089    5.7712

!    total energy              =    -591.24418616 Ry
     total all-electron energy =    -13333.877462 Ry
     estimated scf accuracy    <          2.9E-11 Ry

     The total energy is the sum of the following terms:
     one-electron contribution =    -204.59566113 Ry
     hartree contribution      =     110.16752647 Ry
     xc contribution           =     -37.59933335 Ry
     ewald contribution        =     -28.10046577 Ry
     one-center paw contrib.   =    -431.11625237 Ry

     convergence has been achieved in   5 iterations

     negative rho (up, down):  1.500E-08 0.000E+00

     Forces acting on atoms (cartesian axes, Ry/au):

     atom    1 type  1   force =     0.00000000    0.00012258   -0.00000125
     atom    2 type  2   force =     0.00000000   -0.00004775   -0.00008482
     atom    3 type  3   force =     0.00000000   -0.00007483    0.00008607
     The non-local contrib.  to forces
     atom    1 type  1   force =     0.00000000    0.00068737   -0.00062045
     atom    2 type  2   force =     0.00000000    0.00044199   -0.21274158
     atom    3 type  3   force =     0.00000000    0.00043413    0.20930873
     The ionic contribution  to forces
     atom    1 type  1   force =    -0.00000001    0.03586948   -0.32105325
     atom    2 type  2   force =     0.00000000   -0.02040468   21.08209209
     atom    3 type  3   force =     0.00000000   -0.01546480  -20.76103884
     The local contribution  to forces
     atom    1 type  1   force =     0.00000000   -0.03639420    0.32137052
     atom    2 type  2   force =     0.00000003    0.01986026  -20.87733603
     atom    3 type  3   force =    -0.00000000    0.01494239   20.55546153
     The core correction contribution to forces
     atom    1 type  1   force =     0.00000000   -0.00002511    0.00035910
     atom    2 type  2   force =    -0.00000000    0.00007060    0.00793297
     atom    3 type  3   force =    -0.00000000    0.00002840   -0.00360337
     The Hubbard contrib.    to forces
     atom    1 type  1   force =     0.00000000    0.00000000    0.00000000
     atom    2 type  2   force =     0.00000000    0.00000000    0.00000000
     atom    3 type  3   force =     0.00000000    0.00000000    0.00000000
     The SCF correction term to forces
     atom    1 type  1   force =     0.00000000   -0.00000029   -0.00001864
     atom    2 type  2   force =    -0.00000000   -0.00000125    0.00000627
     atom    3 type  3   force =    -0.00000000   -0.00000028   -0.00000346

     Total force =     0.000194     Total SCF correction =     0.000020
     SCF correction compared to forces is large: reduce conv_thr to get better values
     Energy error            =      1.2E-07 Ry
     Gradient error          =      1.2E-04 Ry/Bohr

     number of scf cycles    =   6
     number of bfgs steps    =   5

     energy             old  =    -591.2441860372 Ry
     energy             new  =    -591.2441861589 Ry

     CASE: energy            _new < energy            _old

     new trust radius        =       0.0004865698 bohr
     new conv_thr            =            1.0E-10 Ry


ATOMIC_POSITIONS (angstrom)
Zr            0.0000000000       -0.0055486524       10.2766989356
Cl           -0.0000000017        2.0173612849       11.9620500779
Br           -0.0000000017        2.0170442121        8.4243997610



     Writing config-only to output data dir ./tmp/ZrClBr.save/
     NEW-OLD atomic charge density approx. for the potential

     Check: negative core charge=   -0.000004

     negative rho (up, down):  1.523E-08 0.000E+00

     total cpu time spent up to now is       72.4 secs

     Self-consistent Calculation

     iteration #  1     ecut=    65.00 Ry     beta= 0.70
     Davidson diagonalization with overlap
     ethr =  1.00E-06,  avg # of iterations =  2.0

     Threshold (ethr) on eigenvalues was too large:
     Diagonalizing with lowered threshold

     Davidson diagonalization with overlap
     ethr =  1.58E-10,  avg # of iterations =  4.0

     negative rho (up, down):  1.528E-08 0.000E+00

     total cpu time spent up to now is       75.8 secs

     total energy              =    -591.24418621 Ry
     estimated scf accuracy    <       0.00000004 Ry

     iteration #  2     ecut=    65.00 Ry     beta= 0.70
     Davidson diagonalization with overlap
     ethr =  1.40E-10,  avg # of iterations =  2.0

     negative rho (up, down):  1.522E-08 0.000E+00

     total cpu time spent up to now is       77.4 secs

     total energy              =    -591.24418621 Ry
     estimated scf accuracy    <       0.00000013 Ry

     iteration #  3     ecut=    65.00 Ry     beta= 0.70
     Davidson diagonalization with overlap
     ethr =  1.40E-10,  avg # of iterations =  2.0

     negative rho (up, down):  1.522E-08 0.000E+00

     total cpu time spent up to now is       79.0 secs

     total energy              =    -591.24418623 Ry
     estimated scf accuracy    <          8.5E-10 Ry

     iteration #  4     ecut=    65.00 Ry     beta= 0.70
     Davidson diagonalization with overlap
     ethr =  3.29E-12,  avg # of iterations =  2.0

     negative rho (up, down):  1.522E-08 0.000E+00

     total cpu time spent up to now is       80.5 secs

     total energy              =    -591.24418623 Ry
     estimated scf accuracy    <          5.7E-10 Ry

     iteration #  5     ecut=    65.00 Ry     beta= 0.70
     Davidson diagonalization with overlap
     ethr =  2.19E-12,  avg # of iterations =  1.2

     negative rho (up, down):  1.522E-08 0.000E+00

     total cpu time spent up to now is       81.9 secs

     End of self-consistent calculation

          k = 0.0000 0.0000 0.0000 (  6363 PWs)   bands (ev):

   -44.8405 -23.0749 -22.6840 -22.6771 -12.6899 -12.1279  -2.0499   0.0134
     0.2449   0.2688   1.4229   1.4537   4.3205   5.9971   6.0493   6.7008
     6.7207   6.8430   8.4170   9.4917  11.3807  13.6284  13.6991  13.9806
    14.6873  15.2766

          k = 0.0000 0.0718 0.0000 (  6375 PWs)   bands (ev):

   -44.8392 -23.0710 -22.6992 -22.6802 -12.6643 -12.1167  -2.0055  -0.0571
     0.1946   0.2564   1.2647   1.4192   4.3227   5.9347   6.0833   6.6678
     6.7793   7.0229   8.5431   9.7220  11.4466  13.1932  13.8245  14.3374
    14.6930  14.8542

          k = 0.0000 0.1436 0.0000 (  6379 PWs)   bands (ev):

   -44.8356 -23.0599 -22.7421 -22.6892 -12.5922 -12.0833  -1.8807  -0.2906
     0.0829   0.2169   0.8754   1.3292   4.3034   5.8317   6.1926   6.6365
     6.9358   7.4581   8.8979  10.2707  11.6435  12.6438  14.0684  14.1817
    14.5709  14.9135

          k = 0.0000 0.2154 0.0000 (  6359 PWs)   bands (ev):

   -44.8302 -23.0432 -22.8056 -22.7025 -12.4866 -12.0281  -1.7009  -0.6517
    -0.1187   0.1472   0.4618   1.2134   4.2120   5.8450   6.3914   6.6813
     7.1437   7.9622   9.4022  10.8430  11.8819  12.2503  13.5876  14.3711
    14.7012  15.1784

          k = 0.0000 0.2872 0.0000 (  6337 PWs)   bands (ev):

   -44.8239 -23.0235 -22.8792 -22.7182 -12.3681 -11.9519  -1.5183  -1.0450
    -0.5041   0.0519   0.2364   1.0998   4.0598   6.0465   6.6862   6.7986
     7.3527   8.4346   9.8409  11.2148  11.8329  12.1217  13.7830  14.0675
    15.0419  15.1638

          k = 0.0000 0.3590 0.0000 (  6325 PWs)   bands (ev):

   -44.8175 -23.0037 -22.9515 -22.7338 -12.2598 -11.8594  -1.5669  -1.2185
    -0.9312  -0.0532   0.1467   1.0041   3.9203   6.3942   6.9476   7.0598
     7.5268   8.8585   9.9757  11.3014  11.7562  12.1010  13.7381  14.3264
    14.6945  15.0097

          k = 0.0000 0.4309 0.0000 (  6306 PWs)   bands (ev):

   -44.8121 -23.0124 -22.9864 -22.7470 -12.1781 -11.7653  -1.8651  -1.3224
    -1.0763  -0.1470   0.1078   0.9326   3.8414   6.7843   7.1071   7.4572
     7.6524   9.2188   9.8831  11.1710  11.7791  12.0961  13.2585  14.2757
    14.4368  14.6330

          k = 0.0000 0.5027 0.0000 (  6310 PWs)   bands (ev):

   -44.8085 -23.0522 -22.9753 -22.7558 -12.1287 -11.6940  -2.0841  -1.5332
    -1.0105  -0.2110   0.0927   0.8882   3.8173   7.0130   7.3382   7.7028
     7.8059   9.4377   9.7922  11.0576  11.7510  12.0819  12.7462  13.9438
    14.1485  14.3898

          k = 0.0000-0.5745 0.0000 (  6294 PWs)   bands (ev):

   -44.8072 -23.0661 -22.9713 -22.7589 -12.1123 -11.6674  -2.1621  -1.6071
    -0.9865  -0.2336   0.0891   0.8731   3.8153   7.0615   7.4797   7.7322
     7.9305   9.4560   9.8187  11.0219  11.6645  12.1130  12.5652  13.7511
    14.0624  14.2571

          k = 0.0625 0.0359 0.0000 (  6379 PWs)   bands (ev):

   -44.8392 -23.0710 -22.6951 -22.6847 -12.6641 -12.1164  -2.0052  -0.0533
     0.2060   0.2402   1.2848   1.3963   4.3243   5.9643   6.0503   6.6783
     6.7662   7.0237   8.5458   9.7251  11.4473  13.2181  13.7732  14.3577
    14.7052  14.8888

          k = 0.0625 0.1077 0.0000 (  6375 PWs)   bands (ev):

   -44.8368 -23.0635 -22.7263 -22.6886 -12.6152 -12.0941  -1.9205  -0.2042
     0.1103   0.2284   1.0030   1.3421   4.3176   5.8541   6.1501   6.6460
     6.8778   7.3298   8.7857  10.1117  11.5828  12.7976  13.9951  14.2798
    14.6298  14.8258

          k = 0.0625 0.1795 0.0000 (  6357 PWs)   bands (ev):

   -44.8323 -23.0496 -22.7791 -22.7001 -12.5264 -12.0498  -1.7670  -0.4983
    -0.0353   0.1630   0.6063   1.2323   4.2682   5.7854   6.3315   6.6660
     7.0575   7.7933   9.2203  10.6625  11.8546  12.3673  13.6680  14.2318
    14.7124  15.1497

          k = 0.0625 0.2513 0.0000 (  6342 PWs)   bands (ev):

   -44.8264 -23.0314 -22.8464 -22.7158 -12.4143 -11.9838  -1.5787  -0.8737
    -0.3051   0.0119   0.3389   1.1019   4.1542   5.8677   6.6105   6.7670
     7.2587   8.2747   9.7112  11.1091  11.9831  12.2026  13.4517  14.1108
    14.9581  15.1632

          k = 0.0625 0.3231 0.0000 (  6326 PWs)   bands (ev):

   -44.8200 -23.0116 -22.9178 -22.7330 -12.3015 -11.8984  -1.4557  -1.1998
    -0.7280  -0.1131   0.2269   0.9746   4.0206   6.1206   6.8895   7.0051
     7.4391   8.7266   9.9920  11.3425  11.8846  12.1465  13.7904  14.0368
    14.6869  15.0160

          k = 0.0625 0.3950 0.0000 (  6335 PWs)   bands (ev):

   -44.8142 -22.9938 -22.9822 -22.7489 -12.2079 -11.8028  -1.6951  -1.2050
    -1.0772  -0.1968   0.1577   0.8667   3.9290   6.4962   7.0492   7.3969
     7.5761   9.1444   9.9698  11.3304  11.8447  12.1412  13.5359  14.1167
    14.4846  14.8038

          k = 0.0625 0.4668 0.0000 (  6311 PWs)   bands (ev):

   -44.8097 -23.0319 -22.9789 -22.7611 -12.1439 -11.7176  -1.9585  -1.4366
    -1.0339  -0.2526   0.1135   0.7893   3.8958   6.8995   7.1932   7.6331
     7.7463   9.4929   9.8387  11.2272  11.8422  12.1057  12.9568  13.7972
    14.3591  14.6575

          k = 0.0625 0.5386 0.0000 (  6308 PWs)   bands (ev):

   -44.8072 -23.0582 -22.9713 -22.7676 -12.1119 -11.6672  -2.1051  -1.5825
    -0.9861  -0.2813   0.0925   0.7491   3.8948   7.1071   7.3987   7.6725
     7.8757   9.5341   9.9388  11.1688  11.7666  12.1118  12.5526  13.5460
    14.2644  14.3790

          k = 0.1250 0.0718 0.0000 (  6380 PWs)   bands (ev):

   -44.8355 -23.0597 -22.7378 -22.6947 -12.5912 -12.0822  -1.8795  -0.2812
     0.0896   0.1974   0.8921   1.3026   4.3098   5.8556   6.1571   6.6414
     6.9242   7.4600   8.9065  10.2786  11.6469  12.6574  14.0952  14.1344
    14.5828  14.9391

          k = 0.1250 0.1436 0.0000 (  6345 PWs)   bands (ev):

   -44.8322 -23.0494 -22.7770 -22.7029 -12.5256 -12.0489  -1.7661  -0.4924
    -0.0333   0.1538   0.6134   1.2167   4.2738   5.7903   6.3183   6.6696
     7.0503   7.7943   9.2257  10.6663  11.8581  12.3738  13.6785  14.2292
    14.6997  15.1646

          k = 0.1250 0.2154 0.0000 (  6346 PWs)   bands (ev):

   -44.8272 -23.0340 -22.8315 -22.7191 -12.4303 -11.9936  -1.6005  -0.7899
    -0.2184  -0.0362   0.3841   1.0721   4.2103   5.7720   6.6055   6.7687
     7.2120   8.2267   9.6634  11.0700  12.1317  12.2610  13.2276  14.0554
    14.9157  15.0743

          k = 0.1250 0.2872 0.0000 (  6334 PWs)   bands (ev):

   -44.8213 -23.0157 -22.8932 -22.7396 -12.3243 -11.9173  -1.4245  -1.1191
    -0.5496  -0.2393   0.2787   0.8959   4.1333   5.8837   6.9014   7.0164
     7.3728   8.6832  10.0159  11.3547  12.0879  12.4403  13.2418  13.8522
    14.6138  14.9575

          k = 0.1250 0.3590 0.0000 (  6330 PWs)   bands (ev):

   -44.8155 -22.9975 -22.9533 -22.7608 -12.2281 -11.8258  -1.5023  -1.2024
    -0.9486  -0.3366   0.2015   0.7159   4.0787   6.1451   7.0771   7.4018
     7.5363   9.1452  10.0889  11.5079  12.1229  12.2835  13.6098  13.8026
    14.0573  14.7993

          k = 0.1250 0.4309 0.0000 (  6323 PWs)   bands (ev):

   -44.8105 -23.0039 -22.9815 -22.7789 -12.1552 -11.7346  -1.7666  -1.3046
    -1.0599  -0.3845   0.1365   0.5607   4.0701   6.5259   7.2130   7.5668
     7.7960   9.6249   9.9551  11.5358  12.0396  12.1951  13.1371  13.6458
    14.4271  14.7178

          k = 0.1250 0.5027 0.0000 (  6309 PWs)   bands (ev):

   -44.8071 -23.0368 -22.9712 -22.7911 -12.1108 -11.6666  -1.9493  -1.5144
    -0.9880  -0.4024   0.0914   0.4558   4.0921   6.9449   7.3069   7.6222
     7.8849   9.7288  10.1541  11.5338  11.9532  12.1291  12.5894  13.4714
    14.3687  14.6631

          k = 0.1250 0.5745 0.0000 (  6320 PWs)   bands (ev):

   -44.8060 -23.0484 -22.9675 -22.7953 -12.0959 -11.6415  -2.0140  -1.5872
    -0.9637  -0.4059   0.0750   0.4189   4.1062   7.1569   7.3850   7.6271
     7.8187   9.6339  10.4315  11.5410  11.9029  12.1810  12.2350  13.4088
    14.3232  14.5403

          k = 0.1250 0.0000 0.0000 (  6373 PWs)   bands (ev):

   -44.8367 -23.0633 -22.7221 -22.6936 -12.6145 -12.0933  -1.9195  -0.1977
     0.1141   0.2157   1.0152   1.3235   4.3212   5.8822   6.1141   6.6443
     6.8737   7.3313   8.7926  10.1181  11.5842  12.8104  13.9502  14.3029
    14.6549  14.8339

          k = 0.1875 0.1077 0.0000 (  6354 PWs)   bands (ev):

   -44.8300 -23.0428 -22.8019 -22.7086 -12.4845 -12.0256  -1.6985  -0.6421
    -0.1113   0.1253   0.4715   1.1835   4.2244   5.8579   6.3596   6.6811
     7.1341   7.9642   9.4160  10.8511  11.8884  12.2611  13.6051  14.3855
    14.6611  15.2106

          k = 0.1875 0.1795 0.0000 (  6343 PWs)   bands (ev):

   -44.8262 -23.0310 -22.8437 -22.7205 -12.4125 -11.9815  -1.5769  -0.8657
    -0.2973  -0.0028   0.3403   1.0766   4.1660   5.8685   6.5943   6.7694
     7.2494   8.2757   9.7202  11.1140  11.9879  12.2135  13.4638  14.1268
    14.9411  15.1749

          k = 0.1875 0.2513 0.0000 (  6339 PWs)   bands (ev):

   -44.8212 -23.0155 -22.8919 -22.7421 -12.3233 -11.9159  -1.4236  -1.1148
    -0.5443  -0.2469   0.2768   0.8829   4.1400   5.8817   6.9005   7.0120
     7.3688   8.6832  10.0195  11.3576  12.0924  12.4358  13.2529  13.8646
    14.6067  14.9651

          k = 0.1875 0.3231 0.0000 (  6333 PWs)   bands (ev):

   -44.8158 -22.9987 -22.9393 -22.7697 -12.2345 -11.8325  -1.3930  -1.2311
    -0.8607  -0.4188   0.1955   0.6428   4.1600   5.9917   7.0929   7.3866
     7.5450   9.1490  10.1536  11.5644  12.3207  12.5221  13.3367  13.6495
    13.7666  14.8908

          k = 0.1875 0.3950 0.0000 (  6323 PWs)   bands (ev):

   -44.8108 -22.9844 -22.9789 -22.7976 -12.1607 -11.7426  -1.5967  -1.1846
    -1.0943  -0.5024   0.0924   0.4107   4.2246   6.2321   7.2035   7.5883
     7.8473   9.6750  10.1068  11.7226  12.2547  12.4261  13.1875  13.5197
    14.0890  14.6442

          k = 0.1875 0.4668 0.0000 (  6311 PWs)   bands (ev):

   -44.8070 -23.0102 -22.9710 -22.8202 -12.1093 -11.6655  -1.7527  -1.4267
    -0.9988  -0.5350  -0.0010   0.2289   4.3131   6.5807   7.2313   7.7535
     7.9323   9.9533  10.3014  11.7881  11.9248  12.3654  12.9328  13.6272
    14.3664  14.6202

          k = 0.1875 0.5386 0.0000 (  6308 PWs)   bands (ev):

   -44.8049 -23.0257 -22.9646 -22.8328 -12.0830 -11.6210  -1.8351  -1.5586
    -0.9501  -0.5425  -0.0524   0.1258   4.3792   6.9305   7.2372   7.7732
     7.8506   9.8242  10.8809  11.6844  11.9874  12.3155  12.4659  13.5814
    14.4074  14.6083

          k = 0.1875-0.0359 0.0000 (  6356 PWs)   bands (ev):

   -44.8321 -23.0492 -22.7754 -22.7058 -12.5245 -12.0476  -1.7648  -0.4908
    -0.0337   0.1493   0.6127   1.2112   4.2762   5.8040   6.2977   6.6563
     7.0566   7.7952   9.2344  10.6715  11.8581  12.3714  13.6826  14.2049
    14.7175  15.1699

          k = 0.2500 0.1436 0.0000 (  6335 PWs)   bands (ev):

   -44.8235 -23.0228 -22.8764 -22.7248 -12.3648 -11.9476  -1.5151  -1.0373
    -0.4964   0.0269   0.2417   1.0669   4.0752   6.0518   6.6611   6.7947
     7.3439   8.4357   9.8545  11.2222  11.8374  12.1317  13.8003  14.0922
    15.0735  15.1328

          k = 0.2500 0.2154 0.0000 (  6328 PWs)   bands (ev):

   -44.8197 -23.0109 -22.9153 -22.7389 -12.2985 -11.8942  -1.4521  -1.1930
    -0.7206  -0.1307   0.2254   0.9431   4.0361   6.1194   6.8846   6.9933
     7.4301   8.7266  10.0014  11.3504  11.8850  12.1527  13.8163  14.0642
    14.6910  15.0146

          k = 0.2500 0.2872 0.0000 (  6326 PWs)   bands (ev):

   -44.8152 -22.9970 -22.9516 -22.7652 -12.2258 -11.8225  -1.4972  -1.2000
    -0.9439  -0.3485   0.1988   0.6942   4.0900   6.1431   7.0731   7.3951
     7.5311   9.1442  10.0959  11.5134  12.1150  12.2821  13.6317  13.7929
    14.0827  14.8195

          k = 0.2500 0.3590 0.0000 (  6325 PWs)   bands (ev):

   -44.8107 -22.9841 -22.9781 -22.7999 -12.1595 -11.7408  -1.5937  -1.1841
    -1.0930  -0.5082   0.0894   0.4025   4.2300   6.2321   7.2000   7.5867
     7.8439   9.6748  10.1110  11.7248  12.2520  12.4129  13.1677  13.5473
    14.1093  14.6602

          k = 0.2500 0.4309 0.0000 (  6310 PWs)   bands (ev):

   -44.8069 -22.9958 -22.9707 -22.8365 -12.1079 -11.6638  -1.6486  -1.3802
    -1.0094  -0.5976  -0.1235   0.1973   4.4211   6.4152   7.1853   7.8301
     7.9526  10.0716  10.3399  11.7152  11.9817  12.5974  13.2433  13.6657
    14.2938  14.4171

          k = 0.2500 0.5027 0.0000 (  6309 PWs)   bands (ev):

   -44.8043 -23.0016 -22.9628 -22.8658 -12.0754 -11.6088  -1.6655  -1.5111
    -0.9480  -0.6575  -0.3174   0.0870   4.5975   6.6679   7.1373   7.7752
     8.0370  10.0467  10.9315  11.5076  12.1586  12.6790  13.0431  13.7845
    14.2757  14.5274

          k = 0.2500 0.5745 0.0000 (  6326 PWs)   bands (ev):

   -44.8034 -23.0023 -22.9600 -22.8775 -12.0643 -11.5888  -1.6731  -1.5469
    -0.9270  -0.6906  -0.3815   0.0485   4.6715   6.8347   7.1142   7.6078
     8.1126  10.0239  11.0343  11.8074  12.2668  12.6562  12.6868  13.6969
    14.5163  14.5723

          k = 0.2500-0.0718 0.0000 (  6340 PWs)   bands (ev):

   -44.8260 -23.0307 -22.8438 -22.7219 -12.4112 -11.9799  -1.5754  -0.8688
    -0.3003  -0.0057   0.3394   1.0789   4.1648   5.8757   6.5857   6.7530
     7.2585   8.2763   9.7278  11.1159  11.9827  12.2080  13.4583  14.1134
    14.9535  15.1788

          k = 0.2500 0.0000 0.0000 (  6343 PWs)   bands (ev):

   -44.8269 -23.0335 -22.8302 -22.7230 -12.4278 -11.9907  -1.5978  -0.7905
    -0.2191  -0.0447   0.3816   1.0655   4.2135   5.7811   6.5873   6.7460
     7.2224   8.2280   9.6780  11.0752  12.1229  12.2581  13.2273  14.0436
    14.9260  15.0837

          k = 0.3125 0.1795 0.0000 (  6329 PWs)   bands (ev):

   -44.8170 -23.0028 -22.9495 -22.7410 -12.2553 -11.8530  -1.5622  -1.2143
    -0.9273  -0.0814   0.1527   0.9687   3.9366   6.3952   6.9406   7.0443
     7.5176   8.8582   9.9889  11.3065  11.7555  12.1092  13.7736  14.3534
    14.7271  14.9703

          k = 0.3125 0.2513 0.0000 (  6328 PWs)   bands (ev):

   -44.8137 -22.9929 -22.9802 -22.7557 -12.2037 -11.7966  -1.6888  -1.2030
    -1.0730  -0.2183   0.1582   0.8316   3.9458   6.4963   7.0426   7.3848
     7.5680   9.1424   9.9839  11.3306  11.8428  12.1475  13.5701  14.1130
    14.4976  14.8249

          k = 0.3125 0.3231 0.0000 (  6309 PWs)   bands (ev):

   -44.8100 -23.0023 -22.9806 -22.7846 -12.1517 -11.7293  -1.7605  -1.3042
    -1.0575  -0.4008   0.1361   0.5340   4.0835   6.5275   7.2040   7.5623
     7.7875   9.6219   9.9690  11.5313  12.0337  12.1950  13.1310  13.6652
    14.4500  14.7472

          k = 0.3125 0.3950 0.0000 (  6308 PWs)   bands (ev):

   -44.8067 -23.0089 -22.9704 -22.8242 -12.1068 -11.6617  -1.7485  -1.4280
    -0.9976  -0.5456  -0.0082   0.2207   4.3209   6.5849   7.2265   7.7472
     7.9265   9.9682  10.2959  11.7832  11.9156  12.3517  12.9352  13.6409
    14.3870  14.6390

          k = 0.3125 0.4668 0.0000 (  6316 PWs)   bands (ev):

   -44.8041 -23.0010 -22.9625 -22.8679 -12.0741 -11.6068  -1.6646  -1.5121
    -0.9474  -0.6624  -0.3239   0.0881   4.5997   6.6724   7.1362   7.7731
     8.0313  10.0565  10.9240  11.5030  12.1577  12.6680  13.0610  13.7684
    14.2832  14.5314

          k = 0.3125 0.5386 0.0000 (  6319 PWs)   bands (ev):

   -44.8028 -22.9848 -22.9582 -22.9035 -12.0569 -11.5761  -1.6386  -1.4506
    -0.9186  -0.8293  -0.4973   0.0308   4.8091   6.7549   7.0652   7.5480
     8.2187  10.1936  10.7878  12.1050  12.3526  12.8865  13.0483  13.3473
    14.4197  14.6652

          k = 0.3125-0.1077 0.0000 (  6328 PWs)   bands (ev):

   -44.8195 -23.0107 -22.9162 -22.7395 -12.2972 -11.8925  -1.4528  -1.1963
    -0.7263  -0.1337   0.2282   0.9492   4.0317   6.1212   6.8742   6.9932
     7.4363   8.7277  10.0051  11.3476  11.8823  12.1492  13.8046  14.0472
    14.7164  15.0132

          k = 0.3125-0.0359 0.0000 (  6342 PWs)   bands (ev):

   -44.8209 -23.0150 -22.8926 -22.7443 -12.3206 -11.9125  -1.4214  -1.1216
    -0.5526  -0.2517   0.2779   0.8876   4.1360   5.8864   6.8772   7.0083
     7.3810   8.6853  10.0291  11.3570  12.0784  12.4301  13.2401  13.8472
    14.6438  14.9737

          k = 0.3750 0.2154 0.0000 (  6318 PWs)   bands (ev):

   -44.8115 -23.0112 -22.9852 -22.7546 -12.1726 -11.7571  -1.8604  -1.3239
    -1.0728  -0.1779   0.1158   0.8952   3.8582   6.7806   7.0989   7.4526
     7.6425   9.2168   9.9030  11.1619  11.7853  12.1056  13.2938  14.3056
    14.3888  14.6645

          k = 0.3750 0.2872 0.0000 (  6317 PWs)   bands (ev):

   -44.8090 -23.0306 -22.9777 -22.7684 -12.1387 -11.7096  -1.9528  -1.4386
    -1.0313  -0.2786   0.1180   0.7527   3.9129   6.8985   7.1865   7.6236
     7.7391   9.4895   9.8604  11.2115  11.8508  12.1187  12.9807  13.7709
    14.3821  14.6780

          k = 0.3750 0.3590 0.0000 (  6307 PWs)   bands (ev):

   -44.8066 -23.0356 -22.9702 -22.7974 -12.1062 -11.6596  -1.9444  -1.5178
    -0.9862  -0.4230   0.0952   0.4277   4.1054   6.9497   7.2992   7.6133
     7.8769   9.7448  10.1545  11.5116  11.9553  12.1394  12.5987  13.4673
    14.3914  14.6728

          k = 0.3750 0.4309 0.0000 (  6318 PWs)   bands (ev):

   -44.8045 -23.0248 -22.9638 -22.8377 -12.0795 -11.6154  -1.8326  -1.5632
    -0.9490  -0.5566  -0.0638   0.1238   4.3860   6.9389   7.2354   7.7678
     7.8375   9.8420  10.8756  11.6706  11.9646  12.3202  12.4882  13.5745
    14.4256  14.6056

          k = 0.3750 0.5027 0.0000 (  6324 PWs)   bands (ev):

   -44.8031 -23.0019 -22.9595 -22.8805 -12.0620 -11.5851  -1.6756  -1.5506
    -0.9260  -0.6974  -0.3901   0.0531   4.6713   6.8417   7.1143   7.6121
     8.0996  10.0388  11.0174  11.8144  12.2584  12.6642  12.6872  13.6643
    14.5261  14.5688

          k = 0.3750 0.5745 0.0000 (  6316 PWs)   bands (ev):

   -44.8026 -22.9851 -22.9580 -22.9043 -12.0558 -11.5743  -1.6419  -1.4552
    -0.9175  -0.8296  -0.4992   0.0337   4.8060   6.7565   7.0655   7.5569
     8.2117  10.2012  10.7787  12.1314  12.3425  12.8793  13.0334  13.3351
    14.4421  14.6532

          k = 0.3750-0.1436 0.0000 (  6315 PWs)   bands (ev):

   -44.8135 -22.9927 -22.9812 -22.7558 -12.2026 -11.7950  -1.6935  -1.2049
    -1.0759  -0.2217   0.1626   0.8383   3.9404   6.4919   7.0351   7.3978
     7.5696   9.1441   9.9851  11.3262  11.8427  12.1462  13.5647  14.1344
    14.4926  14.7994

          k = 0.3750-0.0718 0.0000 (  6318 PWs)   bands (ev):

   -44.8149 -22.9965 -22.9532 -22.7660 -12.2234 -11.8191  -1.5055  -1.1997
    -0.9545  -0.3520   0.2030   0.7045   4.0814   6.1433   7.0556   7.4059
     7.5392   9.1478  10.0988  11.5054  12.1111  12.2783  13.6144  13.8174
    14.0553  14.8182

          k = 0.3750 0.0000 0.0000 (  6325 PWs)   bands (ev):

   -44.8154 -22.9980 -22.9405 -22.7725 -12.2309 -11.8273  -1.4019  -1.2287
    -0.8724  -0.4256   0.1981   0.6472   4.1542   5.9932   7.0680   7.3966
     7.5528   9.1533  10.1596  11.5592  12.3089  12.5058  13.3304  13.6546
    13.7694  14.9047

          k = 0.4375 0.2513 0.0000 (  6310 PWs)   bands (ev):

   -44.8078 -23.0514 -22.9739 -22.7637 -12.1225 -11.6845  -2.0798  -1.5378
    -1.0081  -0.2437   0.1022   0.8497   3.8348   7.0024   7.3306   7.6919
     7.8116   9.4432   9.8126  11.0366  11.7653  12.1035  12.7712  13.8857
    14.1700  14.4140

          k = 0.4375 0.3231 0.0000 (  6309 PWs)   bands (ev):

   -44.8065 -23.0574 -22.9700 -22.7752 -12.1059 -11.6580  -2.1007  -1.5875
    -0.9842  -0.3106   0.1005   0.7129   3.9114   7.0964   7.3969   7.6621
     7.8768   9.5503   9.9478  11.1429  11.7839  12.1375  12.5652  13.5143
    14.2795  14.3858

          k = 0.4375 0.3950 0.0000 (  6310 PWs)   bands (ev):

   -44.8053 -23.0478 -22.9664 -22.8019 -12.0906 -11.6333  -2.0114  -1.5936
    -0.9621  -0.4292   0.0817   0.3929   4.1174   7.1540   7.3832   7.6124
     7.8221   9.6550  10.4333  11.5081  11.9113  12.2041  12.2340  13.4036
    14.3442  14.5304

          k = 0.4375 0.4668 0.0000 (  6319 PWs)   bands (ev):

   -44.8044 -23.0256 -22.9636 -22.8376 -12.0787 -11.6143  -1.8366  -1.5666
    -0.9487  -0.5575  -0.0625   0.1282   4.3822   6.9322   7.2356   7.7832
     7.8351   9.8424  10.8855  11.6740  11.9524  12.3266  12.4716  13.5798
    14.4233  14.5976

          k = 0.4375 0.5386 0.0000 (  6303 PWs)   bands (ev):

   -44.8039 -23.0024 -22.9621 -22.8684 -12.0723 -11.6040  -1.6728  -1.5201
    -0.9464  -0.6642  -0.3210   0.0940   4.5924   6.6699   7.1370   7.7981
     8.0192  10.0593  10.9291  11.5183  12.1356  12.6736  13.0254  13.7792
    14.2824  14.5322

          k = 0.4375-0.1795 0.0000 (  6306 PWs)   bands (ev):

   -44.8089 -23.0314 -22.9776 -22.7684 -12.1380 -11.7085  -1.9565  -1.4419
    -1.0311  -0.2812   0.1216   0.7577   3.9087   6.8912   7.1800   7.6234
     7.7574   9.4948   9.8598  11.2091  11.8480  12.1179  12.9783  13.7888
    14.3732  14.6588

          k = 0.4375-0.1077 0.0000 (  6313 PWs)   bands (ev):

   -44.8098 -23.0040 -22.9803 -22.7847 -12.1499 -11.7265  -1.7692  -1.3121
    -1.0572  -0.4040   0.1406   0.5447   4.0746   6.5214   7.1989   7.5573
     7.8128   9.6278   9.9701  11.5208  12.0334  12.1965  13.1336  13.6637
    14.4393  14.7218

          k = 0.4375-0.0359 0.0000 (  6320 PWs)   bands (ev):

   -44.8103 -22.9843 -22.9794 -22.8011 -12.1564 -11.7362  -1.6061  -1.1957
    -1.0922  -0.5127   0.0943   0.4131   4.2196   6.2316   7.1920   7.5798
     7.8685   9.6820  10.1128  11.7098  12.2555  12.4088  13.1707  13.5258
    14.0898  14.6588

          k =-0.5000-0.2872 0.0000 (  6298 PWs)   bands (ev):

   -44.8064 -23.0655 -22.9699 -22.7669 -12.1058 -11.6574  -2.1580  -1.6127
    -0.9846  -0.2669   0.0992   0.8342   3.8331   7.0491   7.4703   7.7199
     7.9418   9.4752   9.8298  10.9965  11.6835  12.1419  12.5849  13.6894
    14.0745  14.2798

          k =-0.5000-0.2154 0.0000 (  6320 PWs)   bands (ev):

   -44.8065 -23.0577 -22.9699 -22.7752 -12.1057 -11.6576  -2.1021  -1.5887
    -0.9841  -0.3116   0.1019   0.7148   3.9098   7.0956   7.3876   7.6614
     7.8892   9.5557   9.9459  11.1422  11.7804  12.1370  12.5648  13.5207
    14.2759  14.3800

          k =-0.5000-0.1436 0.0000 (  6313 PWs)   bands (ev):

   -44.8065 -23.0367 -22.9700 -22.7974 -12.1052 -11.6580  -1.9496  -1.5223
    -0.9858  -0.4251   0.0979   0.4344   4.0999   6.9396   7.2981   7.6054
     7.9039   9.7493  10.1597  11.5051  11.9502  12.1425  12.5913  13.4748
    14.3868  14.6564

          k =-0.5000-0.0718 0.0000 (  6311 PWs)   bands (ev):

   -44.8065 -23.0109 -22.9700 -22.8245 -12.1048 -11.6585  -1.7588  -1.4373
    -0.9966  -0.5485  -0.0041   0.2309   4.3115   6.5796   7.2276   7.7338
     7.9579   9.9682  10.3092  11.7743  11.9075  12.3611  12.9139  13.6422
    14.3774  14.6206

          k =-0.5000 0.0000 0.0000 (  6326 PWs)   bands (ev):

   -44.8065 -22.9977 -22.9700 -22.8382 -12.1046 -11.6587  -1.6604  -1.3923
    -1.0073  -0.6038  -0.1201   0.2057   4.4119   6.4152   7.1842   7.8143
     7.9817  10.0768  10.3516  11.7134  11.9633  12.5916  13.2123  13.6708
    14.2961  14.4155

     highest occupied, lowest unoccupied level (ev):     4.8091    5.7720

!    total energy              =    -591.24418623 Ry
     total all-electron energy =    -13333.877462 Ry
     estimated scf accuracy    <          2.5E-11 Ry

     The total energy is the sum of the following terms:
     one-electron contribution =    -204.63447667 Ry
     hartree contribution      =     110.18705235 Ry
     xc contribution           =     -37.59956682 Ry
     ewald contribution        =     -28.08092976 Ry
     one-center paw contrib.   =    -431.11626533 Ry

     convergence has been achieved in   5 iterations

     negative rho (up, down):  1.522E-08 0.000E+00

     Forces acting on atoms (cartesian axes, Ry/au):

     atom    1 type  1   force =     0.00000000    0.00006915   -0.00001489
     atom    2 type  2   force =     0.00000000   -0.00002580   -0.00000296
     atom    3 type  3   force =     0.00000000   -0.00004335    0.00001785
     The non-local contrib.  to forces
     atom    1 type  1   force =     0.00000000    0.00066732   -0.00061476
     atom    2 type  2   force =     0.00000000    0.00045126   -0.21269387
     atom    3 type  3   force =     0.00000000    0.00044750    0.20927799
     The ionic contribution  to forces
     atom    1 type  1   force =    -0.00000001    0.03530721   -0.32088816
     atom    2 type  2   force =     0.00000000   -0.02012893   21.08413254
     atom    3 type  3   force =     0.00000000   -0.01517828  -20.76324438
     The local contribution  to forces
     atom    1 type  1   force =    -0.00000000   -0.03586617    0.32118599
     atom    2 type  2   force =     0.00000003    0.01959478  -20.87933234
     atom    3 type  3   force =    -0.00000000    0.01467427   20.55762406
     The core correction contribution to forces
     atom    1 type  1   force =     0.00000000   -0.00002549    0.00035861
     atom    2 type  2   force =    -0.00000000    0.00006975    0.00792447
     atom    3 type  3   force =    -0.00000000    0.00002630   -0.00359886
     The Hubbard contrib.    to forces
     atom    1 type  1   force =     0.00000000    0.00000000    0.00000000
     atom    2 type  2   force =     0.00000000    0.00000000    0.00000000
     atom    3 type  3   force =     0.00000000    0.00000000    0.00000000
     The SCF correction term to forces
     atom    1 type  1   force =     0.00000000    0.00000033   -0.00001904
     atom    2 type  2   force =    -0.00000000    0.00000139    0.00000376
     atom    3 type  3   force =     0.00000000    0.00000091   -0.00000344

     Total force =     0.000089     Total SCF correction =     0.000020
     SCF correction compared to forces is large: reduce conv_thr to get better values
     Energy error            =      7.4E-08 Ry
     Gradient error          =      6.9E-05 Ry/Bohr

     bfgs converged in   7 scf cycles and   6 bfgs steps
     (criteria: energy <  1.0E-05 Ry, force <  1.0E-04 Ry/Bohr)

     End of BFGS Geometry Optimization

     Final energy             =    -591.2441862328 Ry

     File ./tmp/ZrClBr.bfgs deleted, as requested
Begin final coordinates

ATOMIC_POSITIONS (angstrom)
Zr            0.0000000000       -0.0055486524       10.2766989356
Cl           -0.0000000017        2.0173612849       11.9620500779
Br           -0.0000000017        2.0170442121        8.4243997610
End final coordinates



     Writing all to output data dir ./tmp/ZrClBr.save/

     init_run     :      0.71s CPU      0.75s WALL (       1 calls)
     electrons    :     76.23s CPU     77.81s WALL (       7 calls)
     update_pot   :      0.74s CPU      0.79s WALL (       6 calls)
     forces       :      1.71s CPU      1.72s WALL (       7 calls)

     Called by init_run:
     wfcinit      :      0.48s CPU      0.50s WALL (       1 calls)
     potinit      :      0.11s CPU      0.12s WALL (       1 calls)
     hinit0       :      0.09s CPU      0.09s WALL (       1 calls)

     Called by electrons:
     c_bands      :     64.60s CPU     65.65s WALL (      47 calls)
     sum_band     :      9.41s CPU      9.59s WALL (      47 calls)
     v_of_rho     :      0.16s CPU      0.16s WALL (      47 calls)
     newd         :      0.45s CPU      0.48s WALL (      47 calls)
     PAW_pot      :      2.20s CPU      2.62s WALL (      53 calls)
     mix_rho      :      0.01s CPU      0.01s WALL (      47 calls)

     Called by c_bands:
     init_us_2    :      0.52s CPU      0.53s WALL (    7884 calls)
     init_us_2:cp :      0.51s CPU      0.52s WALL (    7884 calls)
     cegterg      :     63.29s CPU     64.32s WALL (    3431 calls)

     Called by *egterg:
     cdiaghg      :      9.21s CPU      9.28s WALL (   11046 calls)
     h_psi        :     38.01s CPU     38.87s WALL (   12068 calls)
     s_psi        :      2.45s CPU      2.47s WALL (   12068 calls)
     g_psi        :      0.09s CPU      0.09s WALL (    8564 calls)

     Called by h_psi:
     h_psi:calbec :      4.11s CPU      4.19s WALL (   12068 calls)
     vloc_psi     :     31.38s CPU     32.12s WALL (   12068 calls)
     add_vuspsi   :      2.44s CPU      2.48s WALL (   12068 calls)

     General routines
     calbec       :      7.07s CPU      7.20s WALL (   17981 calls)
     fft          :      0.10s CPU      0.10s WALL (     607 calls)
     ffts         :      0.01s CPU      0.01s WALL (      47 calls)
     fftw         :     35.87s CPU     36.67s WALL (  506732 calls)

     Parallel routines

     PWSCF        :   1m20.69s CPU   1m22.64s WALL


   This run was terminated on:   8:37:33  18Sep2026            

=------------------------------------------------------------------------------=
   JOB DONE.
=------------------------------------------------------------------------------=
Note: The following floating-point exceptions are signalling: IEEE_INVALID_FLAG
