
     Program PWSCF v.7.2 starts on 18Sep2026 at  8:29: 8 

     This program is part of the open-source Quantum ESPRESSO suite
     for quantum simulation of materials; please cite
         "P. Giannozzi et al., J. Phys.:Condens. Matter 21 395502 (2009);
         "P. Giannozzi et al., J. Phys.:Condens. Matter 29 465901 (2017);
         "P. Giannozzi et al., J. Chem. Phys. 152 154105 (2020);
          URL http://www.quantum-espresso.org", 
     in publications or presentations arising from this work. More details at
     http://www.quantum-espresso.org/quote

     Parallel version (MPI), running on    32 processors

     MPI processes distributed on     1 nodes
     223853 MiB available memory on the printing compute node when the environment starts

     Waiting for input...
     Reading input from standard input

     Current dimensions of program PWSCF are:
     Max number of different atomic species (ntypx) = 10
     Max number of k-points (npk) =  40000
     Max angular momentum in pseudopotentials (lmaxx) =  4
     file Zr.pbe-spn-kjpaw_psl.1.0.0.UPF: wavefunction(s)  4S 4P renormalized
     file Cl.pbe-n-kjpaw_psl.1.0.0.UPF: wavefunction(s)  3S 3P renormalized
     file Br.pbe-n-kjpaw_psl.1.0.0.UPF: wavefunction(s)  4S 4P renormalized
     Message from routine setup:
     using ibrav=0 with symmetry is DISCOURAGED, use correct ibrav instead

     R & G space division:  proc/nbgrp/npool/nimage =      32
     Subspace diagonalization in iterative solution of the eigenvalue problem:
     a serial algorithm will be used


     Parallelization info
     --------------------
     sticks:   dense  smooth     PW     G-vecs:    dense   smooth      PW
     Min          24      24      7                 1584     1584     245
     Max          26      26      8                 1592     1592     257
     Sum         785     785    231                50813    50813    8019

     Using Slab Decomposition



     bravais-lattice index     =            0
     lattice parameter (alat)  =       6.6594  a.u.
     unit-cell volume          =     718.5774 (a.u.)^3
     number of atoms/cell      =            3
     number of atomic types    =            3
     number of electrons       =        26.00
     number of Kohn-Sham states=           26
     kinetic-energy cutoff     =      65.0000  Ry
     charge density cutoff     =     260.0000  Ry
     scf convergence threshold =      1.0E-08
     mixing beta               =       0.7000
     number of iterations used =            8  plain     mixing
     energy convergence thresh.=      1.0E-05
     force convergence thresh. =      1.0E-04
     Exchange-correlation= SLA  PW   PBX  PBC
                           (   1   4   3   4   0   0   0)
     nstep                     =           50


     celldm(1)=   6.659363  celldm(2)=   0.000000  celldm(3)=   0.000000
     celldm(4)=   0.000000  celldm(5)=   0.000000  celldm(6)=   0.000000

     crystal axes: (cart. coord. in units of alat)
               a(1) = (   1.000000   0.000000   0.000000 )  
               a(2) = (  -0.500000   0.857451   0.000000 )  
               a(3) = (   0.000000   0.000000   2.837698 )  

     reciprocal axes: (cart. coord. in units 2 pi/alat)
               b(1) = (  1.000000  0.583124 -0.000000 )  
               b(2) = (  0.000000  1.166248  0.000000 )  
               b(3) = (  0.000000 -0.000000  0.352398 )  


     PseudoPot. # 1 for Zr read from file:
     /mgpfs/home/rabdillah/repo/qe/pseudo/Zr.pbe-spn-kjpaw_psl.1.0.0.UPF
     MD5 check sum: 02112c41713a0468aff2bb39ef194e36
     Pseudo is Projector augmented-wave + core cor, Zval = 12.0
     Generated using &quot;atomic&quot; code by A. Dal Corso  v.6.2.2
     Shape of augmentation charge: PSQ
     Using radial grid of 1225 points,  6 beta functions with: 
                l(1) =   0
                l(2) =   0
                l(3) =   1
                l(4) =   1
                l(5) =   2
                l(6) =   2
     Q(r) pseudized with 0 coefficients 


     PseudoPot. # 2 for Cl read from file:
     /mgpfs/home/rabdillah/repo/qe/pseudo/Cl.pbe-n-kjpaw_psl.1.0.0.UPF
     MD5 check sum: 530da96d25dcb7781b0586ca00827062
     Pseudo is Projector augmented-wave + core cor, Zval =  7.0
     Generated using &quot;atomic&quot; code by A. Dal Corso  v.6.3
     Shape of augmentation charge: PSQ
     Using radial grid of 1157 points,  6 beta functions with: 
                l(1) =   0
                l(2) =   0
                l(3) =   1
                l(4) =   1
                l(5) =   2
                l(6) =   2
     Q(r) pseudized with 0 coefficients 


     PseudoPot. # 3 for Br read from file:
     /mgpfs/home/rabdillah/repo/qe/pseudo/Br.pbe-n-kjpaw_psl.1.0.0.UPF
     MD5 check sum: b00de77caabc69c0a6b76eb37264f235
     Pseudo is Projector augmented-wave + core cor, Zval =  7.0
     Generated using &quot;atomic&quot; code by A. Dal Corso  v.6.3
     Shape of augmentation charge: PSQ
     Using radial grid of 1213 points,  4 beta functions with: 
                l(1) =   0
                l(2) =   0
                l(3) =   1
                l(4) =   1
     Q(r) pseudized with 0 coefficients 


     atomic species   valence    mass     pseudopotential
        Zr            12.00    91.22400     Zr( 1.00)
        Cl             7.00    35.45300     Cl( 1.00)
        Br             7.00    79.90400     Br( 1.00)

      2 Sym. Ops. (no inversion) found



   Cartesian axes

     site n.     atom                  positions (alat units)
         1           Zr  tau(   1) = (   0.0000000   0.0000000   2.9162255  )
         2           Cl  tau(   2) = (  -0.0000000   0.5716339   3.3952461  )
         3           Br  tau(   3) = (  -0.0000000   0.5716339   2.3898036  )

     number of k points=    73
                       cart. coord. in units 2pi/alat
        k(    1) = (   0.0000000   0.0000000   0.0000000), wk =   0.0078125
        k(    2) = (   0.0000000   0.0728905   0.0000000), wk =   0.0156250
        k(    3) = (   0.0000000   0.1457809   0.0000000), wk =   0.0156250
        k(    4) = (   0.0000000   0.2186714   0.0000000), wk =   0.0156250
        k(    5) = (   0.0000000   0.2915619   0.0000000), wk =   0.0156250
        k(    6) = (   0.0000000   0.3644524   0.0000000), wk =   0.0156250
        k(    7) = (   0.0000000   0.4373428   0.0000000), wk =   0.0156250
        k(    8) = (   0.0000000   0.5102333   0.0000000), wk =   0.0156250
        k(    9) = (   0.0000000  -0.5831238   0.0000000), wk =   0.0078125
        k(   10) = (   0.0625000   0.0364452   0.0000000), wk =   0.0312500
        k(   11) = (   0.0625000   0.1093357   0.0000000), wk =   0.0312500
        k(   12) = (   0.0625000   0.1822262   0.0000000), wk =   0.0312500
        k(   13) = (   0.0625000   0.2551167   0.0000000), wk =   0.0312500
        k(   14) = (   0.0625000   0.3280071   0.0000000), wk =   0.0312500
        k(   15) = (   0.0625000   0.4008976   0.0000000), wk =   0.0312500
        k(   16) = (   0.0625000   0.4737881   0.0000000), wk =   0.0312500
        k(   17) = (   0.0625000   0.5466785   0.0000000), wk =   0.0312500
        k(   18) = (   0.1250000   0.0728905   0.0000000), wk =   0.0312500
        k(   19) = (   0.1250000   0.1457809   0.0000000), wk =   0.0312500
        k(   20) = (   0.1250000   0.2186714   0.0000000), wk =   0.0312500
        k(   21) = (   0.1250000   0.2915619   0.0000000), wk =   0.0312500
        k(   22) = (   0.1250000   0.3644524   0.0000000), wk =   0.0312500
        k(   23) = (   0.1250000   0.4373428   0.0000000), wk =   0.0312500
        k(   24) = (   0.1250000   0.5102333   0.0000000), wk =   0.0312500
        k(   25) = (   0.1250000   0.5831238   0.0000000), wk =   0.0156250
        k(   26) = (   0.1250000   0.0000000   0.0000000), wk =   0.0156250
        k(   27) = (   0.1875000   0.1093357   0.0000000), wk =   0.0312500
        k(   28) = (   0.1875000   0.1822262   0.0000000), wk =   0.0312500
        k(   29) = (   0.1875000   0.2551167   0.0000000), wk =   0.0312500
        k(   30) = (   0.1875000   0.3280071   0.0000000), wk =   0.0312500
        k(   31) = (   0.1875000   0.4008976   0.0000000), wk =   0.0312500
        k(   32) = (   0.1875000   0.4737881   0.0000000), wk =   0.0312500
        k(   33) = (   0.1875000   0.5466785   0.0000000), wk =   0.0312500
        k(   34) = (   0.1875000  -0.0364452   0.0000000), wk =   0.0312500
        k(   35) = (   0.2500000   0.1457809   0.0000000), wk =   0.0312500
        k(   36) = (   0.2500000   0.2186714   0.0000000), wk =   0.0312500
        k(   37) = (   0.2500000   0.2915619   0.0000000), wk =   0.0312500
        k(   38) = (   0.2500000   0.3644524   0.0000000), wk =   0.0312500
        k(   39) = (   0.2500000   0.4373428   0.0000000), wk =   0.0312500
        k(   40) = (   0.2500000   0.5102333   0.0000000), wk =   0.0312500
        k(   41) = (   0.2500000   0.5831238   0.0000000), wk =   0.0156250
        k(   42) = (   0.2500000  -0.0728905   0.0000000), wk =   0.0312500
        k(   43) = (   0.2500000   0.0000000   0.0000000), wk =   0.0156250
        k(   44) = (   0.3125000   0.1822262   0.0000000), wk =   0.0312500
        k(   45) = (   0.3125000   0.2551167   0.0000000), wk =   0.0312500
        k(   46) = (   0.3125000   0.3280071   0.0000000), wk =   0.0312500
        k(   47) = (   0.3125000   0.4008976   0.0000000), wk =   0.0312500
        k(   48) = (   0.3125000   0.4737881   0.0000000), wk =   0.0312500
        k(   49) = (   0.3125000   0.5466785   0.0000000), wk =   0.0312500
        k(   50) = (   0.3125000  -0.1093357   0.0000000), wk =   0.0312500
        k(   51) = (   0.3125000  -0.0364452   0.0000000), wk =   0.0312500
        k(   52) = (   0.3750000   0.2186714   0.0000000), wk =   0.0312500
        k(   53) = (   0.3750000   0.2915619   0.0000000), wk =   0.0312500
        k(   54) = (   0.3750000   0.3644524   0.0000000), wk =   0.0312500
        k(   55) = (   0.3750000   0.4373428   0.0000000), wk =   0.0312500
        k(   56) = (   0.3750000   0.5102333   0.0000000), wk =   0.0312500
        k(   57) = (   0.3750000   0.5831238   0.0000000), wk =   0.0156250
        k(   58) = (   0.3750000  -0.1457809   0.0000000), wk =   0.0312500
        k(   59) = (   0.3750000  -0.0728905   0.0000000), wk =   0.0312500
        k(   60) = (   0.3750000   0.0000000   0.0000000), wk =   0.0156250
        k(   61) = (   0.4375000   0.2551167   0.0000000), wk =   0.0312500
        k(   62) = (   0.4375000   0.3280071   0.0000000), wk =   0.0312500
        k(   63) = (   0.4375000   0.4008976   0.0000000), wk =   0.0312500
        k(   64) = (   0.4375000   0.4737881   0.0000000), wk =   0.0312500
        k(   65) = (   0.4375000   0.5466785   0.0000000), wk =   0.0312500
        k(   66) = (   0.4375000  -0.1822262   0.0000000), wk =   0.0312500
        k(   67) = (   0.4375000  -0.1093357   0.0000000), wk =   0.0312500
        k(   68) = (   0.4375000  -0.0364452   0.0000000), wk =   0.0312500
        k(   69) = (  -0.5000000  -0.2915619   0.0000000), wk =   0.0156250
        k(   70) = (  -0.5000000  -0.2186714   0.0000000), wk =   0.0312500
        k(   71) = (  -0.5000000  -0.1457809   0.0000000), wk =   0.0312500
        k(   72) = (  -0.5000000  -0.0728905   0.0000000), wk =   0.0312500
        k(   73) = (  -0.5000000   0.0000000   0.0000000), wk =   0.0156250

     Dense  grid:    50813 G-vectors     FFT dimensions: (  36,  36, 100)

     Estimated max dynamical RAM per process >      15.50 MB

     Estimated total dynamical RAM >     496.10 MB

     Check: negative core charge=   -0.000004

     Initial potential from superposition of free atoms

     starting charge      25.9978, renormalised to      26.0000
     Starting wfcs are   21 randomized atomic wfcs +    5 random wfcs
     Checking if some PAW data can be deallocated... 

     total cpu time spent up to now is        1.3 secs

     Self-consistent Calculation

     iteration #  1     ecut=    65.00 Ry     beta= 0.70
     Davidson diagonalization with overlap
     ethr =  1.00E-02,  avg # of iterations =  6.4

     Threshold (ethr) on eigenvalues was too large:
     Diagonalizing with lowered threshold

     Davidson diagonalization with overlap
     ethr =  4.19E-04,  avg # of iterations =  2.4

     negative rho (up, down):  7.098E-07 0.000E+00

     total cpu time spent up to now is        5.9 secs

     total energy              =    -591.18947717 Ry
     estimated scf accuracy    <       0.11262906 Ry

     iteration #  2     ecut=    65.00 Ry     beta= 0.70
     Davidson diagonalization with overlap
     ethr =  4.33E-04,  avg # of iterations =  4.8

     total cpu time spent up to now is        8.4 secs

     total energy              =    -591.18537123 Ry
     estimated scf accuracy    <       0.29202128 Ry

     iteration #  3     ecut=    65.00 Ry     beta= 0.70
     Davidson diagonalization with overlap
     ethr =  4.33E-04,  avg # of iterations =  2.4

     total cpu time spent up to now is       10.3 secs

     total energy              =    -591.24231991 Ry
     estimated scf accuracy    <       0.00710109 Ry

     iteration #  4     ecut=    65.00 Ry     beta= 0.70
     Davidson diagonalization with overlap
     ethr =  2.73E-05,  avg # of iterations =  5.7

     total cpu time spent up to now is       12.4 secs

     total energy              =    -591.24395513 Ry
     estimated scf accuracy    <       0.00040658 Ry

     iteration #  5     ecut=    65.00 Ry     beta= 0.70
     Davidson diagonalization with overlap
     ethr =  1.56E-06,  avg # of iterations =  5.6

     total cpu time spent up to now is       14.8 secs

     total energy              =    -591.24402643 Ry
     estimated scf accuracy    <       0.00001083 Ry

     iteration #  6     ecut=    65.00 Ry     beta= 0.70
     Davidson diagonalization with overlap
     ethr =  4.16E-08,  avg # of iterations =  2.0

     total cpu time spent up to now is       16.6 secs

     total energy              =    -591.24402773 Ry
     estimated scf accuracy    <       0.00000300 Ry

     iteration #  7     ecut=    65.00 Ry     beta= 0.70
     Davidson diagonalization with overlap
     ethr =  1.15E-08,  avg # of iterations =  2.0

     total cpu time spent up to now is       18.1 secs

     total energy              =    -591.24402860 Ry
     estimated scf accuracy    <       0.00000221 Ry

     iteration #  8     ecut=    65.00 Ry     beta= 0.70
     Davidson diagonalization with overlap
     ethr =  8.49E-09,  avg # of iterations =  1.2

     total cpu time spent up to now is       19.5 secs

     total energy              =    -591.24402902 Ry
     estimated scf accuracy    <       0.00000001 Ry

     iteration #  9     ecut=    65.00 Ry     beta= 0.70
     Davidson diagonalization with overlap
     ethr =  4.43E-11,  avg # of iterations =  2.6

     total cpu time spent up to now is       21.2 secs

     End of self-consistent calculation

          k = 0.0000 0.0000 0.0000 (  6395 PWs)   bands (ev):

   -44.9064 -23.1338 -22.7539 -22.7409 -12.7108 -12.1571  -2.0707  -0.0175
     0.1959   0.2388   1.3638   1.4161   4.2819   5.9168   6.0131   6.6215
     6.6748   6.7730   8.3738   9.4216  11.3514  13.5258  13.6756  13.9130
    14.6268  15.1843

          k = 0.0000 0.0729 0.0000 (  6405 PWs)   bands (ev):

   -44.9051 -23.1299 -22.7572 -22.7560 -12.6853 -12.1454  -2.0260  -0.0817
     0.1824   0.1829   1.2563   1.3275   4.2865   5.9454   5.9518   6.6345
     6.6814   6.9541   8.5024   9.6583  11.4167  13.1816  13.6533  14.3130
    14.6544  14.8593

          k = 0.0000 0.1458 0.0000 (  6403 PWs)   bands (ev):

   -44.9015 -23.1189 -22.7987 -22.7665 -12.6131 -12.1106  -1.9005  -0.3051
     0.0623   0.1415   0.8627   1.2326   4.2747   5.8271   6.0644   6.5896
     6.8407   7.3925   8.8605  10.2190  11.6116  12.6096  14.0167  14.0559
    14.5258  14.9075

          k = 0.0000 0.2187 0.0000 (  6377 PWs)   bands (ev):

   -44.8960 -23.1023 -22.8619 -22.7804 -12.5075 -12.0531  -1.7198  -0.6638
    -0.1355   0.0685   0.4405   1.1110   4.1936   5.8209   6.2699   6.6227
     7.0511   7.9003   9.3630  10.8019  11.8442  12.2090  13.5578  14.3340
    14.5439  15.1812

          k = 0.0000 0.2916 0.0000 (  6369 PWs)   bands (ev):

   -44.8896 -23.0827 -22.9352 -22.7968 -12.3891 -11.9740  -1.5361  -1.0583
    -0.5171  -0.0313   0.2103   0.9918   4.0478   6.0068   6.5750   6.7316
     7.2607   8.3740   9.7939  11.1838  11.7848  12.0750  13.7482  14.0517
    15.0065  15.0395

          k = 0.0000 0.3645 0.0000 (  6355 PWs)   bands (ev):

   -44.8832 -23.0630 -23.0072 -22.8130 -12.2806 -11.8786  -1.5792  -1.2382
    -0.9473  -0.1413   0.1232   0.8914   3.9109   6.3430   6.8746   6.9627
     7.4336   8.7946   9.9306  11.2694  11.6926  12.0516  13.7403  14.3182
    14.6795  14.8367

          k = 0.0000 0.4373 0.0000 (  6338 PWs)   bands (ev):

   -44.8777 -23.0679 -23.0457 -22.8267 -12.1984 -11.7823  -1.8752  -1.3451
    -1.0969  -0.2392   0.0883   0.8162   3.8334   6.7207   7.0309   7.3757
     7.5581   9.1476   9.8571  11.1048  11.7308  12.0523  13.2600  14.2512
    14.2704  14.6250

          k = 0.0000 0.5102 0.0000 (  6344 PWs)   bands (ev):

   -44.8740 -23.1075 -23.0347 -22.8359 -12.1485 -11.7097  -2.0929  -1.5591
    -1.0333  -0.3059   0.0761   0.7696   3.8105   6.9373   7.2579   7.6064
     7.7402   9.3805   9.7653  10.9650  11.7181  12.0644  12.7333  13.7465
    14.1164  14.3846

          k = 0.0000-0.5831 0.0000 (  6346 PWs)   bands (ev):

   -44.8728 -23.1213 -23.0308 -22.8391 -12.1318 -11.6827  -2.1705  -1.6342
    -1.0102  -0.3295   0.0736   0.7538   3.8090   6.9833   7.3931   7.6334
     7.8735   9.4338   9.7619  10.9200  11.6443  12.1112  12.5414  13.5481
    14.0094  14.2578

          k = 0.0625 0.0364 0.0000 (  6409 PWs)   bands (ev):

   -44.9051 -23.1301 -22.7669 -22.7457 -12.6858 -12.1459  -2.0268  -0.0879
     0.1538   0.2193   1.2174   1.3716   4.2839   5.8703   6.0329   6.5984
     6.7233   6.9525   8.4971   9.6509  11.4152  13.1246  13.7620  14.2733
    14.6330  14.7943

          k = 0.0625 0.1093 0.0000 (  6413 PWs)   bands (ev):

   -44.9027 -23.1226 -22.7889 -22.7590 -12.6370 -12.1227  -1.9416  -0.2303
     0.0768   0.1803   0.9675   1.2798   4.2808   5.8230   6.0621   6.5842
     6.8063   7.2611   8.7409  10.0486  11.5480  12.7477  13.8805  14.2379
    14.5812  14.7844

          k = 0.0625 0.1822 0.0000 (  6385 PWs)   bands (ev):

   -44.8982 -23.1088 -22.8380 -22.7744 -12.5480 -12.0765  -1.7873  -0.5171
    -0.0646   0.1054   0.5766   1.1526   4.2393   5.7577   6.2274   6.6011
     6.9777   7.7287   9.1773  10.6133  11.8138  12.3174  13.6296  14.1297
    14.6323  15.1289

          k = 0.0625 0.2551 0.0000 (  6363 PWs)   bands (ev):

   -44.8922 -23.0907 -22.9037 -22.7920 -12.4360 -12.0079  -1.5981  -0.8904
    -0.3226  -0.0534   0.3022   1.0115   4.1335   5.8273   6.5092   6.6957
     7.1757   8.2135   9.6633  11.0711  11.9316  12.1546  13.4031  14.0603
    14.8586  15.1270

          k = 0.0625 0.3280 0.0000 (  6348 PWs)   bands (ev):

   -44.8858 -23.0710 -22.9743 -22.8103 -12.3231 -11.9196  -1.4726  -1.2181
    -0.7448  -0.1826   0.1902   0.8763   4.0045   6.0693   6.8090   6.9167
     7.3531   8.6652   9.9391  11.3132  11.8217  12.0901  13.7603  14.0056
    14.6292  14.9343

          k = 0.0625 0.4009 0.0000 (  6353 PWs)   bands (ev):

   -44.8798 -23.0532 -23.0382 -22.8271 -12.2292 -11.8216  -1.7081  -1.2276
    -1.0966  -0.2736   0.1275   0.7625   3.9152   6.4373   6.9689   7.3146
     7.4876   9.0770   9.9297  11.2811  11.7795  12.0878  13.5284  14.0429
    14.4453  14.7415

          k = 0.0625 0.4738 0.0000 (  6348 PWs)   bands (ev):

   -44.8753 -23.0875 -23.0385 -22.8399 -12.1646 -11.7348  -1.9694  -1.4617
    -1.0564  -0.3368   0.0907   0.6810   3.8836   6.8325   7.1124   7.5408
     7.6741   9.4206   9.8178  11.1422  11.7943  12.0686  12.9353  13.6813
    14.3373  14.6047

          k = 0.0625 0.5467 0.0000 (  6338 PWs)   bands (ev):

   -44.8728 -23.1136 -23.0309 -22.8468 -12.1321 -11.6836  -2.1149  -1.6097
    -1.0100  -0.3700   0.0743   0.6387   3.8838   7.0297   7.3182   7.5782
     7.8127   9.5075   9.8797  11.0630  11.7369  12.1032  12.5109  13.4163
    14.2199  14.3309

          k = 0.1250 0.0729 0.0000 (  6403 PWs)   bands (ev):

   -44.9017 -23.1193 -22.8075 -22.7555 -12.6153 -12.1125  -1.9034  -0.3207
     0.0487   0.1769   0.8332   1.2805   4.2642   5.7778   6.1346   6.5705
     6.8746   7.3883   8.8436  10.2003  11.6041  12.5802  14.0142  14.1124
    14.4985  14.8633

          k = 0.1250 0.1458 0.0000 (  6383 PWs)   bands (ev):

   -44.8983 -23.1091 -22.8420 -22.7687 -12.5496 -12.0780  -1.7893  -0.5273
    -0.0677   0.1219   0.5634   1.1814   4.2299   5.7475   6.2527   6.5913
     6.9953   7.7263   9.1669  10.6041  11.8055  12.3049  13.6159  14.1332
    14.6565  15.1037

          k = 0.1250 0.2187 0.0000 (  6380 PWs)   bands (ev):

   -44.8933 -23.0938 -22.8931 -22.7884 -12.4542 -12.0207  -1.6227  -0.8200
    -0.2487  -0.0780   0.3415   1.0226   4.1713   5.7326   6.5258   6.6847
     7.1508   8.1634   9.6050  11.0234  12.0655  12.1946  13.1675  13.9690
    14.8552  15.0259

          k = 0.1250 0.2916 0.0000 (  6376 PWs)   bands (ev):

   -44.8874 -23.0756 -22.9526 -22.8116 -12.3481 -11.9419  -1.4457  -1.1454
    -0.5749  -0.2890   0.2379   0.8338   4.1001   5.8360   6.8147   6.9370
     7.3044   8.6231   9.9532  11.3155  12.0238  12.3656  13.1759  13.7863
    14.5544  14.9172

          k = 0.1250 0.3645 0.0000 (  6363 PWs)   bands (ev):

   -44.8814 -23.0575 -23.0111 -22.8347 -12.2516 -11.8480  -1.5227  -1.2263
    -0.9731  -0.3926   0.1635   0.6437   4.0500   6.0901   6.9898   7.3268
     7.4608   9.0842  10.0297  11.4679  12.0408  12.2130  13.5597  13.7308
    14.0021  14.7610

          k = 0.1250 0.4373 0.0000 (  6347 PWs)   bands (ev):

   -44.8764 -23.0606 -23.0414 -22.8542 -12.1781 -11.7551  -1.7836  -1.3310
    -1.0832  -0.4488   0.1044   0.4805   4.0449   6.4669   7.1285   7.4810
     7.7262   9.5567   9.9172  11.4669  11.9631  12.1303  13.0593  13.6051
    14.4011  14.6731

          k = 0.1250 0.5102 0.0000 (  6339 PWs)   bands (ev):

   -44.8730 -23.0928 -23.0313 -22.8671 -12.1330 -11.6862  -1.9633  -1.5420
    -1.0125  -0.4743   0.0665   0.3696   4.0693   6.8834   7.2280   7.5263
     7.8173   9.6983  10.0893  11.4261  11.8794  12.0965  12.5351  13.4035
    14.3544  14.5856

          k = 0.1250 0.5831 0.0000 (  6346 PWs)   bands (ev):

   -44.8718 -23.1041 -23.0277 -22.8717 -12.1178 -11.6607  -2.0269  -1.6154
    -0.9888  -0.4810   0.0535   0.3303   4.0844   7.0903   7.3141   7.5280
     7.7496   9.6129  10.3544  11.4163  11.8577  12.1508  12.1816  13.3359
    14.3180  14.4339

          k = 0.1250 0.0000 0.0000 (  6385 PWs)   bands (ev):

   -44.9028 -23.1229 -22.7953 -22.7509 -12.6386 -12.1241  -1.9438  -0.2399
     0.0721   0.1986   0.9507   1.3088   4.2755   5.7768   6.1221   6.5770
     6.8267   7.2581   8.7272  10.0331  11.5447  12.7191  13.9798  14.2051
    14.5280  14.7668

          k = 0.1875 0.1093 0.0000 (  6387 PWs)   bands (ev):

   -44.8965 -23.1032 -22.8688 -22.7688 -12.5119 -12.0575  -1.7255  -0.6802
    -0.1473   0.1074   0.4223   1.1659   4.1736   5.7944   6.3303   6.6156
     7.0788   7.8953   9.3362  10.7816  11.8279  12.1874  13.5375  14.2925
    14.6309  15.1245

          k = 0.1875 0.1822 0.0000 (  6368 PWs)   bands (ev):

   -44.8926 -23.0915 -22.9086 -22.7830 -12.4398 -12.0120  -1.6027  -0.9046
    -0.3349  -0.0279   0.2991   1.0589   4.1135   5.8251   6.5387   6.6868
     7.1987   8.2105   9.6461  11.0595  11.9199  12.1316  13.3910  14.0211
    14.8983  15.1047

          k = 0.1875 0.2551 0.0000 (  6366 PWs)   bands (ev):

   -44.8876 -23.0761 -22.9549 -22.8068 -12.3503 -11.9445  -1.4480  -1.1531
    -0.5831  -0.2766   0.2417   0.8583   4.0887   5.8392   6.8129   6.9451
     7.3149   8.6226   9.9465  11.3096  12.0156  12.3691  13.1613  13.7587
    14.5687  14.9029

          k = 0.1875 0.3280 0.0000 (  6363 PWs)   bands (ev):

   -44.8821 -23.0594 -23.0003 -22.8366 -12.2612 -11.8592  -1.4238  -1.2592
    -0.8955  -0.4546   0.1614   0.6081   4.1123   5.9430   7.0022   7.3251
     7.4797   9.0920  10.0800  11.5157  12.2449  12.4505  13.2474  13.5625
    13.7074  14.8343

          k = 0.1875 0.4009 0.0000 (  6362 PWs)   bands (ev):

   -44.8771 -23.0449 -23.0383 -22.8667 -12.1868 -11.7678  -1.6245  -1.2158
    -1.1199  -0.5466   0.0565   0.3684   4.1817   6.1780   7.1242   7.5068
     7.7847   9.6202  10.0419  11.6664  12.1784  12.3355  13.0831  13.4782
    14.0268  14.5921

          k = 0.1875 0.4738 0.0000 (  6346 PWs)   bands (ev):

   -44.8732 -23.0676 -23.0318 -22.8911 -12.1346 -11.6898  -1.7750  -1.4554
    -1.0248  -0.5874  -0.0441   0.1874   4.2746   6.5250   7.1607   7.6549
     7.8708   9.9170  10.2338  11.7059  11.8327  12.2893  12.8485  13.5840
    14.3251  14.5642

          k = 0.1875 0.5467 0.0000 (  6344 PWs)   bands (ev):

   -44.8711 -23.0822 -23.0254 -22.9048 -12.1079 -11.6447  -1.8538  -1.5864
    -0.9766  -0.6005  -0.1051   0.0912   4.3434   6.8764   7.1718   7.7016
     7.7494   9.7968  10.7988  11.5926  11.8673  12.2773  12.4232  13.5080
    14.3834  14.5124

          k = 0.1875-0.0364 0.0000 (  6391 PWs)   bands (ev):

   -44.8986 -23.1096 -22.8443 -22.7639 -12.5520 -12.0802  -1.7924  -0.5285
    -0.0648   0.1261   0.5677   1.1885   4.2279   5.7219   6.2902   6.6098
     6.9918   7.7240   9.1493  10.5904  11.8047  12.3057  13.6148  14.1916
    14.6134  15.0950

          k = 0.2500 0.1458 0.0000 (  6374 PWs)   bands (ev):

   -44.8903 -23.0842 -22.9403 -22.7842 -12.3959 -11.9817  -1.5440  -1.0716
    -0.5289   0.0130   0.2003   1.0534   4.0231   5.9946   6.6218   6.7321
     7.2846   8.3700   9.7677  11.1667  11.7714  12.0553  13.7247  13.9943
    14.9644  15.0904

          k = 0.2500 0.2187 0.0000 (  6361 PWs)   bands (ev):

   -44.8865 -23.0724 -22.9787 -22.7990 -12.3293 -11.9272  -1.4805  -1.2305
    -0.7568  -0.1524   0.1940   0.9362   3.9789   6.0701   6.8116   6.9370
     7.3766   8.6641   9.9212  11.2980  11.8157  12.0781  13.7094  13.9532
    14.6237  14.9429

          k = 0.2500 0.2916 0.0000 (  6352 PWs)   bands (ev):

   -44.8819 -23.0585 -23.0142 -22.8262 -12.2561 -11.8542  -1.5321  -1.2315
    -0.9810  -0.3725   0.1699   0.6855   4.0311   6.0925   6.9896   7.3410
     7.4741   9.0863  10.0161  11.4579  12.0516  12.2162  13.5162  13.7518
    13.9540  14.7236

          k = 0.2500 0.3645 0.0000 (  6351 PWs)   bands (ev):

   -44.8774 -23.0455 -23.0398 -22.8623 -12.1891 -11.7713  -1.6298  -1.2163
    -1.1234  -0.5368   0.0628   0.3845   4.1729   6.1772   7.1267   7.5124
     7.7905   9.6215  10.0327  11.6630  12.1842  12.3590  13.1224  13.4233
    13.9879  14.5622

          k = 0.2500 0.4373 0.0000 (  6351 PWs)   bands (ev):

   -44.8735 -23.0559 -23.0324 -22.9006 -12.1368 -11.6936  -1.6809  -1.4096
    -1.0380  -0.6328  -0.1514   0.1709   4.3679   6.3575   7.1211   7.7390
     7.8992  10.0113  10.2812  11.6438  11.9119  12.5285  13.1377  13.5979
    14.2129  14.3306

          k = 0.2500 0.5102 0.0000 (  6340 PWs)   bands (ev):

   -44.8709 -23.0599 -23.0245 -22.9319 -12.1037 -11.6381  -1.6919  -1.5375
    -0.9761  -0.6978  -0.3559   0.0611   4.5483   6.6115   7.0760   7.7191
     7.9345  10.0037  10.8496  11.4418  12.0822  12.5996  12.9627  13.6878
    14.2106  14.4640

          k = 0.2500 0.5831 0.0000 (  6346 PWs)   bands (ev):

   -44.8700 -23.0596 -23.0217 -22.9446 -12.0924 -11.6180  -1.6970  -1.5714
    -0.9547  -0.7329  -0.4263   0.0239   4.6239   6.7816   7.0551   7.5452
     8.0064   9.9897  10.9270  11.7492  12.1926  12.5989  12.6210  13.5555
    14.4775  14.4822

          k = 0.2500-0.0729 0.0000 (  6385 PWs)   bands (ev):

   -44.8929 -23.0921 -22.9082 -22.7806 -12.4426 -12.0148  -1.6060  -0.8980
    -0.3278  -0.0231   0.3007   1.0525   4.1186   5.8098   6.5563   6.7150
     7.1846   8.2086   9.6306  11.0526  11.9285  12.1405  13.4034  14.0542
    14.8683  15.0991

          k = 0.2500 0.0000 0.0000 (  6375 PWs)   bands (ev):

   -44.8938 -23.0948 -22.8949 -22.7813 -12.4593 -12.0259  -1.6290  -0.8171
    -0.2430  -0.0664   0.3470   1.0312   4.1701   5.7128   6.5610   6.7219
     7.1383   8.1596   9.5756  11.0080  12.0779  12.1955  13.1789  14.0005
    14.8290  15.0107

          k = 0.3125 0.1822 0.0000 (  6360 PWs)   bands (ev):

   -44.8842 -23.0651 -23.0106 -22.7994 -12.2897 -11.8903  -1.5885  -1.2471
    -0.9539  -0.0911   0.1136   0.9585   3.8853   6.3378   6.8801   6.9917
     7.4564   8.7936   9.9053  11.2617  11.6863  12.0345  13.6681  14.2673
    14.6096  14.9271

          k = 0.3125 0.2551 0.0000 (  6349 PWs)   bands (ev):

   -44.8808 -23.0551 -23.0416 -22.8141 -12.2375 -11.8331  -1.7196  -1.2317
    -1.1057  -0.2362   0.1292   0.8299   3.8876   6.4346   6.9722   7.3356
     7.5096   9.0810   9.9020  11.2825  11.7768  12.0744  13.4610  14.0563
    14.4208  14.7006

          k = 0.3125 0.3280 0.0000 (  6340 PWs)   bands (ev):

   -44.8772 -23.0634 -23.0432 -22.8433 -12.1849 -11.7651  -1.7941  -1.3316
    -1.0900  -0.4208   0.1077   0.5321   4.0229   6.4616   7.1346   7.4970
     7.7409   9.5643   9.8880  11.4776  11.9701  12.1296  13.0746  13.5661
    14.3574  14.6176

          k = 0.3125 0.4009 0.0000 (  6346 PWs)   bands (ev):

   -44.8738 -23.0697 -23.0330 -22.8835 -12.1393 -11.6971  -1.7819  -1.4532
    -1.0288  -0.5691  -0.0298   0.2050   4.2622   6.5153   7.1655   7.6678
     7.8813   9.8845  10.2473  11.7187  11.8524  12.3112  12.8430  13.5562
    14.2877  14.5277

          k = 0.3125 0.4738 0.0000 (  6344 PWs)   bands (ev):

   -44.8712 -23.0609 -23.0251 -22.9281 -12.1061 -11.6419  -1.6932  -1.5356
    -0.9782  -0.6892  -0.3442   0.0605   4.5452   6.6022   7.0772   7.7231
     7.9440   9.9825  10.8673  11.4509  12.0861  12.6176  12.9286  13.7186
    14.1980  14.4541

          k = 0.3125 0.5467 0.0000 (  6350 PWs)   bands (ev):

   -44.8698 -23.0434 -23.0209 -22.9651 -12.0886 -11.6110  -1.6578  -1.4766
    -0.9478  -0.8564  -0.5286   0.0019   4.7584   6.6891   7.0075   7.4872
     8.1260  10.1349  10.7121  12.0575  12.2890  12.8075  12.9487  13.2599
    14.3618  14.5858

          k = 0.3125-0.1093 0.0000 (  6360 PWs)   bands (ev):

   -44.8868 -23.0730 -22.9769 -22.7981 -12.3319 -11.9303  -1.4796  -1.2240
    -0.7464  -0.1438   0.1864   0.9231   3.9894   6.0648   6.8326   6.9392
     7.3626   8.6611   9.9134  11.3017  11.8214  12.0821  13.7339  13.9860
    14.5816  14.9411

          k = 0.3125-0.0364 0.0000 (  6369 PWs)   bands (ev):

   -44.8882 -23.0772 -22.9531 -22.8031 -12.3556 -11.9507  -1.4533  -1.1390
    -0.5668  -0.2660   0.2385   0.8462   4.1006   5.8278   6.8560   6.9556
     7.2906   8.6173   9.9267  11.3066  12.0363  12.3801  13.1894  13.8016
    14.4991  14.8867

          k = 0.3750 0.2187 0.0000 (  6344 PWs)   bands (ev):

   -44.8790 -23.0699 -23.0484 -22.8122 -12.2092 -11.7978  -1.8832  -1.3426
    -1.1062  -0.1838   0.0766   0.8875   3.8069   6.7223   7.0394   7.3844
     7.5803   9.1505   9.8183  11.1243  11.7135  12.0305  13.1929  14.2062
    14.3560  14.5679

          k = 0.3750 0.2916 0.0000 (  6345 PWs)   bands (ev):

   -44.8765 -23.0897 -23.0410 -22.8258 -12.1747 -11.7500  -1.9791  -1.4585
    -1.0642  -0.2911   0.0863   0.7514   3.8558   6.8286   7.1173   7.5635
     7.6865   9.4267   9.7757  11.1727  11.7744  12.0410  12.8930  13.7360
    14.2952  14.5670

          k = 0.3750 0.3645 0.0000 (  6342 PWs)   bands (ev):

   -44.8740 -23.0947 -23.0335 -22.8549 -12.1417 -11.6997  -1.9714  -1.5365
    -1.0184  -0.4382   0.0629   0.4242   4.0481   6.8701   7.2338   7.5477
     7.8312   9.6619  10.0932  11.4697  11.8736  12.0751  12.5218  13.4088
    14.3128  14.5714

          k = 0.3750 0.4373 0.0000 (  6349 PWs)   bands (ev):

   -44.8720 -23.0836 -23.0271 -22.8956 -12.1146 -11.6554  -1.8571  -1.5785
    -0.9808  -0.5757  -0.0833   0.0980   4.3334   6.8575   7.1730   7.7124
     7.7706   9.7579  10.8140  11.6203  11.9137  12.2650  12.3794  13.5194
    14.3524  14.5201

          k = 0.3750 0.5102 0.0000 (  6345 PWs)   bands (ev):

   -44.8706 -23.0600 -23.0228 -22.9391 -12.0968 -11.6250  -1.6918  -1.5642
    -0.9577  -0.7211  -0.4111   0.0173   4.6259   6.7673   7.0546   7.5373
     8.0268   9.9591  10.9611  11.7356  12.2101  12.5818  12.6215  13.6179
    14.4616  14.4925

          k = 0.3750 0.5831 0.0000 (  6344 PWs)   bands (ev):

   -44.8701 -23.0425 -23.0213 -22.9637 -12.0906 -11.6143  -1.6519  -1.4670
    -0.9484  -0.8584  -0.5252  -0.0031   4.7648   6.6863   7.0070   7.4704
     8.1366  10.1220  10.7271  12.0050  12.3070  12.8286  12.9837  13.2750
    14.3243  14.6084

          k = 0.3750-0.1458 0.0000 (  6367 PWs)   bands (ev):

   -44.8811 -23.0555 -23.0396 -22.8140 -12.2397 -11.8360  -1.7104  -1.2290
    -1.1000  -0.2261   0.1181   0.8158   3.8993   6.4418   6.9899   7.3143
     7.5005   9.0758   9.9000  11.2931  11.7756  12.0737  13.4748  14.0170
    14.4283  14.7486

          k = 0.3750-0.0729 0.0000 (  6364 PWs)   bands (ev):

   -44.8825 -23.0596 -23.0106 -22.8249 -12.2608 -11.8604  -1.5155  -1.2329
    -0.9620  -0.3620   0.1600   0.6632   4.0504   6.0907   7.0289   7.3208
     7.4523   9.0775  10.0100  11.4716  12.0595  12.2179  13.5585  13.7037
    14.0083  14.7287

          k = 0.3750 0.0000 0.0000 (  6373 PWs)   bands (ev):

   -44.8830 -23.0611 -22.9974 -22.8317 -12.2684 -11.8687  -1.4054  -1.2650
    -0.8744  -0.4387   0.1554   0.5965   4.1279   5.9381   7.0536   7.3045
     7.4610   9.0821  10.0673  11.5216  12.2565  12.4865  13.2627  13.5605
    13.7055  14.8082

          k = 0.4375 0.2551 0.0000 (  6336 PWs)   bands (ev):

   -44.8755 -23.1085 -23.0377 -22.8208 -12.1603 -11.7279  -2.0997  -1.5518
    -1.0410  -0.2470   0.0624   0.8436   3.7826   6.9485   7.2679   7.6296
     7.7286   9.3663   9.7282  11.0052  11.6887  12.0202  12.6848  13.8646
    14.0845  14.3373

          k = 0.4375 0.3280 0.0000 (  6344 PWs)   bands (ev):

   -44.8742 -23.1147 -23.0337 -22.8322 -12.1434 -11.7013  -2.1218  -1.6016
    -1.0166  -0.3176   0.0637   0.7083   3.8572   7.0398   7.3183   7.6010
     7.8095   9.4689   9.8688  11.1120  11.7017  12.0520  12.4897  13.4811
    14.2068  14.3101

          k = 0.4375 0.4009 0.0000 (  6343 PWs)   bands (ev):

   -44.8730 -23.1048 -23.0302 -22.8592 -12.1279 -11.6766  -2.0302  -1.6049
    -0.9945  -0.4391   0.0441   0.3806   4.0675   7.0900   7.3128   7.5547
     7.7444   9.5663  10.3553  11.4803  11.8420  12.1240  12.1657  13.3459
    14.2770  14.4625

          k = 0.4375 0.4738 0.0000 (  6347 PWs)   bands (ev):

   -44.8721 -23.0820 -23.0274 -22.8957 -12.1159 -11.6576  -1.8492  -1.5727
    -0.9813  -0.5730  -0.0853   0.0882   4.3410   6.8710   7.1742   7.6819
     7.7732   9.7585  10.7915  11.6149  11.9390  12.2524  12.4105  13.5105
    14.3588  14.5352

          k = 0.4375 0.5467 0.0000 (  6341 PWs)   bands (ev):

   -44.8716 -23.0578 -23.0259 -22.9274 -12.1094 -11.6473  -1.6767  -1.5212
    -0.9797  -0.6858  -0.3502   0.0487   4.5601   6.6076   7.0774   7.6765
     7.9607   9.9802  10.8502  11.4230  12.1242  12.6159  12.9993  13.6939
    14.2043  14.4574

          k = 0.4375-0.1822 0.0000 (  6344 PWs)   bands (ev):

   -44.8767 -23.0881 -23.0413 -22.8259 -12.1761 -11.7521  -1.9719  -1.4529
    -1.0646  -0.2830   0.0770   0.7410   3.8646   6.8435   7.1317   7.5585
     7.6538   9.4138   9.7782  11.1802  11.7788  12.0410  12.8960  13.7075
    14.3116  14.5999

          k = 0.4375-0.1093 0.0000 (  6346 PWs)   bands (ev):

   -44.8776 -23.0598 -23.0439 -22.8431 -12.1884 -11.7703  -1.7770  -1.3180
    -1.0906  -0.4108   0.0970   0.5097   4.0415   6.4730   7.1550   7.4927
     7.6951   9.5492   9.8876  11.5005  11.9681  12.1226  13.0748  13.5702
    14.3787  14.6654

          k = 0.4375-0.0364 0.0000 (  6362 PWs)   bands (ev):

   -44.8781 -23.0463 -23.0358 -22.8604 -12.1951 -11.7800  -1.6048  -1.1971
    -1.1248  -0.5246   0.0524   0.3612   4.1956   6.1776   7.1514   7.5117
     7.7459   9.6054  10.0293  11.6878  12.1685  12.3743  13.1190  13.4691
    14.0288  14.5692

          k =-0.5000-0.2916 0.0000 (  6336 PWs)   bands (ev):

   -44.8743 -23.1221 -23.0338 -22.8238 -12.1441 -11.7018  -2.1769  -1.6253
    -1.0170  -0.2693   0.0591   0.8286   3.7804   6.9971   7.4072   7.6591
     7.8506   9.3876   9.7487  10.9679  11.6073  12.0531  12.5018  13.6748
    13.9977  14.2121

          k =-0.5000-0.2187 0.0000 (  6332 PWs)   bands (ev):

   -44.8743 -23.1141 -23.0339 -22.8323 -12.1439 -11.7021  -2.1192  -1.5997
    -1.0168  -0.3146   0.0601   0.7045   3.8605   7.0436   7.3346   7.6003
     7.7869   9.4591   9.8709  11.1146  11.7103  12.0521  12.4868  13.4735
    14.2129  14.3193

          k =-0.5000-0.1458 0.0000 (  6346 PWs)   bands (ev):

   -44.8743 -23.0925 -23.0339 -22.8551 -12.1435 -11.7026  -1.9611  -1.5288
    -1.0191  -0.4317   0.0562   0.4102   4.0593   6.8905   7.2426   7.5520
     7.7819   9.6546  10.0801  11.4858  11.8848  12.0671  12.5315  13.4003
    14.3221  14.5998

          k =-0.5000-0.0729 0.0000 (  6349 PWs)   bands (ev):

   -44.8743 -23.0657 -23.0339 -22.8832 -12.1432 -11.7032  -1.7614  -1.4373
    -1.0307  -0.5611  -0.0377   0.1827   4.2815   6.5259   7.1703   7.6816
     7.8235   9.8869  10.2179  11.7275  11.8712  12.2979  12.8856  13.5551
    14.3099  14.5634

          k =-0.5000 0.0000 0.0000 (  6355 PWs)   bands (ev):

   -44.8743 -23.0518 -23.0338 -22.8977 -12.1430 -11.7034  -1.6567  -1.3885
    -1.0424  -0.6190  -0.1590   0.1536   4.3879   6.3574   7.1274   7.7572
     7.8463  10.0045  10.2540  11.6421  11.9440  12.5513  13.1964  13.5895
    14.2110  14.3386

     highest occupied, lowest unoccupied level (ev):     4.7648    5.7128

!    total energy              =    -591.24402902 Ry
     total all-electron energy =    -13333.877305 Ry
     estimated scf accuracy    <          7.1E-10 Ry

     The total energy is the sum of the following terms:
     one-electron contribution =    -203.56729492 Ry
     hartree contribution      =     109.60650952 Ry
     xc contribution           =     -37.58887967 Ry
     ewald contribution        =     -28.57879015 Ry
     one-center paw contrib.   =    -431.11557381 Ry

     convergence has been achieved in   9 iterations

     Forces acting on atoms (cartesian axes, Ry/au):

     atom    1 type  1   force =     0.00000000   -0.00130604   -0.00007279
     atom    2 type  2   force =     0.00000000    0.00061556   -0.00190619
     atom    3 type  3   force =     0.00000000    0.00069048    0.00197898
     The non-local contrib.  to forces
     atom    1 type  1   force =     0.00000000   -0.00172573   -0.00062632
     atom    2 type  2   force =     0.00000000   -0.00072213   -0.21354846
     atom    3 type  3   force =     0.00000000   -0.00062482    0.21001786
     The ionic contribution  to forces
     atom    1 type  1   force =    -0.00000001   -0.08266662   -0.31922438
     atom    2 type  2   force =     0.00000000    0.04665824   20.94113951
     atom    3 type  3   force =     0.00000000    0.03600839  -20.62191513
     The local contribution  to forces
     atom    1 type  1   force =     0.00000000    0.08304633    0.31943781
     atom    2 type  2   force =     0.00000003   -0.04528571  -20.73753208
     atom    3 type  3   force =    -0.00000000   -0.03460019   20.41771723
     The core correction contribution to forces
     atom    1 type  1   force =     0.00000000    0.00003924    0.00036565
     atom    2 type  2   force =    -0.00000000   -0.00003632    0.00808274
     atom    3 type  3   force =    -0.00000000   -0.00009370   -0.00377258
     The Hubbard contrib.    to forces
     atom    1 type  1   force =     0.00000000    0.00000000    0.00000000
     atom    2 type  2   force =     0.00000000    0.00000000    0.00000000
     atom    3 type  3   force =     0.00000000    0.00000000    0.00000000
     The SCF correction term to forces
     atom    1 type  1   force =    -0.00000000    0.00000020    0.00002058
     atom    2 type  2   force =     0.00000000    0.00000093   -0.00000175
     atom    3 type  3   force =     0.00000000    0.00000024   -0.00002227

     Total force =     0.003181     Total SCF correction =     0.000030

     BFGS Geometry Optimization
     Energy error            =      0.0E+00 Ry
     Gradient error          =      2.0E-03 Ry/Bohr

     number of scf cycles    =   1
     number of bfgs steps    =   0

     energy             new  =    -591.2440290205 Ry

     new trust radius        =       0.0020959724 bohr
     new conv_thr            =       0.0000000100 Ry


ATOMIC_POSITIONS (angstrom)
Zr            0.0000000000       -0.0006911240       10.2766916041
Cl           -0.0000000017        2.0147541620       11.9637819610
Br           -0.0000000017        2.0147938066        8.4226752094



     Writing config-only to output data dir ./tmp/ZrClBr.save/
     NEW-OLD atomic charge density approx. for the potential

     Check: negative core charge=   -0.000004

     total cpu time spent up to now is       21.7 secs

     Self-consistent Calculation

     iteration #  1     ecut=    65.00 Ry     beta= 0.70
     Davidson diagonalization with overlap
     ethr =  1.00E-06,  avg # of iterations =  2.0

     Threshold (ethr) on eigenvalues was too large:
     Diagonalizing with lowered threshold

     Davidson diagonalization with overlap
     ethr =  2.45E-09,  avg # of iterations =  4.0

     total cpu time spent up to now is       25.4 secs

     total energy              =    -591.24403786 Ry
     estimated scf accuracy    <       0.00000068 Ry

     iteration #  2     ecut=    65.00 Ry     beta= 0.70
     Davidson diagonalization with overlap
     ethr =  2.61E-09,  avg # of iterations =  2.0

     total cpu time spent up to now is       27.0 secs

     total energy              =    -591.24403779 Ry
     estimated scf accuracy    <       0.00000235 Ry

     iteration #  3     ecut=    65.00 Ry     beta= 0.70
     Davidson diagonalization with overlap
     ethr =  2.61E-09,  avg # of iterations =  2.0

     total cpu time spent up to now is       28.6 secs

     total energy              =    -591.24403821 Ry
     estimated scf accuracy    <       0.00000002 Ry

     iteration #  4     ecut=    65.00 Ry     beta= 0.70
     Davidson diagonalization with overlap
     ethr =  6.29E-11,  avg # of iterations =  2.0

     total cpu time spent up to now is       30.1 secs

     End of self-consistent calculation

          k = 0.0000 0.0000 0.0000 (  6395 PWs)   bands (ev):

   -44.9039 -23.1319 -22.7519 -22.7388 -12.7126 -12.1578  -2.0725  -0.0167
     0.1927   0.2368   1.3596   1.4139   4.2857   5.9184   6.0168   6.6246
     6.6735   6.7737   8.3730   9.4216  11.3494  13.5264  13.6735  13.9170
    14.6261  15.1833

          k = 0.0000 0.0729 0.0000 (  6405 PWs)   bands (ev):

   -44.9026 -23.1280 -22.7552 -22.7539 -12.6871 -12.1462  -2.0279  -0.0814
     0.1797   0.1809   1.2542   1.3233   4.2902   5.9489   5.9534   6.6334
     6.6845   6.9548   8.5018   9.6580  11.4148  13.1820  13.6539  14.3145
    14.6542  14.8629

          k = 0.0000 0.1458 0.0000 (  6403 PWs)   bands (ev):

   -44.8990 -23.1170 -22.7967 -22.7645 -12.6148 -12.1114  -1.9024  -0.3059
     0.0617   0.1383   0.8611   1.2287   4.2780   5.8305   6.0660   6.5890
     6.8439   7.3934   8.8605  10.2180  11.6101  12.6104  14.0173  14.0596
    14.5267  14.9071

          k = 0.0000 0.2187 0.0000 (  6377 PWs)   bands (ev):

   -44.8936 -23.1004 -22.8599 -22.7784 -12.5091 -12.0541  -1.7219  -0.6652
    -0.1361   0.0653   0.4399   1.1072   4.1964   5.8243   6.2713   6.6226
     7.0545   7.9011   9.3643  10.7999  11.8438  12.2098  13.5607  14.3345
    14.5445  15.1813

          k = 0.0000 0.2916 0.0000 (  6369 PWs)   bands (ev):

   -44.8871 -23.0807 -22.9332 -22.7947 -12.3905 -11.9753  -1.5384  -1.0597
    -0.5184  -0.0345   0.2108   0.9883   4.0502   6.0099   6.5763   6.7319
     7.2643   8.3748   9.7969  11.1816  11.7849  12.0759  13.7498  14.0512
    15.0075  15.0413

          k = 0.0000 0.3645 0.0000 (  6355 PWs)   bands (ev):

   -44.8807 -23.0610 -23.0053 -22.8110 -12.2819 -11.8801  -1.5813  -1.2398
    -0.9490  -0.1445   0.1242   0.8882   3.9132   6.3455   6.8753   6.9639
     7.4375   8.7959   9.9342  11.2694  11.6920  12.0518  13.7406  14.3185
    14.6813  14.8381

          k = 0.0000 0.4373 0.0000 (  6338 PWs)   bands (ev):

   -44.8752 -23.0660 -23.0437 -22.8247 -12.1996 -11.7840  -1.8769  -1.3464
    -1.0992  -0.2424   0.0895   0.8133   3.8358   6.7225   7.0320   7.3770
     7.5620   9.1504   9.8586  11.1059  11.7308  12.0523  13.2615  14.2527
    14.2718  14.6267

          k = 0.0000 0.5102 0.0000 (  6344 PWs)   bands (ev):

   -44.8716 -23.1056 -23.0327 -22.8339 -12.1496 -11.7115  -2.0944  -1.5605
    -1.0358  -0.3091   0.0774   0.7668   3.8130   6.9382   7.2598   7.6104
     7.7416   9.3842   9.7653  10.9662  11.7192  12.0650  12.7347  13.7478
    14.1204  14.3846

          k = 0.0000-0.5831 0.0000 (  6346 PWs)   bands (ev):

   -44.8703 -23.1195 -23.0288 -22.8371 -12.1329 -11.6845  -2.1719  -1.6356
    -1.0127  -0.3327   0.0749   0.7510   3.8115   6.9841   7.3953   7.6376
     7.8747   9.4349   9.7643  10.9211  11.6455  12.1120  12.5429  13.5494
    14.0153  14.2559

          k = 0.0625 0.0364 0.0000 (  6409 PWs)   bands (ev):

   -44.9027 -23.1281 -22.7649 -22.7437 -12.6876 -12.1467  -2.0286  -0.0882
     0.1520   0.2172   1.2138   1.3690   4.2875   5.8722   6.0363   6.6007
     6.7227   6.9532   8.4965   9.6509  11.4133  13.1262  13.7608  14.2758
    14.6322  14.7942

          k = 0.0625 0.1093 0.0000 (  6413 PWs)   bands (ev):

   -44.9003 -23.1207 -22.7868 -22.7569 -12.6387 -12.1235  -1.9435  -0.2312
     0.0759   0.1777   0.9652   1.2763   4.2841   5.8258   6.0643   6.5844
     6.8084   7.2620   8.7407  10.0481  11.5464  12.7486  13.8808  14.2403
    14.5839  14.7823

          k = 0.0625 0.1822 0.0000 (  6385 PWs)   bands (ev):

   -44.8957 -23.1068 -22.8359 -22.7724 -12.5497 -12.0774  -1.7892  -0.5186
    -0.0652   0.1024   0.5754   1.1491   4.2421   5.7609   6.2292   6.6010
     6.9808   7.7295   9.1780  10.6117  11.8130  12.3180  13.6326  14.1305
    14.6334  15.1279

          k = 0.0625 0.2551 0.0000 (  6363 PWs)   bands (ev):

   -44.8898 -23.0887 -22.9017 -22.7900 -12.4375 -12.0091  -1.6003  -0.8920
    -0.3236  -0.0563   0.3021   1.0081   4.1359   5.8305   6.5108   6.6959
     7.1793   8.2143   9.6657  11.0688  11.9315  12.1552  13.4054  14.0611
    14.8589  15.1280

          k = 0.0625 0.3280 0.0000 (  6348 PWs)   bands (ev):

   -44.8833 -23.0690 -22.9723 -22.8084 -12.3245 -11.9210  -1.4750  -1.2195
    -0.7464  -0.1852   0.1905   0.8732   4.0067   6.0721   6.8096   6.9180
     7.3569   8.6661   9.9429  11.3115  11.8217  12.0905  13.7614  14.0056
    14.6315  14.9353

          k = 0.0625 0.4009 0.0000 (  6353 PWs)   bands (ev):

   -44.8774 -23.0512 -23.0363 -22.8251 -12.2305 -11.8232  -1.7099  -1.2291
    -1.0987  -0.2763   0.1282   0.7596   3.9173   6.4397   6.9696   7.3161
     7.4914   9.0788   9.9326  11.2817  11.7789  12.0878  13.5297  14.0448
    14.4450  14.7430

          k = 0.0625 0.4738 0.0000 (  6348 PWs)   bands (ev):

   -44.8728 -23.0857 -23.0364 -22.8379 -12.1658 -11.7366  -1.9709  -1.4632
    -1.0588  -0.3397   0.0918   0.6782   3.8859   6.8343   7.1136   7.5446
     7.6757   9.4243   9.8180  11.1433  11.7950  12.0688  12.9370  13.6831
    14.3376  14.6071

          k = 0.0625 0.5467 0.0000 (  6338 PWs)   bands (ev):

   -44.8704 -23.1117 -23.0289 -22.8448 -12.1332 -11.6855  -2.1162  -1.6112
    -1.0124  -0.3731   0.0756   0.6360   3.8862   7.0308   7.3200   7.5822
     7.8146   9.5085   9.8819  11.0642  11.7380  12.1038  12.5124  13.4181
    14.2226  14.3316

          k = 0.1250 0.0729 0.0000 (  6403 PWs)   bands (ev):

   -44.8992 -23.1174 -22.8055 -22.7534 -12.6169 -12.1135  -1.9052  -0.3226
     0.0483   0.1748   0.8305   1.2777   4.2669   5.7803   6.1375   6.5723
     6.8749   7.3892   8.8436  10.2002  11.6029  12.5816  14.0143  14.1114
    14.5018  14.8611

          k = 0.1250 0.1458 0.0000 (  6383 PWs)   bands (ev):

   -44.8959 -23.1071 -22.8401 -22.7666 -12.5512 -12.0790  -1.7912  -0.5292
    -0.0682   0.1192   0.5621   1.1783   4.2323   5.7505   6.2550   6.5920
     6.9973   7.7272   9.1675  10.6030  11.8051  12.3054  13.6170  14.1350
    14.6574  15.1020

          k = 0.1250 0.2187 0.0000 (  6380 PWs)   bands (ev):

   -44.8908 -23.0918 -22.8912 -22.7864 -12.4557 -12.0218  -1.6247  -0.8219
    -0.2496  -0.0808   0.3411   1.0195   4.1734   5.7358   6.5277   6.6852
     7.1538   8.1642   9.6071  11.0212  12.0654  12.1948  13.1695  13.9713
    14.8551  15.0267

          k = 0.1250 0.2916 0.0000 (  6376 PWs)   bands (ev):

   -44.8849 -23.0736 -22.9506 -22.8096 -12.3495 -11.9433  -1.4479  -1.1471
    -0.5767  -0.2908   0.2377   0.8310   4.1018   5.8391   6.8154   6.9388
     7.3079   8.6238   9.9570  11.3132  12.0228  12.3656  13.1787  13.7879
    14.5556  14.9180

          k = 0.1250 0.3645 0.0000 (  6363 PWs)   bands (ev):

   -44.8790 -23.0554 -23.0092 -22.8327 -12.2528 -11.8496  -1.5246  -1.2281
    -0.9751  -0.3945   0.1636   0.6413   4.0517   6.0930   6.9907   7.3293
     7.4636   9.0853  10.0338  11.4666  12.0405  12.2126  13.5614  13.7326
    14.0032  14.7619

          k = 0.1250 0.4373 0.0000 (  6347 PWs)   bands (ev):

   -44.8739 -23.0587 -23.0394 -22.8522 -12.1793 -11.7569  -1.7851  -1.3327
    -1.0855  -0.4510   0.1048   0.4782   4.0466   6.4694   7.1301   7.4843
     7.7280   9.5589   9.9193  11.4672  11.9632  12.1304  13.0614  13.6058
    14.4012  14.6744

          k = 0.1250 0.5102 0.0000 (  6339 PWs)   bands (ev):

   -44.8705 -23.0909 -23.0292 -22.8652 -12.1341 -11.6880  -1.9647  -1.5438
    -1.0149  -0.4767   0.0672   0.3674   4.0713   6.8854   7.2302   7.5290
     7.8196   9.6996  10.0912  11.4271  11.8810  12.0967  12.5363  13.4048
    14.3543  14.5885

          k = 0.1250 0.5831 0.0000 (  6346 PWs)   bands (ev):

   -44.8693 -23.1023 -23.0256 -22.8697 -12.1190 -11.6626  -2.0282  -1.6172
    -0.9912  -0.4835   0.0544   0.3281   4.0864   7.0923   7.3161   7.5304
     7.7526   9.6130  10.3576  11.4174  11.8586  12.1523  12.1820  13.3373
    14.3168  14.4383

          k = 0.1250 0.0000 0.0000 (  6385 PWs)   bands (ev):

   -44.9004 -23.1210 -22.7933 -22.7488 -12.6403 -12.1250  -1.9456  -0.2417
     0.0713   0.1970   0.9473   1.3064   4.2783   5.7790   6.1253   6.5798
     6.8257   7.2589   8.7270  10.0333  11.5433  12.7211  13.9777  14.2047
    14.5321  14.7640

          k = 0.1875 0.1093 0.0000 (  6387 PWs)   bands (ev):

   -44.8940 -23.1013 -22.8669 -22.7667 -12.5135 -12.0586  -1.7272  -0.6824
    -0.1486   0.1054   0.4215   1.1630   4.1752   5.7976   6.3326   6.6174
     7.0799   7.8963   9.3374  10.7807  11.8284  12.1882  13.5364  14.2959
    14.6298  15.1230

          k = 0.1875 0.1822 0.0000 (  6368 PWs)   bands (ev):

   -44.8902 -23.0895 -22.9067 -22.7809 -12.4412 -12.0133  -1.6046  -0.9066
    -0.3368  -0.0297   0.2990   1.0560   4.1150   5.8284   6.5408   6.6882
     7.2008   8.2116   9.6483  11.0576  11.9204  12.1325  13.3904  14.0244
    14.8967  15.1059

          k = 0.1875 0.2551 0.0000 (  6366 PWs)   bands (ev):

   -44.8851 -23.0741 -22.9530 -22.8048 -12.3516 -11.9460  -1.4501  -1.1549
    -0.5854  -0.2777   0.2414   0.8557   4.0899   5.8426   6.8143   6.9471
     7.3177   8.6235   9.9502  11.3073  12.0144  12.3704  13.1624  13.7615
    14.5697  14.9034

          k = 0.1875 0.3280 0.0000 (  6363 PWs)   bands (ev):

   -44.8797 -23.0574 -22.9985 -22.8346 -12.2624 -11.8608  -1.4258  -1.2609
    -0.8979  -0.4557   0.1610   0.6060   4.1134   5.9463   7.0040   7.3276
     7.4820   9.0928  10.0845  11.5137  12.2433  12.4503  13.2504  13.5641
    13.7092  14.8347

          k = 0.1875 0.4009 0.0000 (  6362 PWs)   bands (ev):

   -44.8746 -23.0428 -23.0364 -22.8648 -12.1879 -11.7696  -1.6261  -1.2179
    -1.1221  -0.5479   0.0558   0.3670   4.1828   6.1812   7.1270   7.5091
     7.7865   9.6210  10.0458  11.6648  12.1787  12.3356  13.0840  13.4797
    14.0289  14.5933

          k = 0.1875 0.4738 0.0000 (  6346 PWs)   bands (ev):

   -44.8708 -23.0658 -23.0297 -22.8892 -12.1357 -11.6916  -1.7764  -1.4577
    -1.0270  -0.5890  -0.0454   0.1871   4.2759   6.5275   7.1643   7.6566
     7.8731   9.9187  10.2356  11.7065  11.8331  12.2896  12.8495  13.5848
    14.3265  14.5652

          k = 0.1875 0.5467 0.0000 (  6344 PWs)   bands (ev):

   -44.8687 -23.0804 -23.0233 -22.9029 -12.1090 -11.6466  -1.8550  -1.5886
    -0.9788  -0.6022  -0.1071   0.0918   4.3449   6.8781   7.1756   7.7044
     7.7514   9.7975  10.8016  11.5937  11.8675  12.2776  12.4239  13.5092
    14.3838  14.5149

          k = 0.1875-0.0364 0.0000 (  6391 PWs)   bands (ev):

   -44.8961 -23.1076 -22.8424 -22.7619 -12.5535 -12.0813  -1.7942  -0.5308
    -0.0659   0.1247   0.5657   1.1861   4.2296   5.7249   6.2928   6.6123
     6.9917   7.7250   9.1500  10.5901  11.8045  12.3073  13.6138  14.1905
    14.6175  15.0919

          k = 0.2500 0.1458 0.0000 (  6374 PWs)   bands (ev):

   -44.8879 -23.0822 -22.9385 -22.7821 -12.3973 -11.9832  -1.5459  -1.0736
    -0.5311   0.0112   0.2008   1.0506   4.0240   5.9981   6.6237   6.7343
     7.2865   8.3713   9.7705  11.1652  11.7728  12.0560  13.7233  13.9960
    14.9643  15.0904

          k = 0.2500 0.2187 0.0000 (  6361 PWs)   bands (ev):

   -44.8840 -23.0703 -22.9769 -22.7970 -12.3305 -11.9287  -1.4827  -1.2322
    -0.7591  -0.1535   0.1939   0.9335   3.9798   6.0734   6.8139   6.9391
     7.3787   8.6654   9.9248  11.2963  11.8170  12.0783  13.7107  13.9528
    14.6253  14.9426

          k = 0.2500 0.2916 0.0000 (  6352 PWs)   bands (ev):

   -44.8795 -23.0564 -23.0124 -22.8242 -12.2573 -11.8558  -1.5343  -1.2331
    -0.9833  -0.3733   0.1696   0.6832   4.0318   6.0958   6.9926   7.3431
     7.4761   9.0873  10.0201  11.4564  12.0523  12.2159  13.5180  13.7531
    13.9545  14.7239

          k = 0.2500 0.3645 0.0000 (  6351 PWs)   bands (ev):

   -44.8749 -23.0435 -23.0380 -22.8604 -12.1903 -11.7731  -1.6317  -1.2186
    -1.1252  -0.5376   0.0621   0.3830   4.1735   6.1806   7.1308   7.5139
     7.7926   9.6221  10.0369  11.6614  12.1842  12.3597  13.1231  13.4249
    13.9897  14.5630

          k = 0.2500 0.4373 0.0000 (  6351 PWs)   bands (ev):

   -44.8711 -23.0540 -23.0303 -22.8987 -12.1379 -11.6954  -1.6824  -1.4121
    -1.0399  -0.6337  -0.1531   0.1708   4.3686   6.3605   7.1253   7.7408
     7.9015  10.0136  10.2828  11.6445  11.9107  12.5293  13.1384  13.5991
    14.2147  14.3322

          k = 0.2500 0.5102 0.0000 (  6340 PWs)   bands (ev):

   -44.8685 -23.0580 -23.0224 -22.9300 -12.1049 -11.6400  -1.6933  -1.5400
    -0.9781  -0.6990  -0.3578   0.0616   4.5492   6.6135   7.0802   7.7222
     7.9365  10.0056  10.8510  11.4431  12.0807  12.6004  12.9634  13.6886
    14.2129  14.4655

          k = 0.2500 0.5831 0.0000 (  6346 PWs)   bands (ev):

   -44.8676 -23.0577 -23.0196 -22.9428 -12.0936 -11.6199  -1.6985  -1.5737
    -0.9567  -0.7343  -0.4281   0.0246   4.6250   6.7825   7.0592   7.5494
     8.0084   9.9913  10.9289  11.7502  12.1912  12.5996  12.6217  13.5565
    14.4786  14.4845

          k = 0.2500-0.0729 0.0000 (  6385 PWs)   bands (ev):

   -44.8905 -23.0900 -22.9064 -22.7785 -12.4439 -12.0162  -1.6077  -0.9001
    -0.3299  -0.0246   0.3005   1.0500   4.1194   5.8134   6.5582   6.7173
     7.1859   8.2098   9.6329  11.0516  11.9294  12.1419  13.4019  14.0553
    14.8694  15.0992

          k = 0.2500 0.0000 0.0000 (  6375 PWs)   bands (ev):

   -44.8914 -23.0928 -22.8931 -22.7792 -12.4607 -12.0272  -1.6307  -0.8193
    -0.2450  -0.0676   0.3464   1.0290   4.1708   5.7165   6.5630   6.7244
     7.1392   8.1606   9.5777  11.0071  12.0792  12.1968  13.1777  14.0006
    14.8310  15.0113

          k = 0.3125 0.1822 0.0000 (  6360 PWs)   bands (ev):

   -44.8817 -23.0630 -23.0089 -22.7973 -12.2909 -11.8920  -1.5907  -1.2485
    -0.9558  -0.0928   0.1141   0.9559   3.8858   6.3412   6.8829   6.9931
     7.4589   8.7954   9.9085  11.2611  11.6877  12.0349  13.6688  14.2668
    14.6102  14.9278

          k = 0.3125 0.2551 0.0000 (  6349 PWs)   bands (ev):

   -44.8784 -23.0530 -23.0398 -22.8121 -12.2387 -11.8349  -1.7217  -1.2331
    -1.1076  -0.2372   0.1290   0.8274   3.8882   6.4377   6.9756   7.3376
     7.5116   9.0829   9.9049  11.2828  11.7777  12.0747  13.4619  14.0574
    14.4205  14.7007

          k = 0.3125 0.3280 0.0000 (  6340 PWs)   bands (ev):

   -44.8747 -23.0616 -23.0411 -22.8413 -12.1860 -11.7669  -1.7961  -1.3334
    -1.0917  -0.4216   0.1075   0.5299   4.0234   6.4647   7.1393   7.4981
     7.7430   9.5662   9.8903  11.4778  11.9709  12.1301  13.0759  13.5670
    14.3573  14.6178

          k = 0.3125 0.4009 0.0000 (  6346 PWs)   bands (ev):

   -44.8713 -23.0679 -23.0309 -22.8815 -12.1405 -11.6989  -1.7837  -1.4554
    -1.0305  -0.5699  -0.0308   0.2040   4.2626   6.5182   7.1705   7.6693
     7.8838   9.8871  10.2484  11.7186  11.8529  12.3122  12.8439  13.5571
    14.2885  14.5282

          k = 0.3125 0.4738 0.0000 (  6344 PWs)   bands (ev):

   -44.8688 -23.0592 -23.0230 -22.9261 -12.1072 -11.6437  -1.6948  -1.5380
    -0.9799  -0.6901  -0.3458   0.0606   4.5457   6.6044   7.0817   7.7263
     7.9465   9.9849  10.8682  11.4522  12.0845  12.6184  12.9296  13.7193
    14.1999  14.4557

          k = 0.3125 0.5467 0.0000 (  6350 PWs)   bands (ev):

   -44.8674 -23.0417 -23.0187 -22.9631 -12.0898 -11.6129  -1.6600  -1.4783
    -0.9495  -0.8582  -0.5295   0.0022   4.7591   6.6896   7.0119   7.4917
     8.1289  10.1377  10.7126  12.0582  12.2876  12.8079  12.9492  13.2608
    14.3646  14.5871

          k = 0.3125-0.1093 0.0000 (  6360 PWs)   bands (ev):

   -44.8843 -23.0709 -22.9751 -22.7960 -12.3332 -11.9319  -1.4817  -1.2257
    -0.7484  -0.1455   0.1869   0.9207   3.9898   6.0685   6.8346   6.9408
     7.3654   8.6626   9.9170  11.3004  11.8227  12.0830  13.7345  13.9853
    14.5819  14.9418

          k = 0.3125-0.0364 0.0000 (  6369 PWs)   bands (ev):

   -44.8857 -23.0752 -22.9513 -22.8010 -12.3569 -11.9522  -1.4551  -1.1409
    -0.5690  -0.2675   0.2386   0.8442   4.1007   5.8317   6.8579   6.9570
     7.2935   8.6184   9.9305  11.3054  12.0370  12.3813  13.1892  13.8019
    14.4990  14.8875

          k = 0.3750 0.2187 0.0000 (  6344 PWs)   bands (ev):

   -44.8765 -23.0682 -23.0463 -22.8102 -12.2103 -11.7996  -1.8853  -1.3439
    -1.1078  -0.1855   0.0768   0.8852   3.8074   6.7256   7.0425   7.3855
     7.5833   9.1538   9.8197  11.1254  11.7146  12.0315  13.1934  14.2064
    14.3565  14.5689

          k = 0.3750 0.2916 0.0000 (  6345 PWs)   bands (ev):

   -44.8741 -23.0880 -23.0389 -22.8238 -12.1759 -11.7518  -1.9812  -1.4598
    -1.0658  -0.2923   0.0861   0.7491   3.8563   6.8318   7.1208   7.5658
     7.6884   9.4307   9.7757  11.1745  11.7756  12.0417  12.8933  13.7380
    14.2947  14.5674

          k = 0.3750 0.3645 0.0000 (  6342 PWs)   bands (ev):

   -44.8716 -23.0930 -23.0313 -22.8529 -12.1429 -11.7016  -1.9734  -1.5380
    -1.0200  -0.4393   0.0627   0.4221   4.0486   6.8729   7.2389   7.5489
     7.8337   9.6645  10.0941  11.4711  11.8756  12.0752  12.5218  13.4108
    14.3121  14.5722

          k = 0.3750 0.4373 0.0000 (  6349 PWs)   bands (ev):

   -44.8695 -23.0819 -23.0250 -22.8936 -12.1158 -11.6573  -1.8590  -1.5804
    -0.9825  -0.5765  -0.0846   0.0974   4.3339   6.8597   7.1775   7.7156
     7.7729   9.7597  10.8158  11.6215  11.9136  12.2654  12.3802  13.5209
    14.3519  14.5215

          k = 0.3750 0.5102 0.0000 (  6345 PWs)   bands (ev):

   -44.8681 -23.0583 -23.0207 -22.9371 -12.0980 -11.6269  -1.6935  -1.5665
    -0.9594  -0.7221  -0.4124   0.0174   4.6264   6.7683   7.0589   7.5412
     8.0302   9.9611  10.9631  11.7360  12.2091  12.5833  12.6212  13.6190
    14.4614  14.4943

          k = 0.3750 0.5831 0.0000 (  6344 PWs)   bands (ev):

   -44.8676 -23.0409 -23.0192 -22.9617 -12.0918 -11.6162  -1.6540  -1.4689
    -0.9505  -0.8594  -0.5260  -0.0030   4.7654   6.6866   7.0113   7.4748
     8.1404  10.1243  10.7285  12.0056  12.3063  12.8276  12.9847  13.2763
    14.3252  14.6107

          k = 0.3750-0.1458 0.0000 (  6367 PWs)   bands (ev):

   -44.8786 -23.0535 -23.0378 -22.8119 -12.2408 -11.8378  -1.7126  -1.2302
    -1.1018  -0.2281   0.1186   0.8136   3.8996   6.4453   6.9923   7.3151
     7.5043   9.0782   9.9028  11.2929  11.7770  12.0749  13.4753  14.0174
    14.4281  14.7494

          k = 0.3750-0.0729 0.0000 (  6364 PWs)   bands (ev):

   -44.8800 -23.0575 -23.0089 -22.8228 -12.2620 -11.8621  -1.5177  -1.2343
    -0.9637  -0.3639   0.1602   0.6614   4.0504   6.0944   7.0305   7.3225
     7.4560   9.0791  10.0141  11.4705  12.0604  12.2189  13.5589  13.7042
    14.0082  14.7287

          k = 0.3750 0.0000 0.0000 (  6373 PWs)   bands (ev):

   -44.8805 -23.0590 -22.9957 -22.8297 -12.2696 -11.8704  -1.4077  -1.2663
    -0.8761  -0.4405   0.1553   0.5951   4.1277   5.9419   7.0547   7.3070
     7.4642   9.0833  10.0720  11.5206  12.2580  12.4853  13.2644  13.5605
    13.7056  14.8082

          k = 0.4375 0.2551 0.0000 (  6336 PWs)   bands (ev):

   -44.8730 -23.1069 -23.0355 -22.8187 -12.1615 -11.7297  -2.1018  -1.5527
    -1.0425  -0.2487   0.0625   0.8413   3.7832   6.9521   7.2709   7.6328
     7.7297   9.3712   9.7276  11.0071  11.6901  12.0210  12.6856  13.8647
    14.0861  14.3370

          k = 0.4375 0.3280 0.0000 (  6344 PWs)   bands (ev):

   -44.8717 -23.1130 -23.0316 -22.8302 -12.1446 -11.7032  -2.1239  -1.6027
    -1.0181  -0.3191   0.0636   0.7061   3.8578   7.0439   7.3206   7.6041
     7.8114   9.4720   9.8696  11.1141  11.7031  12.0525  12.4904  13.4829
    14.2064  14.3104

          k = 0.4375 0.4009 0.0000 (  6343 PWs)   bands (ev):

   -44.8706 -23.1032 -23.0280 -22.8572 -12.1291 -11.6784  -2.0322  -1.6062
    -0.9961  -0.4405   0.0440   0.3787   4.0680   7.0934   7.3161   7.5574
     7.7469   9.5680  10.3576  11.4816  11.8430  12.1243  12.1668  13.3472
    14.2756  14.4642

          k = 0.4375 0.4738 0.0000 (  6347 PWs)   bands (ev):

   -44.8697 -23.0803 -23.0253 -22.8937 -12.1171 -11.6595  -1.8511  -1.5745
    -0.9829  -0.5741  -0.0865   0.0878   4.3414   6.8732   7.1781   7.6844
     7.7769   9.7602  10.7943  11.6158  11.9390  12.2525  12.4118  13.5114
    14.3579  14.5367

          k = 0.4375 0.5467 0.0000 (  6341 PWs)   bands (ev):

   -44.8692 -23.0562 -23.0238 -22.9254 -12.1106 -11.6492  -1.6785  -1.5233
    -0.9815  -0.6867  -0.3516   0.0488   4.5604   6.6095   7.0814   7.6788
     7.9651   9.9820  10.8529  11.4241  12.1238  12.6147  13.0006  13.6951
    14.2043  14.4575

          k = 0.4375-0.1822 0.0000 (  6344 PWs)   bands (ev):

   -44.8742 -23.0864 -23.0392 -22.8239 -12.1773 -11.7539  -1.9740  -1.4540
    -1.0662  -0.2850   0.0774   0.7389   3.8650   6.8467   7.1346   7.5620
     7.6549   9.4185   9.7780  11.1812  11.7804  12.0422  12.8970  13.7071
    14.3114  14.6018

          k = 0.4375-0.1093 0.0000 (  6346 PWs)   bands (ev):

   -44.8751 -23.0582 -23.0418 -22.8411 -12.1895 -11.7721  -1.7791  -1.3193
    -1.0923  -0.4127   0.0973   0.5080   4.0416   6.4762   7.1567   7.4978
     7.6960   9.5522   9.8897  11.5000  11.9699  12.1240  13.0755  13.5699
    14.3784  14.6662

          k = 0.4375-0.0364 0.0000 (  6362 PWs)   bands (ev):

   -44.8756 -23.0442 -23.0342 -22.8584 -12.1962 -11.7818  -1.6069  -1.1986
    -1.1265  -0.5264   0.0520   0.3604   4.1955   6.1811   7.1529   7.5170
     7.7469   9.6067  10.0335  11.6871  12.1714  12.3731  13.1195  13.4692
    14.0294  14.5689

          k =-0.5000-0.2916 0.0000 (  6336 PWs)   bands (ev):

   -44.8718 -23.1205 -23.0317 -22.8217 -12.1453 -11.7037  -2.1790  -1.6261
    -1.0186  -0.2711   0.0590   0.8264   3.7810   7.0009   7.4101   7.6626
     7.8514   9.3913   9.7494  10.9699  11.6083  12.0538  12.5034  13.6750
    14.0002  14.2105

          k =-0.5000-0.2187 0.0000 (  6332 PWs)   bands (ev):

   -44.8718 -23.1125 -23.0317 -22.8302 -12.1451 -11.7039  -2.1212  -1.6006
    -1.0184  -0.3163   0.0602   0.7024   3.8610   7.0471   7.3376   7.6038
     7.7879   9.4622   9.8721  11.1162  11.7113  12.0529  12.4885  13.4737
    14.2127  14.3203

          k =-0.5000-0.1458 0.0000 (  6346 PWs)   bands (ev):

   -44.8718 -23.0908 -23.0318 -22.8531 -12.1447 -11.7045  -1.9632  -1.5300
    -1.0207  -0.4334   0.0563   0.4084   4.0596   6.8934   7.2456   7.5565
     7.7831   9.6573  10.0818  11.4863  11.8870  12.0676  12.5329  13.4002
    14.3214  14.6016

          k =-0.5000-0.0729 0.0000 (  6349 PWs)   bands (ev):

   -44.8718 -23.0640 -23.0318 -22.8812 -12.1444 -11.7050  -1.7634  -1.4388
    -1.0324  -0.5625  -0.0386   0.1823   4.2817   6.5288   7.1732   7.6865
     7.8247   9.8893  10.2200  11.7291  11.8720  12.2973  12.8870  13.5550
    14.3096  14.5641

          k =-0.5000 0.0000 0.0000 (  6355 PWs)   bands (ev):

   -44.8718 -23.0501 -23.0317 -22.8957 -12.1442 -11.7053  -1.6586  -1.3903
    -1.0442  -0.6203  -0.1603   0.1537   4.3879   6.3604   7.1305   7.7617
     7.8479  10.0064  10.2567  11.6444  11.9440  12.5492  13.1989  13.5891
    14.2114  14.3387

     highest occupied, lowest unoccupied level (ev):     4.7654    5.7165

!    total energy              =    -591.24403821 Ry
     total all-electron energy =    -13333.877314 Ry
     estimated scf accuracy    <          6.7E-09 Ry

     The total energy is the sum of the following terms:
     one-electron contribution =    -203.72752014 Ry
     hartree contribution      =     109.68719063 Ry
     xc contribution           =     -37.58984705 Ry
     ewald contribution        =     -28.49822616 Ry
     one-center paw contrib.   =    -431.11563549 Ry

     convergence has been achieved in   4 iterations

     Forces acting on atoms (cartesian axes, Ry/au):

     atom    1 type  1   force =     0.00000000   -0.00096486   -0.00004660
     atom    2 type  2   force =     0.00000000    0.00044780   -0.00162770
     atom    3 type  3   force =     0.00000000    0.00051706    0.00167429
     The non-local contrib.  to forces
     atom    1 type  1   force =     0.00000000   -0.00158812   -0.00067592
     atom    2 type  2   force =     0.00000000   -0.00078668   -0.21340011
     atom    3 type  3   force =     0.00000000   -0.00069525    0.20988399
     The ionic contribution  to forces
     atom    1 type  1   force =    -0.00000001   -0.07900650   -0.31787431
     atom    2 type  2   force =     0.00000000    0.04458224   20.94930084
     atom    3 type  3   force =     0.00000000    0.03442426  -20.63142654
     The local contribution  to forces
     atom    1 type  1   force =    -0.00000000    0.07959133    0.31782986
     atom    2 type  2   force =     0.00000003   -0.04330498  -20.74568985
     atom    3 type  3   force =    -0.00000000   -0.03312381   20.42696145
     The core correction contribution to forces
     atom    1 type  1   force =     0.00000000    0.00004127    0.00036523
     atom    2 type  2   force =    -0.00000000   -0.00003159    0.00805214
     atom    3 type  3   force =    -0.00000000   -0.00008243   -0.00375285
     The Hubbard contrib.    to forces
     atom    1 type  1   force =     0.00000000    0.00000000    0.00000000
     atom    2 type  2   force =     0.00000000    0.00000000    0.00000000
     atom    3 type  3   force =     0.00000000    0.00000000    0.00000000
     The SCF correction term to forces
     atom    1 type  1   force =     0.00000000   -0.00000125    0.00032250
     atom    2 type  2   force =     0.00000000   -0.00000959    0.00012323
     atom    3 type  3   force =    -0.00000000   -0.00000411    0.00002219

     Total force =     0.002618     Total SCF correction =     0.000346
     SCF correction compared to forces is large: reduce conv_thr to get better values
     Energy error            =      9.2E-06 Ry
     Gradient error          =      1.7E-03 Ry/Bohr

     number of scf cycles    =   2
     number of bfgs steps    =   1

     energy             old  =    -591.2440290205 Ry
     energy             new  =    -591.2440382135 Ry

     CASE: energy            _new < energy            _old


     WARNING: bfgs curvature condition failed, Theta= 0.974
     new trust radius        =       0.0023055697 bohr
     new conv_thr            =            1.0E-10 Ry


ATOMIC_POSITIONS (angstrom)
Zr            0.0000000000       -0.0013663160       10.2766587809
Cl           -0.0000000017        2.0150677354       11.9626495520
Br           -0.0000000017        2.0151554252        8.4238404416



     Writing config-only to output data dir ./tmp/ZrClBr.save/
     NEW-OLD atomic charge density approx. for the potential

     Check: negative core charge=   -0.000004

     total cpu time spent up to now is       30.6 secs

     Self-consistent Calculation

     iteration #  1     ecut=    65.00 Ry     beta= 0.70
     Davidson diagonalization with overlap
     ethr =  1.00E-06,  avg # of iterations =  2.0

     Threshold (ethr) on eigenvalues was too large:
     Diagonalizing with lowered threshold

     Davidson diagonalization with overlap
     ethr =  3.13E-09,  avg # of iterations =  4.0

     total cpu time spent up to now is       34.3 secs

     total energy              =    -591.24404568 Ry
     estimated scf accuracy    <       0.00000085 Ry

     iteration #  2     ecut=    65.00 Ry     beta= 0.70
     Davidson diagonalization with overlap
     ethr =  3.27E-09,  avg # of iterations =  2.0

     total cpu time spent up to now is       35.9 secs

     total energy              =    -591.24404557 Ry
     estimated scf accuracy    <       0.00000313 Ry

     iteration #  3     ecut=    65.00 Ry     beta= 0.70
     Davidson diagonalization with overlap
     ethr =  3.27E-09,  avg # of iterations =  2.0

     total cpu time spent up to now is       37.4 secs

     total energy              =    -591.24404613 Ry
     estimated scf accuracy    <       0.00000001 Ry

     iteration #  4     ecut=    65.00 Ry     beta= 0.70
     Davidson diagonalization with overlap
     ethr =  5.04E-11,  avg # of iterations =  2.0

     total cpu time spent up to now is       39.0 secs

     total energy              =    -591.24404614 Ry
     estimated scf accuracy    <          9.3E-10 Ry

     iteration #  5     ecut=    65.00 Ry     beta= 0.70
     Davidson diagonalization with overlap
     ethr =  3.59E-12,  avg # of iterations =  2.0

     total cpu time spent up to now is       40.6 secs

     total energy              =    -591.24404614 Ry
     estimated scf accuracy    <          2.7E-10 Ry

     iteration #  6     ecut=    65.00 Ry     beta= 0.70
     Davidson diagonalization with overlap
     ethr =  1.03E-12,  avg # of iterations =  2.0

     total cpu time spent up to now is       42.1 secs

     End of self-consistent calculation

          k = 0.0000 0.0000 0.0000 (  6395 PWs)   bands (ev):

   -44.9010 -23.1296 -22.7494 -22.7362 -12.7149 -12.1584  -2.0746  -0.0157
     0.1887   0.2338   1.3555   1.4117   4.2900   5.9204   6.0208   6.6277
     6.6724   6.7744   8.3720   9.4216  11.3471  13.5270  13.6714  13.9215
    14.6254  15.1824

          k = 0.0000 0.0729 0.0000 (  6405 PWs)   bands (ev):

   -44.8997 -23.1257 -22.7527 -22.7514 -12.6893 -12.1468  -2.0300  -0.0812
     0.1758   0.1786   1.2522   1.3193   4.2944   5.9528   5.9554   6.6325
     6.6877   6.9557   8.5010   9.6577  11.4127  13.1827  13.6545  14.3161
    14.6539  14.8665

          k = 0.0000 0.1458 0.0000 (  6403 PWs)   bands (ev):

   -44.8961 -23.1146 -22.7942 -22.7620 -12.6171 -12.1122  -1.9047  -0.3073
     0.0610   0.1344   0.8596   1.2248   4.2817   5.8343   6.0679   6.5886
     6.8473   7.3942   8.8605  10.2169  11.6086  12.6113  14.0177  14.0635
    14.5278  14.9064

          k = 0.0000 0.2187 0.0000 (  6377 PWs)   bands (ev):

   -44.8906 -23.0980 -22.8574 -22.7760 -12.5113 -12.0549  -1.7243  -0.6673
    -0.1367   0.0614   0.4395   1.1037   4.1995   5.8281   6.2731   6.6228
     7.0581   7.9020   9.3657  10.7978  11.8434  12.2105  13.5637  14.3351
    14.5450  15.1812

          k = 0.0000 0.2916 0.0000 (  6369 PWs)   bands (ev):

   -44.8842 -23.0783 -22.9308 -22.7923 -12.3926 -11.9763  -1.5411  -1.0619
    -0.5196  -0.0384   0.2115   0.9850   4.0529   6.0135   6.5780   6.7325
     7.2683   8.3757   9.8003  11.1791  11.7852  12.0768  13.7512  14.0508
    15.0084  15.0432

          k = 0.0000 0.3645 0.0000 (  6355 PWs)   bands (ev):

   -44.8777 -23.0586 -23.0030 -22.8086 -12.2839 -11.8813  -1.5840  -1.2419
    -0.9504  -0.1484   0.1254   0.8852   3.9157   6.3486   6.8763   6.9655
     7.4418   8.7974   9.9381  11.2693  11.6916  12.0520  13.7407  14.3187
    14.6833  14.8397

          k = 0.0000 0.4373 0.0000 (  6338 PWs)   bands (ev):

   -44.8723 -23.0638 -23.0412 -22.8223 -12.2016 -11.7853  -1.8790  -1.3479
    -1.1019  -0.2464   0.0909   0.8105   3.8383   6.7247   7.0336   7.3786
     7.5665   9.1537   9.8604  11.1072  11.7310  12.0524  13.2630  14.2541
    14.2732  14.6287

          k = 0.0000 0.5102 0.0000 (  6344 PWs)   bands (ev):

   -44.8686 -23.1034 -23.0302 -22.8315 -12.1515 -11.7130  -2.0962  -1.5620
    -1.0386  -0.3131   0.0789   0.7642   3.8156   6.9396   7.2622   7.6149
     7.7432   9.3885   9.7652  10.9675  11.7205  12.0656  12.7361  13.7491
    14.1246  14.3847

          k = 0.0000-0.5831 0.0000 (  6346 PWs)   bands (ev):

   -44.8673 -23.1172 -23.0263 -22.8347 -12.1348 -11.6861  -2.1737  -1.6372
    -1.0156  -0.3366   0.0764   0.7484   3.8142   6.9854   7.3980   7.6424
     7.8761   9.4363   9.7669  10.9223  11.6469  12.1127  12.5445  13.5507
    14.0215  14.2539

          k = 0.0625 0.0364 0.0000 (  6409 PWs)   bands (ev):

   -44.8998 -23.1258 -22.7624 -22.7411 -12.6899 -12.1473  -2.0307  -0.0887
     0.1495   0.2142   1.2103   1.3666   4.2915   5.8745   6.0400   6.6031
     6.7224   6.9540   8.4958   9.6509  11.4113  13.1278  13.7594  14.2785
    14.6316  14.7941

          k = 0.0625 0.1093 0.0000 (  6413 PWs)   bands (ev):

   -44.8973 -23.1183 -22.7844 -22.7544 -12.6409 -12.1242  -1.9456  -0.2326
     0.0746   0.1744   0.9631   1.2729   4.2878   5.8290   6.0670   6.5847
     6.8107   7.2629   8.7403  10.0475  11.5447  12.7497  13.8809  14.2429
    14.5870  14.7798

          k = 0.0625 0.1822 0.0000 (  6385 PWs)   bands (ev):

   -44.8928 -23.1045 -22.8335 -22.7699 -12.5519 -12.0783  -1.7915  -0.5207
    -0.0658   0.0988   0.5743   1.1456   4.2453   5.7645   6.2314   6.6011
     6.9841   7.7304   9.1787  10.6100  11.8122  12.3187  13.6357  14.1313
    14.6348  15.1267

          k = 0.0625 0.2551 0.0000 (  6363 PWs)   bands (ev):

   -44.8868 -23.0863 -22.8993 -22.7875 -12.4397 -12.0101  -1.6028  -0.8943
    -0.3246  -0.0599   0.3020   1.0049   4.1385   5.8341   6.5127   6.6964
     7.1831   8.2151   9.6684  11.0662  11.9315  12.1559  13.4078  14.0620
    14.8592  15.1290

          k = 0.0625 0.3280 0.0000 (  6348 PWs)   bands (ev):

   -44.8804 -23.0666 -22.9700 -22.8059 -12.3265 -11.9222  -1.4778  -1.2215
    -0.7478  -0.1884   0.1909   0.8703   4.0091   6.0754   6.8105   6.9197
     7.3612   8.6671   9.9471  11.3097  11.8218  12.0907  13.7623  14.0058
    14.6338  14.9363

          k = 0.0625 0.4009 0.0000 (  6353 PWs)   bands (ev):

   -44.8744 -23.0487 -23.0340 -22.8227 -12.2324 -11.8245  -1.7122  -1.2310
    -1.1009  -0.2796   0.1291   0.7569   3.9197   6.4426   6.9707   7.3180
     7.4957   9.0809   9.9360  11.2822  11.7785  12.0878  13.5309  14.0466
    14.4447  14.7445

          k = 0.0625 0.4738 0.0000 (  6348 PWs)   bands (ev):

   -44.8699 -23.0834 -23.0340 -22.8355 -12.1677 -11.7380  -1.9729  -1.4648
    -1.0615  -0.3433   0.0930   0.6757   3.8883   6.8364   7.1151   7.5489
     7.6777   9.4285   9.8182  11.1446  11.7958  12.0690  12.9388  13.6848
    14.3378  14.6098

          k = 0.0625 0.5467 0.0000 (  6338 PWs)   bands (ev):

   -44.8674 -23.1095 -23.0264 -22.8424 -12.1351 -11.6870  -2.1180  -1.6128
    -1.0153  -0.3767   0.0770   0.6335   3.8887   7.0324   7.3221   7.5867
     7.8167   9.5100   9.8843  11.0655  11.7394  12.1045  12.5140  13.4199
    14.2252  14.3324

          k = 0.1250 0.0729 0.0000 (  6403 PWs)   bands (ev):

   -44.8963 -23.1150 -22.8031 -22.7509 -12.6191 -12.1142  -1.9073  -0.3251
     0.0478   0.1718   0.8280   1.2751   4.2701   5.7832   6.1406   6.5742
     6.8755   7.3901   8.8435  10.1999  11.6017  12.5831  14.0146  14.1103
    14.5054  14.8586

          k = 0.1250 0.1458 0.0000 (  6383 PWs)   bands (ev):

   -44.8929 -23.1048 -22.8377 -22.7641 -12.5534 -12.0798  -1.7934  -0.5318
    -0.0688   0.1158   0.5609   1.1753   4.2351   5.7540   6.2576   6.5928
     6.9996   7.7282   9.1683  10.6017  11.8047  12.3061  13.6182  14.1366
    14.6585  15.1000

          k = 0.1250 0.2187 0.0000 (  6380 PWs)   bands (ev):

   -44.8879 -23.0894 -22.8888 -22.7839 -12.4578 -12.0228  -1.6270  -0.8245
    -0.2505  -0.0842   0.3406   1.0166   4.1756   5.7395   6.5300   6.6859
     7.1572   8.1651   9.6094  11.0187  12.0652  12.1952  13.1717  13.9737
    14.8549  15.0276

          k = 0.1250 0.2916 0.0000 (  6376 PWs)   bands (ev):

   -44.8819 -23.0712 -22.9483 -22.8071 -12.3515 -11.9444  -1.4506  -1.1493
    -0.5784  -0.2932   0.2374   0.8284   4.1037   5.8428   6.8162   6.9409
     7.3119   8.6246   9.9613  11.3106  12.0217  12.3657  13.1817  13.7898
    14.5568  14.9187

          k = 0.1250 0.3645 0.0000 (  6363 PWs)   bands (ev):

   -44.8760 -23.0530 -23.0068 -22.8303 -12.2548 -11.8509  -1.5270  -1.2304
    -0.9770  -0.3969   0.1637   0.6390   4.0535   6.0964   6.9920   7.3321
     7.4669   9.0864  10.0385  11.4651  12.0403  12.2122  13.5631  13.7344
    14.0045  14.7629

          k = 0.1250 0.4373 0.0000 (  6347 PWs)   bands (ev):

   -44.8709 -23.0564 -23.0369 -22.8498 -12.1812 -11.7583  -1.7872  -1.3346
    -1.0882  -0.4537   0.1053   0.4761   4.0486   6.4723   7.1320   7.4881
     7.7300   9.5614   9.9216  11.4674  11.9635  12.1305  13.0637  13.6065
    14.4012  14.6758

          k = 0.1250 0.5102 0.0000 (  6339 PWs)   bands (ev):

   -44.8676 -23.0887 -23.0267 -22.8628 -12.1360 -11.6895  -1.9665  -1.5457
    -1.0177  -0.4797   0.0681   0.3654   4.0734   6.8878   7.2329   7.5322
     7.8223   9.7012  10.0933  11.4281  11.8827  12.0968  12.5376  13.4061
    14.3540  14.5915

          k = 0.1250 0.5831 0.0000 (  6346 PWs)   bands (ev):

   -44.8664 -23.1000 -23.0231 -22.8674 -12.1209 -11.6641  -2.0299  -1.6191
    -0.9941  -0.4866   0.0555   0.3261   4.0887   7.0947   7.3186   7.5333
     7.7561   9.6132  10.3610  11.4187  11.8597  12.1538  12.1823  13.3389
    14.3153  14.4429

          k = 0.1250 0.0000 0.0000 (  6385 PWs)   bands (ev):

   -44.8975 -23.1186 -22.7909 -22.7463 -12.6425 -12.1257  -1.9476  -0.2440
     0.0703   0.1946   0.9441   1.3041   4.2816   5.7817   6.1289   6.5827
     6.8250   7.2597   8.7267  10.0334  11.5418  12.7232  13.9756  14.2046
    14.5364  14.7611

          k = 0.1875 0.1093 0.0000 (  6387 PWs)   bands (ev):

   -44.8911 -23.0988 -22.8646 -22.7642 -12.5155 -12.0596  -1.7294  -0.6852
    -0.1498   0.1026   0.4209   1.1603   4.1772   5.8012   6.3353   6.6193
     7.0813   7.8974   9.3386  10.7797  11.8291  12.1891  13.5354  14.2995
    14.6285  15.1214

          k = 0.1875 0.1822 0.0000 (  6368 PWs)   bands (ev):

   -44.8872 -23.0870 -22.9044 -22.7784 -12.4433 -12.0143  -1.6068  -0.9093
    -0.3385  -0.0322   0.2988   1.0532   4.1167   5.8321   6.5433   6.6898
     7.2033   8.2126   9.6508  11.0556  11.9210  12.1335  13.3898  14.0277
    14.8951  15.1071

          k = 0.1875 0.2551 0.0000 (  6366 PWs)   bands (ev):

   -44.8822 -23.0716 -22.9507 -22.8023 -12.3536 -11.9471  -1.4526  -1.1573
    -0.5877  -0.2792   0.2410   0.8533   4.0913   5.8464   6.8160   6.9494
     7.3208   8.6244   9.9544  11.3048  12.0131  12.3717  13.1637  13.7644
    14.5708  14.9038

          k = 0.1875 0.3280 0.0000 (  6363 PWs)   bands (ev):

   -44.8767 -23.0549 -22.9962 -22.8322 -12.2644 -11.8621  -1.4286  -1.2630
    -0.9002  -0.4572   0.1606   0.6041   4.1145   5.9502   7.0061   7.3305
     7.4847   9.0936  10.0897  11.5114  12.2416  12.4500  13.2537  13.5660
    13.7111  14.8351

          k = 0.1875 0.4009 0.0000 (  6362 PWs)   bands (ev):

   -44.8717 -23.0404 -23.0341 -22.8624 -12.1898 -11.7710  -1.6283  -1.2202
    -1.1246  -0.5496   0.0552   0.3660   4.1840   6.1848   7.1303   7.5119
     7.7887   9.6219  10.0503  11.6632  12.1791  12.3357  13.0849  13.4812
    14.0313  14.5944

          k = 0.1875 0.4738 0.0000 (  6346 PWs)   bands (ev):

   -44.8678 -23.0635 -23.0272 -22.8869 -12.1376 -11.6931  -1.7783  -1.4600
    -1.0296  -0.5910  -0.0466   0.1871   4.2774   6.5305   7.1684   7.6588
     7.8757   9.9208  10.2375  11.7070  11.8337  12.2899  12.8505  13.5855
    14.3280  14.5663

          k = 0.1875 0.5467 0.0000 (  6344 PWs)   bands (ev):

   -44.8657 -23.0781 -23.0208 -22.9005 -12.1109 -11.6481  -1.8567  -1.5910
    -0.9815  -0.6045  -0.1088   0.0926   4.3466   6.8802   7.1800   7.7075
     7.7538   9.7984  10.8048  11.5950  11.8677  12.2779  12.4246  13.5104
    14.3840  14.5176

          k = 0.1875-0.0364 0.0000 (  6391 PWs)   bands (ev):

   -44.8932 -23.1052 -22.8401 -22.7593 -12.5557 -12.0822  -1.7962  -0.5338
    -0.0669   0.1226   0.5639   1.1837   4.2317   5.7284   6.2957   6.6149
     6.9919   7.7260   9.1508  10.5897  11.8043  12.3090  13.6130  14.1895
    14.6216  15.0885

          k = 0.2500 0.1458 0.0000 (  6374 PWs)   bands (ev):

   -44.8849 -23.0797 -22.9362 -22.7796 -12.3992 -11.9844  -1.5481  -1.0762
    -0.5331   0.0085   0.2015   1.0480   4.0252   6.0020   6.6258   6.7367
     7.2887   8.3726   9.7737  11.1634  11.7743  12.0568  13.7219  13.9979
    14.9644  15.0905

          k = 0.2500 0.2187 0.0000 (  6361 PWs)   bands (ev):

   -44.8811 -23.0679 -22.9747 -22.7945 -12.3325 -11.9300  -1.4853  -1.2343
    -0.7612  -0.1551   0.1938   0.9310   3.9808   6.0772   6.8164   6.9415
     7.3813   8.6667   9.9287  11.2943  11.8185  12.0784  13.7119  13.9526
    14.6271  14.9423

          k = 0.2500 0.2916 0.0000 (  6352 PWs)   bands (ev):

   -44.8765 -23.0540 -23.0102 -22.8218 -12.2592 -11.8572  -1.5370  -1.2351
    -0.9856  -0.3746   0.1693   0.6810   4.0327   6.0997   6.9959   7.3456
     7.4784   9.0885  10.0247  11.4547  12.0531  12.2156  13.5199  13.7544
    13.9554  14.7243

          k = 0.2500 0.3645 0.0000 (  6351 PWs)   bands (ev):

   -44.8720 -23.0411 -23.0357 -22.8580 -12.1922 -11.7745  -1.6341  -1.2210
    -1.1275  -0.5389   0.0614   0.3817   4.1742   6.1844   7.1352   7.5159
     7.7948   9.6228  10.0415  11.6596  12.1844  12.3604  13.1238  13.4265
    13.9918  14.5639

          k = 0.2500 0.4373 0.0000 (  6351 PWs)   bands (ev):

   -44.8681 -23.0518 -23.0277 -22.8964 -12.1398 -11.6970  -1.6846  -1.4147
    -1.0422  -0.6351  -0.1546   0.1709   4.3693   6.3640   7.1301   7.7430
     7.9042  10.0162  10.2847  11.6453  11.9093  12.5300  13.1392  13.6001
    14.2170  14.3339

          k = 0.2500 0.5102 0.0000 (  6340 PWs)   bands (ev):

   -44.8655 -23.0558 -23.0199 -22.9277 -12.1068 -11.6415  -1.6953  -1.5425
    -0.9806  -0.7006  -0.3595   0.0623   4.5503   6.6158   7.0850   7.7259
     7.9389  10.0078  10.8527  11.4445  12.0790  12.6011  12.9644  13.6893
    14.2152  14.4671

          k = 0.2500 0.5831 0.0000 (  6346 PWs)   bands (ev):

   -44.8646 -23.0555 -23.0171 -22.9404 -12.0955 -11.6214  -1.7007  -1.5760
    -0.9592  -0.7362  -0.4297   0.0255   4.6263   6.7836   7.0640   7.5543
     8.0109   9.9932  10.9311  11.7511  12.1897  12.6002  12.6226  13.5576
    14.4794  14.4873

          k = 0.2500-0.0729 0.0000 (  6385 PWs)   bands (ev):

   -44.8875 -23.0876 -22.9041 -22.7760 -12.4459 -12.0173  -1.6098  -0.9029
    -0.3319  -0.0267   0.3004   1.0477   4.1204   5.8175   6.5604   6.7198
     7.1876   8.2109   9.6354  11.0503  11.9304  12.1433  13.4006  14.0565
    14.8704  15.0992

          k = 0.2500 0.0000 0.0000 (  6375 PWs)   bands (ev):

   -44.8884 -23.0904 -22.8908 -22.7767 -12.4627 -12.0283  -1.6328  -0.8223
    -0.2470  -0.0695   0.3457   1.0269   4.1718   5.7206   6.5653   6.7270
     7.1405   8.1617   9.5800  11.0060  12.0805  12.1981  13.1767  14.0009
    14.8330  15.0119

          k = 0.3125 0.1822 0.0000 (  6360 PWs)   bands (ev):

   -44.8788 -23.0605 -23.0067 -22.7948 -12.2928 -11.8933  -1.5934  -1.2504
    -0.9576  -0.0954   0.1148   0.9535   3.8866   6.3451   6.8858   6.9948
     7.4619   8.7973   9.9122  11.2604  11.6893  12.0353  13.6693  14.2662
    14.6110  14.9285

          k = 0.3125 0.2551 0.0000 (  6349 PWs)   bands (ev):

   -44.8754 -23.0505 -23.0376 -22.8096 -12.2406 -11.8363  -1.7243  -1.2349
    -1.1095  -0.2389   0.1289   0.8250   3.8890   6.4413   6.9791   7.3400
     7.5141   9.0850   9.9081  11.2831  11.7788  12.0750  13.4627  14.0586
    14.4202  14.7010

          k = 0.3125 0.3280 0.0000 (  6340 PWs)   bands (ev):

   -44.8717 -23.0595 -23.0385 -22.8388 -12.1879 -11.7684  -1.7986  -1.3353
    -1.0937  -0.4231   0.1072   0.5279   4.0241   6.4682   7.1444   7.4998
     7.7454   9.5683   9.8931  11.4780  11.9718  12.1305  13.0773  13.5678
    14.3571  14.6182

          k = 0.3125 0.4009 0.0000 (  6346 PWs)   bands (ev):

   -44.8684 -23.0658 -23.0283 -22.8791 -12.1424 -11.7004  -1.7860  -1.4576
    -1.0326  -0.5712  -0.0318   0.2032   4.2632   6.5216   7.1760   7.6712
     7.8865   9.8900  10.2498  11.7185  11.8534  12.3131  12.8450  13.5580
    14.2894  14.5289

          k = 0.3125 0.4738 0.0000 (  6344 PWs)   bands (ev):

   -44.8658 -23.0570 -23.0204 -22.9238 -12.1092 -11.6453  -1.6971  -1.5405
    -0.9821  -0.6914  -0.3472   0.0609   4.5464   6.6069   7.0867   7.7298
     7.9493   9.9875  10.8693  11.4536  12.0827  12.6192  12.9308  13.7199
    14.2019  14.4576

          k = 0.3125 0.5467 0.0000 (  6350 PWs)   bands (ev):

   -44.8644 -23.0395 -23.0162 -22.9608 -12.0917 -11.6144  -1.6628  -1.4803
    -0.9516  -0.8601  -0.5303   0.0027   4.7600   6.6902   7.0168   7.4969
     8.1323  10.1407  10.7133  12.0589  12.2860  12.8081  12.9499  13.2619
    14.3676  14.5885

          k = 0.3125-0.1093 0.0000 (  6360 PWs)   bands (ev):

   -44.8814 -23.0684 -22.9730 -22.7935 -12.3351 -11.9332  -1.4842  -1.2279
    -0.7503  -0.1479   0.1873   0.9185   3.9903   6.0727   6.8368   6.9426
     7.3686   8.6641   9.9210  11.2989  11.8242  12.0838  13.7349  13.9848
    14.5823  14.9424

          k = 0.3125-0.0364 0.0000 (  6369 PWs)   bands (ev):

   -44.8828 -23.0727 -22.9491 -22.7985 -12.3588 -11.9535  -1.4574  -1.1435
    -0.5711  -0.2694   0.2385   0.8424   4.1010   5.8360   6.8601   6.9586
     7.2968   8.6196   9.9347  11.3039  12.0376  12.3825  13.1892  13.8024
    14.4990  14.8883

          k = 0.3750 0.2187 0.0000 (  6344 PWs)   bands (ev):

   -44.8735 -23.0661 -23.0437 -22.8077 -12.2122 -11.8011  -1.8879  -1.3452
    -1.1097  -0.1880   0.0773   0.8829   3.8081   6.7293   7.0460   7.3869
     7.5868   9.1573   9.8213  11.1267  11.7159  12.0324  13.1940  14.2067
    14.3570  14.5700

          k = 0.3750 0.2916 0.0000 (  6345 PWs)   bands (ev):

   -44.8711 -23.0859 -23.0363 -22.8213 -12.1778 -11.7533  -1.9837  -1.4612
    -1.0677  -0.2943   0.0860   0.7469   3.8570   6.8354   7.1247   7.5688
     7.6906   9.4351   9.7758  11.1763  11.7769  12.0424  12.8936  13.7400
    14.2940  14.5681

          k = 0.3750 0.3645 0.0000 (  6342 PWs)   bands (ev):

   -44.8686 -23.0909 -23.0288 -22.8505 -12.1448 -11.7031  -1.9757  -1.5396
    -1.0220  -0.4409   0.0626   0.4202   4.0493   6.8762   7.2444   7.5507
     7.8366   9.6674  10.0951  11.4725  11.8778  12.0754  12.5218  13.4129
    14.3112  14.5733

          k = 0.3750 0.4373 0.0000 (  6349 PWs)   bands (ev):

   -44.8665 -23.0798 -23.0224 -22.8912 -12.1177 -11.6588  -1.8612  -1.5824
    -0.9846  -0.5779  -0.0857   0.0970   4.3345   6.8622   7.1826   7.7193
     7.7757   9.7617  10.8179  11.6228  11.9136  12.2659  12.3810  13.5223
    14.3513  14.5232

          k = 0.3750 0.5102 0.0000 (  6345 PWs)   bands (ev):

   -44.8651 -23.0562 -23.0181 -22.9347 -12.0999 -11.6285  -1.6959  -1.5688
    -0.9616  -0.7235  -0.4135   0.0176   4.6271   6.7695   7.0638   7.5457
     8.0341   9.9633  10.9655  11.7364  12.2079  12.5850  12.6207  13.6204
    14.4612  14.4964

          k = 0.3750 0.5831 0.0000 (  6344 PWs)   bands (ev):

   -44.8646 -23.0388 -23.0166 -22.9592 -12.0937 -11.6177  -1.6567  -1.4711
    -0.9531  -0.8606  -0.5267  -0.0027   4.7662   6.6871   7.0162   7.4797
     8.1446  10.1270  10.7301  12.0061  12.3054  12.8263  12.9858  13.2778
    14.3264  14.6130

          k = 0.3750-0.1458 0.0000 (  6367 PWs)   bands (ev):

   -44.8756 -23.0509 -23.0357 -22.8094 -12.2427 -11.8393  -1.7152  -1.2319
    -1.1035  -0.2307   0.1192   0.8115   3.9000   6.4492   6.9949   7.3162
     7.5086   9.0808   9.9059  11.2927  11.7784  12.0760  13.4757  14.0178
    14.4279  14.7503

          k = 0.3750-0.0729 0.0000 (  6364 PWs)   bands (ev):

   -44.8770 -23.0550 -23.0068 -22.8203 -12.2639 -11.8636  -1.5205  -1.2361
    -0.9654  -0.3662   0.1604   0.6598   4.0505   6.0985   7.0323   7.3245
     7.4602   9.0807  10.0187  11.4693  12.0614  12.2197  13.5593  13.7047
    14.0084  14.7287

          k = 0.3750 0.0000 0.0000 (  6373 PWs)   bands (ev):

   -44.8775 -23.0565 -22.9936 -22.8272 -12.2715 -11.8719  -1.4107  -1.2681
    -0.8779  -0.4427   0.1552   0.5939   4.1277   5.9462   7.0562   7.3100
     7.4679   9.0845  10.0773  11.5193  12.2594  12.4840  13.2665  13.5606
    13.7058  14.8082

          k = 0.4375 0.2551 0.0000 (  6336 PWs)   bands (ev):

   -44.8701 -23.1048 -23.0330 -22.8163 -12.1634 -11.7313  -2.1043  -1.5538
    -1.0445  -0.2512   0.0627   0.8392   3.7839   6.9560   7.2743   7.6365
     7.7310   9.3766   9.7270  11.0092  11.6916  12.0219  12.6865  13.8648
    14.0879  14.3367

          k = 0.4375 0.3280 0.0000 (  6344 PWs)   bands (ev):

   -44.8688 -23.1110 -23.0290 -22.8277 -12.1466 -11.7047  -2.1263  -1.6038
    -1.0201  -0.3213   0.0636   0.7041   3.8585   7.0484   7.3233   7.6076
     7.8135   9.4752   9.8707  11.1162  11.7047  12.0530  12.4911  13.4848
    14.2058  14.3108

          k = 0.4375 0.4009 0.0000 (  6343 PWs)   bands (ev):

   -44.8676 -23.1011 -23.0254 -22.8547 -12.1310 -11.6800  -2.0346  -1.6076
    -0.9981  -0.4424   0.0441   0.3770   4.0687   7.0971   7.3198   7.5606
     7.7497   9.5697  10.3602  11.4830  11.8443  12.1245  12.1681  13.3486
    14.2739  14.4662

          k = 0.4375 0.4738 0.0000 (  6347 PWs)   bands (ev):

   -44.8667 -23.0783 -23.0227 -22.8912 -12.1191 -11.6610  -1.8534  -1.5763
    -0.9851  -0.5757  -0.0877   0.0877   4.3420   6.8756   7.1826   7.6874
     7.7810   9.7620  10.7973  11.6169  11.9390  12.2526  12.4131  13.5124
    14.3569  14.5384

          k = 0.4375 0.5467 0.0000 (  6341 PWs)   bands (ev):

   -44.8662 -23.0541 -23.0212 -22.9230 -12.1126 -11.6508  -1.6809  -1.5254
    -0.9838  -0.6880  -0.3528   0.0492   4.5609   6.6118   7.0859   7.6815
     7.9699   9.9842  10.8557  11.4254  12.1232  12.6134  13.0021  13.6964
    14.2043  14.4579

          k = 0.4375-0.1822 0.0000 (  6344 PWs)   bands (ev):

   -44.8712 -23.0843 -23.0366 -22.8214 -12.1792 -11.7555  -1.9765  -1.4551
    -1.0682  -0.2877   0.0778   0.7369   3.8656   6.8503   7.1379   7.5660
     7.6564   9.4237   9.7779  11.1823  11.7821  12.0434  12.8981  13.7068
    14.3110  14.6039

          k = 0.4375-0.1093 0.0000 (  6346 PWs)   bands (ev):

   -44.8722 -23.0561 -23.0392 -22.8386 -12.1914 -11.7736  -1.7816  -1.3207
    -1.0943  -0.4151   0.0976   0.5065   4.0419   6.4800   7.1589   7.5033
     7.6973   9.5554   9.8921  11.4996  11.9718  12.1255  13.0764  13.5695
    14.3780  14.6672

          k = 0.4375-0.0364 0.0000 (  6362 PWs)   bands (ev):

   -44.8726 -23.0417 -23.0321 -22.8559 -12.1981 -11.7833  -1.6095  -1.2002
    -1.1285  -0.5286   0.0516   0.3598   4.1955   6.1850   7.1548   7.5227
     7.7483   9.6080  10.0383  11.6863  12.1744  12.3720  13.1200  13.4693
    14.0303  14.5688

          k =-0.5000-0.2916 0.0000 (  6336 PWs)   bands (ev):

   -44.8688 -23.1184 -23.0291 -22.8193 -12.1472 -11.7053  -2.1814  -1.6271
    -1.0205  -0.2736   0.0592   0.8244   3.7818   7.0050   7.4135   7.6666
     7.8524   9.3952   9.7504  10.9721  11.6095  12.0544  12.5050  13.6752
    14.0031  14.2086

          k =-0.5000-0.2187 0.0000 (  6332 PWs)   bands (ev):

   -44.8688 -23.1104 -23.0292 -22.8278 -12.1470 -11.7055  -2.1236  -1.6017
    -1.0203  -0.3188   0.0605   0.7004   3.8617   7.0511   7.3410   7.6078
     7.7893   9.4656   9.8735  11.1180  11.7124  12.0536  12.4903  13.4740
    14.2123  14.3216

          k =-0.5000-0.1458 0.0000 (  6346 PWs)   bands (ev):

   -44.8688 -23.0888 -23.0292 -22.8506 -12.1467 -11.7060  -1.9656  -1.5313
    -1.0228  -0.4357   0.0565   0.4068   4.0602   6.8966   7.2490   7.5614
     7.7846   9.6603  10.0836  11.4869  11.8893  12.0682  12.5342  13.4001
    14.3205  14.6037

          k =-0.5000-0.0729 0.0000 (  6349 PWs)   bands (ev):

   -44.8688 -23.0620 -23.0292 -22.8787 -12.1463 -11.7066  -1.7658  -1.4405
    -1.0345  -0.5645  -0.0394   0.1821   4.2820   6.5321   7.1767   7.6917
     7.8261   9.8919  10.2223  11.7308  11.8728  12.2967  12.8885  13.5547
    14.3094  14.5649

          k =-0.5000 0.0000 0.0000 (  6355 PWs)   bands (ev):

   -44.8688 -23.0481 -23.0292 -22.8932 -12.1462 -11.7068  -1.6611  -1.3921
    -1.0464  -0.6221  -0.1615   0.1541   4.3881   6.3638   7.1340   7.7665
     7.8498  10.0085  10.2597  11.6468  11.9438  12.5470  13.2017  13.5884
    14.2122  14.3389

     highest occupied, lowest unoccupied level (ev):     4.7662    5.7206

!    total energy              =    -591.24404614 Ry
     total all-electron energy =    -13333.877322 Ry
     estimated scf accuracy    <          7.9E-11 Ry

     The total energy is the sum of the following terms:
     one-electron contribution =    -203.90650665 Ry
     hartree contribution      =     109.77719268 Ry
     xc contribution           =     -37.59092543 Ry
     ewald contribution        =     -28.40811164 Ry
     one-center paw contrib.   =    -431.11569510 Ry

     convergence has been achieved in   6 iterations

     Forces acting on atoms (cartesian axes, Ry/au):

     atom    1 type  1   force =     0.00000000   -0.00063764    0.00001895
     atom    2 type  2   force =     0.00000000    0.00028866   -0.00130850
     atom    3 type  3   force =     0.00000000    0.00034898    0.00128955
     The non-local contrib.  to forces
     atom    1 type  1   force =     0.00000000   -0.00146895   -0.00066332
     atom    2 type  2   force =     0.00000000   -0.00085400   -0.21319228
     atom    3 type  3   force =     0.00000000   -0.00077500    0.20972423
     The ionic contribution  to forces
     atom    1 type  1   force =    -0.00000001   -0.07544416   -0.31642548
     atom    2 type  2   force =     0.00000000    0.04257009   20.95844884
     atom    3 type  3   force =     0.00000000    0.03287407  -20.64202335
     The local contribution  to forces
     atom    1 type  1   force =     0.00000000    0.07623096    0.31673171
     atom    2 type  2   force =     0.00000003   -0.04140188  -20.75456406
     atom    3 type  3   force =    -0.00000000   -0.03168009   20.43735389
     The core correction contribution to forces
     atom    1 type  1   force =     0.00000000    0.00004387    0.00036854
     atom    2 type  2   force =    -0.00000000   -0.00002661    0.00801732
     atom    3 type  3   force =    -0.00000000   -0.00007113   -0.00372853
     The Hubbard contrib.    to forces
     atom    1 type  1   force =     0.00000000    0.00000000    0.00000000
     atom    2 type  2   force =     0.00000000    0.00000000    0.00000000
     atom    3 type  3   force =     0.00000000    0.00000000    0.00000000
     The SCF correction term to forces
     atom    1 type  1   force =     0.00000000   -0.00000067    0.00004030
     atom    2 type  2   force =    -0.00000000   -0.00000026    0.00001448
     atom    3 type  3   force =    -0.00000000   -0.00000019   -0.00000389

     Total force =     0.001997     Total SCF correction =     0.000043
     Energy error            =      7.9E-06 Ry
     Gradient error          =      1.3E-03 Ry/Bohr

     number of scf cycles    =   3
     number of bfgs steps    =   2

     energy             old  =    -591.2440382135 Ry
     energy             new  =    -591.2440461366 Ry

     CASE: energy            _new < energy            _old

     new trust radius        =       0.0034583545 bohr
     new conv_thr            =            1.0E-10 Ry


ATOMIC_POSITIONS (angstrom)
Zr            0.0000000000       -0.0022802353       10.2766653751
Cl           -0.0000000017        2.0154848304       11.9608816039
Br           -0.0000000017        2.0156522496        8.4256017953



     Writing config-only to output data dir ./tmp/ZrClBr.save/
     NEW-OLD atomic charge density approx. for the potential

     Check: negative core charge=   -0.000004

     total cpu time spent up to now is       42.6 secs

     Self-consistent Calculation

     iteration #  1     ecut=    65.00 Ry     beta= 0.70
     Davidson diagonalization with overlap
     ethr =  1.00E-06,  avg # of iterations =  3.0

     Threshold (ethr) on eigenvalues was too large:
     Diagonalizing with lowered threshold

     Davidson diagonalization with overlap
     ethr =  7.05E-09,  avg # of iterations =  2.6

     total cpu time spent up to now is       46.2 secs

     total energy              =    -591.24405304 Ry
     estimated scf accuracy    <       0.00000199 Ry

     iteration #  2     ecut=    65.00 Ry     beta= 0.70
     Davidson diagonalization with overlap
     ethr =  7.67E-09,  avg # of iterations =  2.0

     total cpu time spent up to now is       47.8 secs

     total energy              =    -591.24405283 Ry
     estimated scf accuracy    <       0.00000705 Ry

     iteration #  3     ecut=    65.00 Ry     beta= 0.70
     Davidson diagonalization with overlap
     ethr =  7.67E-09,  avg # of iterations =  2.0

     total cpu time spent up to now is       49.4 secs

     total energy              =    -591.24405410 Ry
     estimated scf accuracy    <       0.00000004 Ry

     iteration #  4     ecut=    65.00 Ry     beta= 0.70
     Davidson diagonalization with overlap
     ethr =  1.68E-10,  avg # of iterations =  2.0

     total cpu time spent up to now is       50.9 secs

     total energy              =    -591.24405411 Ry
     estimated scf accuracy    <       0.00000002 Ry

     iteration #  5     ecut=    65.00 Ry     beta= 0.70
     Davidson diagonalization with overlap
     ethr =  7.50E-11,  avg # of iterations =  1.7

     total cpu time spent up to now is       52.4 secs

     total energy              =    -591.24405411 Ry
     estimated scf accuracy    <          1.8E-09 Ry

     iteration #  6     ecut=    65.00 Ry     beta= 0.70
     Davidson diagonalization with overlap
     ethr =  6.99E-12,  avg # of iterations =  2.0

     total cpu time spent up to now is       53.9 secs

     End of self-consistent calculation

          k = 0.0000 0.0000 0.0000 (  6395 PWs)   bands (ev):

   -44.8965 -23.1261 -22.7457 -22.7324 -12.7184 -12.1594  -2.0778  -0.0142
     0.1827   0.2292   1.3495   1.4084   4.2967   5.9237   6.0267   6.6321
     6.6711   6.7756   8.3705   9.4216  11.3437  13.5276  13.6683  13.9281
    14.6245  15.1817

          k = 0.0000 0.0729 0.0000 (  6405 PWs)   bands (ev):

   -44.8953 -23.1222 -22.7490 -22.7476 -12.6927 -12.1478  -2.0332  -0.0810
     0.1697   0.1753   1.2492   1.3134   4.3008   5.9585   5.9586   6.6315
     6.6922   6.9570   8.4998   9.6573  11.4095  13.1837  13.6551  14.3186
    14.6537  14.8719

          k = 0.0000 0.1458 0.0000 (  6403 PWs)   bands (ev):

   -44.8916 -23.1111 -22.7905 -22.7584 -12.6204 -12.1132  -1.9080  -0.3097
     0.0600   0.1284   0.8572   1.2192   4.2874   5.8400   6.0710   6.5882
     6.8521   7.3956   8.8604  10.2154  11.6062  12.6127  14.0183  14.0690
    14.5297  14.9054

          k = 0.0000 0.2187 0.0000 (  6377 PWs)   bands (ev):

   -44.8862 -23.0944 -22.8538 -22.7723 -12.5145 -12.0562  -1.7279  -0.6707
    -0.1376   0.0554   0.4388   1.0984   4.2041   5.8338   6.2760   6.6232
     7.0635   7.9033   9.3678  10.7946  11.8431  12.2118  13.5678  14.3364
    14.5457  15.1810

          k = 0.0000 0.2916 0.0000 (  6369 PWs)   bands (ev):

   -44.8798 -23.0747 -22.9273 -22.7886 -12.3957 -11.9778  -1.5452  -1.0651
    -0.5215  -0.0443   0.2127   0.9801   4.0568   6.0190   6.5805   6.7338
     7.2743   8.3771   9.8055  11.1755  11.7858  12.0782  13.7531  14.0504
    15.0097  15.0458

          k = 0.0000 0.3645 0.0000 (  6355 PWs)   bands (ev):

   -44.8733 -23.0549 -22.9995 -22.8049 -12.2868 -11.8832  -1.5880  -1.2450
    -0.9527  -0.1543   0.1273   0.8807   3.9193   6.3532   6.8783   6.9678
     7.4483   8.7997   9.9442  11.2691  11.6912  12.0524  13.7409  14.3190
    14.6864  14.8420

          k = 0.0000 0.4373 0.0000 (  6338 PWs)   bands (ev):

   -44.8678 -23.0604 -23.0375 -22.8187 -12.2043 -11.7875  -1.8822  -1.3501
    -1.1058  -0.2522   0.0930   0.8063   3.8420   6.7280   7.0364   7.3809
     7.5732   9.1587   9.8631  11.1093  11.7313  12.0526  13.2651  14.2563
    14.2751  14.6318

          k = 0.0000 0.5102 0.0000 (  6344 PWs)   bands (ev):

   -44.8642 -23.1000 -23.0265 -22.8278 -12.1542 -11.7153  -2.0990  -1.5642
    -1.0428  -0.3189   0.0811   0.7602   3.8194   6.9419   7.2660   7.6217
     7.7456   9.3953   9.7651  10.9698  11.7224  12.0666  12.7382  13.7511
    14.1305  14.3849

          k = 0.0000-0.5831 0.0000 (  6346 PWs)   bands (ev):

   -44.8629 -23.1139 -23.0225 -22.8311 -12.1375 -11.6884  -2.1763  -1.6394
    -1.0198  -0.3424   0.0786   0.7445   3.8181   6.9875   7.4021   7.6496
     7.8781   9.4389   9.7707  10.9244  11.6489  12.1138  12.5469  13.5526
    14.0307  14.2508

          k = 0.0625 0.0364 0.0000 (  6409 PWs)   bands (ev):

   -44.8953 -23.1223 -22.7587 -22.7373 -12.6933 -12.1483  -2.0339  -0.0895
     0.1459   0.2096   1.2051   1.3628   4.2977   5.8781   6.0456   6.6064
     6.7223   6.9553   8.4946   9.6509  11.4082  13.1302  13.7575  14.2825
    14.6307  14.7944

          k = 0.0625 0.1093 0.0000 (  6413 PWs)   bands (ev):

   -44.8929 -23.1148 -22.7807 -22.7507 -12.6443 -12.1253  -1.9489  -0.2349
     0.0728   0.1694   0.9598   1.2680   4.2935   5.8339   6.0710   6.5853
     6.8141   7.2643   8.7399  10.0466  11.5421  12.7513  13.8810  14.2467
    14.5918  14.7761

          k = 0.0625 0.1822 0.0000 (  6385 PWs)   bands (ev):

   -44.8883 -23.1009 -22.8298 -22.7662 -12.5551 -12.0795  -1.7950  -0.5241
    -0.0668   0.0935   0.5727   1.1406   4.2501   5.7699   6.2347   6.6014
     6.9890   7.7318   9.1799  10.6076  11.8111  12.3198  13.6401  14.1324
    14.6372  15.1246

          k = 0.0625 0.2551 0.0000 (  6363 PWs)   bands (ev):

   -44.8824 -23.0827 -22.8958 -22.7838 -12.4428 -12.0115  -1.6065  -0.8978
    -0.3261  -0.0653   0.3019   1.0001   4.1424   5.8396   6.5157   6.6973
     7.1889   8.2164   9.6724  11.0623  11.9315  12.1571  13.4111  14.0635
    14.8596  15.1305

          k = 0.0625 0.3280 0.0000 (  6348 PWs)   bands (ev):

   -44.8759 -23.0629 -22.9665 -22.8023 -12.3295 -11.9239  -1.4821  -1.2245
    -0.7501  -0.1931   0.1915   0.8659   4.0125   6.0806   6.8120   6.9224
     7.3675   8.6687   9.9536  11.3068  11.8222  12.0912  13.7638  14.0061
    14.6373  14.9378

          k = 0.0625 0.4009 0.0000 (  6353 PWs)   bands (ev):

   -44.8700 -23.0450 -23.0306 -22.8191 -12.2352 -11.8266  -1.7157  -1.2338
    -1.1041  -0.2846   0.1304   0.7528   3.9230   6.4469   6.9728   7.3207
     7.5023   9.0840   9.9411  11.2831  11.7780  12.0880  13.5327  14.0494
    14.4442  14.7469

          k = 0.0625 0.4738 0.0000 (  6348 PWs)   bands (ev):

   -44.8654 -23.0801 -23.0302 -22.8319 -12.1704 -11.7403  -1.9758  -1.4671
    -1.0656  -0.3485   0.0948   0.6718   3.8919   6.8397   7.1179   7.5554
     7.6807   9.4350   9.8185  11.1467  11.7971  12.0695  12.9413  13.6875
    14.3380  14.6141

          k = 0.0625 0.5467 0.0000 (  6338 PWs)   bands (ev):

   -44.8629 -23.1062 -23.0227 -22.8388 -12.1378 -11.6893  -2.1207  -1.6152
    -1.0195  -0.3822   0.0791   0.6298   3.8924   7.0349   7.3255   7.5935
     7.8199   9.5124   9.8879  11.0677  11.7413  12.1054  12.5164  13.4227
    14.2285  14.3340

          k = 0.1250 0.0729 0.0000 (  6403 PWs)   bands (ev):

   -44.8919 -23.1115 -22.7995 -22.7472 -12.6224 -12.1154  -1.9105  -0.3288
     0.0470   0.1671   0.8244   1.2710   4.2750   5.7878   6.1454   6.5769
     6.8766   7.3915   8.8434  10.1995  11.5997  12.5854  14.0153  14.1087
    14.5107  14.8551

          k = 0.1250 0.1458 0.0000 (  6383 PWs)   bands (ev):

   -44.8885 -23.1012 -22.8341 -22.7604 -12.5566 -12.0811  -1.7967  -0.5358
    -0.0696   0.1107   0.5590   1.1708   4.2394   5.7592   6.2615   6.5942
     7.0031   7.7297   9.1694  10.5998  11.8042  12.3072  13.6200  14.1389
    14.6605  15.0968

          k = 0.1250 0.2187 0.0000 (  6380 PWs)   bands (ev):

   -44.8835 -23.0858 -22.8853 -22.7802 -12.4609 -12.0243  -1.6306  -0.8284
    -0.2518  -0.0892   0.3400   1.0123   4.1791   5.7451   6.5334   6.6871
     7.1623   8.1665   9.6129  11.0151  12.0651  12.1959  13.1749  13.9772
    14.8549  15.0288

          k = 0.1250 0.2916 0.0000 (  6376 PWs)   bands (ev):

   -44.8775 -23.0675 -22.9448 -22.8035 -12.3545 -11.9462  -1.4545  -1.1528
    -0.5810  -0.2968   0.2370   0.8246   4.1065   5.8484   6.8176   6.9441
     7.3179   8.6259   9.9678  11.3066  12.0202  12.3660  13.1861  13.7926
    14.5585  14.9199

          k = 0.1250 0.3645 0.0000 (  6363 PWs)   bands (ev):

   -44.8716 -23.0493 -23.0034 -22.8267 -12.2576 -11.8529  -1.5308  -1.2337
    -0.9799  -0.4005   0.1638   0.6356   4.0561   6.1016   6.9940   7.3361
     7.4722   9.0881  10.0456  11.4629  12.0402  12.2117  13.5657  13.7371
    14.0064  14.7642

          k = 0.1250 0.4373 0.0000 (  6347 PWs)   bands (ev):

   -44.8665 -23.0531 -23.0332 -22.8462 -12.1839 -11.7605  -1.7903  -1.3374
    -1.0921  -0.4577   0.1061   0.4730   4.0513   6.4768   7.1353   7.4939
     7.7331   9.5652   9.9253  11.4678  11.9640  12.1310  13.0670  13.6075
    14.4013  14.6779

          k = 0.1250 0.5102 0.0000 (  6339 PWs)   bands (ev):

   -44.8631 -23.0854 -23.0230 -22.8592 -12.1388 -11.6919  -1.9692  -1.5485
    -1.0218  -0.4841   0.0694   0.3625   4.0765   6.8915   7.2373   7.5372
     7.8263   9.7039  10.0964  11.4299  11.8855  12.0971  12.5395  13.4082
    14.3534  14.5962

          k = 0.1250 0.5831 0.0000 (  6346 PWs)   bands (ev):

   -44.8619 -23.0967 -23.0193 -22.8638 -12.1236 -11.6665  -2.0325  -1.6220
    -0.9982  -0.4912   0.0570   0.3231   4.0918   7.0984   7.3225   7.5376
     7.7613   9.6137  10.3663  11.4207  11.8613  12.1561  12.1829  13.3413
    14.3131  14.4497

          k = 0.1250 0.0000 0.0000 (  6385 PWs)   bands (ev):

   -44.8930 -23.1151 -22.7873 -22.7425 -12.6458 -12.1269  -1.9508  -0.2476
     0.0687   0.1908   0.9395   1.3006   4.2868   5.7858   6.1342   6.5869
     6.8242   7.2611   8.7263  10.0335  11.5394  12.7263  13.9726  14.2047
    14.5428  14.7568

          k = 0.1875 0.1093 0.0000 (  6387 PWs)   bands (ev):

   -44.8866 -23.0953 -22.8611 -22.7605 -12.5186 -12.0610  -1.7326  -0.6895
    -0.1516   0.0982   0.4200   1.1562   4.1804   5.8068   6.3393   6.6222
     7.0836   7.8991   9.3406  10.7780  11.8300  12.1905  13.5342  14.3048
    14.6269  15.1190

          k = 0.1875 0.1822 0.0000 (  6368 PWs)   bands (ev):

   -44.8828 -23.0834 -22.9010 -22.7747 -12.4463 -12.0159  -1.6102  -0.9134
    -0.3411  -0.0359   0.2987   1.0491   4.1194   5.8379   6.5469   6.6923
     7.2072   8.2142   9.6547  11.0524  11.9218  12.1352  13.3891  14.0326
    14.8929  15.1089

          k = 0.1875 0.2551 0.0000 (  6366 PWs)   bands (ev):

   -44.8777 -23.0680 -22.9473 -22.7987 -12.3565 -11.9490  -1.4563  -1.1610
    -0.5910  -0.2817   0.2405   0.8496   4.0934   5.8523   6.8184   6.9529
     7.3258   8.6258   9.9608  11.3009  12.0112  12.3738  13.1657  13.7687
    14.5725  14.9045

          k = 0.1875 0.3280 0.0000 (  6363 PWs)   bands (ev):

   -44.8723 -23.0512 -22.9928 -22.8286 -12.2672 -11.8642  -1.4327  -1.2661
    -0.9038  -0.4595   0.1600   0.6013   4.1162   5.9561   7.0093   7.3347
     7.4890   9.0948  10.0976  11.5080  12.2392  12.4495  13.2587  13.5687
    13.7140  14.8356

          k = 0.1875 0.4009 0.0000 (  6362 PWs)   bands (ev):

   -44.8672 -23.0367 -23.0307 -22.8589 -12.1926 -11.7732  -1.6317  -1.2236
    -1.1283  -0.5523   0.0542   0.3644   4.1857   6.1903   7.1353   7.5163
     7.7919   9.6232  10.0572  11.6606  12.1798  12.3360  13.0863  13.4834
    14.0350  14.5961

          k = 0.1875 0.4738 0.0000 (  6346 PWs)   bands (ev):

   -44.8634 -23.0602 -23.0234 -22.8833 -12.1404 -11.6955  -1.7812  -1.4635
    -1.0335  -0.5941  -0.0484   0.1871   4.2795   6.5350   7.1749   7.6624
     7.8796   9.9240  10.2406  11.7079  11.8347  12.2904  12.8522  13.5867
    14.3301  14.5680

          k = 0.1875 0.5467 0.0000 (  6344 PWs)   bands (ev):

   -44.8613 -23.0748 -23.0170 -22.8970 -12.1136 -11.6506  -1.8593  -1.5946
    -0.9855  -0.6077  -0.1115   0.0938   4.3491   6.8834   7.1867   7.7122
     7.7578   9.8000  10.8096  11.5969  11.8680  12.2784  12.4258  13.5124
    14.3843  14.5217

          k = 0.1875-0.0364 0.0000 (  6391 PWs)   bands (ev):

   -44.8887 -23.1016 -22.8366 -22.7556 -12.5588 -12.0836  -1.7994  -0.5383
    -0.0684   0.1191   0.5613   1.1801   4.2351   5.7337   6.3000   6.6187
     6.9926   7.7276   9.1519  10.5890  11.8040  12.3115  13.6122  14.1882
    14.6278  15.0835

          k = 0.2500 0.1458 0.0000 (  6374 PWs)   bands (ev):

   -44.8805 -23.0760 -22.9329 -22.7759 -12.4021 -11.9862  -1.5515  -1.0801
    -0.5361   0.0044   0.2026   1.0441   4.0270   6.0081   6.6290   6.7402
     7.2923   8.3745   9.7786  11.1606  11.7765  12.0581  13.7200  14.0006
    14.9645  15.0907

          k = 0.2500 0.2187 0.0000 (  6361 PWs)   bands (ev):

   -44.8766 -23.0642 -22.9713 -22.7908 -12.3353 -11.9319  -1.4892  -1.2376
    -0.7643  -0.1577   0.1937   0.9271   3.9825   6.0829   6.8201   6.9450
     7.3854   8.6687   9.9349  11.2914  11.8206  12.0788  13.7136  13.9523
    14.6298  14.9419

          k = 0.2500 0.2916 0.0000 (  6352 PWs)   bands (ev):

   -44.8721 -23.0502 -23.0069 -22.8182 -12.2620 -11.8593  -1.5410  -1.2381
    -0.9889  -0.3767   0.1689   0.6778   4.0340   6.1055   7.0007   7.3492
     7.4824   9.0902  10.0317  11.4522  12.0542  12.2152  13.5227  13.7565
    13.9567  14.7247

          k = 0.2500 0.3645 0.0000 (  6351 PWs)   bands (ev):

   -44.8675 -23.0374 -23.0322 -22.8544 -12.1949 -11.7768  -1.6377  -1.2246
    -1.1308  -0.5409   0.0604   0.3798   4.1752   6.1902   7.1418   7.5193
     7.7983   9.6239  10.0487  11.6569  12.1847  12.3614  13.1250  13.4289
    13.9952  14.5652

          k = 0.2500 0.4373 0.0000 (  6351 PWs)   bands (ev):

   -44.8636 -23.0485 -23.0240 -22.8928 -12.1426 -11.6993  -1.6878  -1.4186
    -1.0457  -0.6371  -0.1569   0.1711   4.3704   6.3692   7.1373   7.7466
     7.9080  10.0199  10.2877  11.6466  11.9073  12.5308  13.1406  13.6016
    14.2204  14.3364

          k = 0.2500 0.5102 0.0000 (  6340 PWs)   bands (ev):

   -44.8610 -23.0525 -23.0161 -22.9242 -12.1095 -11.6440  -1.6984  -1.5464
    -0.9843  -0.7029  -0.3620   0.0634   4.5518   6.6194   7.0924   7.7313
     7.9428  10.0111  10.8553  11.4466  12.0765  12.6021  12.9660  13.6906
    14.2186  14.4697

          k = 0.2500 0.5831 0.0000 (  6346 PWs)   bands (ev):

   -44.8601 -23.0522 -23.0133 -22.9370 -12.0983 -11.6239  -1.7040  -1.5795
    -0.9629  -0.7388  -0.4321   0.0268   4.6281   6.7852   7.0713   7.5616
     8.0149   9.9961  10.9344  11.7525  12.1875  12.6012  12.6239  13.5594
    14.4803  14.4917

          k = 0.2500-0.0729 0.0000 (  6385 PWs)   bands (ev):

   -44.8831 -23.0840 -22.9008 -22.7722 -12.4489 -12.0190  -1.6131  -0.9072
    -0.3348  -0.0301   0.3003   1.0441   4.1222   5.8236   6.5637   6.7234
     7.1904   8.2127   9.6393  11.0481  11.9320  12.1456  13.3988  14.0585
    14.8719  15.0995

          k = 0.2500 0.0000 0.0000 (  6375 PWs)   bands (ev):

   -44.8840 -23.0867 -22.8874 -22.7730 -12.4656 -12.0300  -1.6359  -0.8267
    -0.2498  -0.0724   0.3448   1.0237   4.1735   5.7269   6.5687   6.7308
     7.1428   8.1634   9.5835  11.0041  12.0824  12.2002  13.1756  14.0015
    14.8358  15.0129

          k = 0.3125 0.1822 0.0000 (  6360 PWs)   bands (ev):

   -44.8743 -23.0568 -23.0035 -22.7911 -12.2955 -11.8954  -1.5975  -1.2532
    -0.9603  -0.0994   0.1159   0.9498   3.8878   6.3509   6.8903   6.9973
     7.4666   8.8002   9.9178  11.2594  11.6917  12.0360  13.6701  14.2654
    14.6124  14.9297

          k = 0.3125 0.2551 0.0000 (  6349 PWs)   bands (ev):

   -44.8710 -23.0468 -23.0344 -22.8060 -12.2433 -11.8385  -1.7283  -1.2375
    -1.1124  -0.2416   0.1288   0.8215   3.8902   6.4466   6.9845   7.3434
     7.5182   9.0882   9.9130  11.2836  11.7804  12.0755  13.4640  14.0604
    14.4198  14.7016

          k = 0.3125 0.3280 0.0000 (  6340 PWs)   bands (ev):

   -44.8673 -23.0563 -23.0348 -22.8352 -12.1907 -11.7707  -1.8023  -1.3382
    -1.0969  -0.4253   0.1070   0.5249   4.0251   6.4735   7.1519   7.5027
     7.7490   9.5715   9.8973  11.4782  11.9732  12.1313  13.0795  13.5691
    14.3568  14.6189

          k = 0.3125 0.4009 0.0000 (  6346 PWs)   bands (ev):

   -44.8639 -23.0626 -23.0245 -22.8756 -12.1452 -11.7028  -1.7895  -1.4610
    -1.0358  -0.5731  -0.0332   0.2022   4.2640   6.5266   7.1842   7.6743
     7.8906   9.8942  10.2520  11.7185  11.8544  12.3144  12.8467  13.5594
    14.2907  14.5299

          k = 0.3125 0.4738 0.0000 (  6344 PWs)   bands (ev):

   -44.8613 -23.0538 -23.0166 -22.9203 -12.1120 -11.6477  -1.7005  -1.5443
    -0.9854  -0.6933  -0.3493   0.0614   4.5473   6.6106   7.0944   7.7352
     7.9538   9.9914  10.8712  11.4557  12.0800  12.6203  12.9326  13.7210
    14.2048  14.4605

          k = 0.3125 0.5467 0.0000 (  6350 PWs)   bands (ev):

   -44.8599 -23.0363 -23.0123 -22.9573 -12.0945 -11.6169  -1.6671  -1.4833
    -0.9548  -0.8630  -0.5315   0.0035   4.7613   6.6911   7.0245   7.5048
     8.1375  10.1454  10.7144  12.0600  12.2838  12.8085  12.9510  13.2636
    14.3721  14.5908

          k = 0.3125-0.1093 0.0000 (  6360 PWs)   bands (ev):

   -44.8769 -23.0647 -22.9697 -22.7898 -12.3378 -11.9353  -1.4880  -1.2311
    -0.7532  -0.1515   0.1880   0.9151   3.9913   6.0789   6.8401   6.9454
     7.3735   8.6663   9.9272  11.2965  11.8263  12.0850  13.7356  13.9842
    14.5832  14.9434

          k = 0.3125-0.0364 0.0000 (  6369 PWs)   bands (ev):

   -44.8783 -23.0690 -22.9459 -22.7947 -12.3616 -11.9555  -1.4607  -1.1474
    -0.5742  -0.2724   0.2384   0.8397   4.1016   5.8426   6.8632   6.9612
     7.3019   8.6214   9.9412  11.3015  12.0384  12.3845  13.1894  13.8034
    14.4990  14.8896

          k = 0.3750 0.2187 0.0000 (  6344 PWs)   bands (ev):

   -44.8691 -23.0629 -23.0400 -22.8040 -12.2150 -11.8034  -1.8917  -1.3472
    -1.1127  -0.1920   0.0781   0.8795   3.8092   6.7346   7.0513   7.3890
     7.5922   9.1627   9.8239  11.1287  11.7178  12.0337  13.1948  14.2071
    14.3579  14.5721

          k = 0.3750 0.2916 0.0000 (  6345 PWs)   bands (ev):

   -44.8666 -23.0827 -23.0325 -22.8177 -12.1806 -11.7557  -1.9874  -1.4632
    -1.0707  -0.2973   0.0860   0.7436   3.8582   6.8407   7.1304   7.5734
     7.6939   9.4419   9.7759  11.1792  11.7789  12.0436  12.8943  13.7431
    14.2931  14.5695

          k = 0.3750 0.3645 0.0000 (  6342 PWs)   bands (ev):

   -44.8642 -23.0878 -23.0250 -22.8469 -12.1476 -11.7055  -1.9793  -1.5421
    -1.0251  -0.4435   0.0626   0.4174   4.0504   6.8809   7.2526   7.5536
     7.8409   9.6716  10.0969  11.4747  11.8812  12.0756  12.5220  13.4159
    14.3098  14.5752

          k = 0.3750 0.4373 0.0000 (  6349 PWs)   bands (ev):

   -44.8621 -23.0767 -23.0185 -22.8876 -12.1205 -11.6612  -1.8646  -1.5855
    -0.9878  -0.5801  -0.0874   0.0965   4.3355   6.8659   7.1903   7.7247
     7.7800   9.7647  10.8213  11.6248  11.9135  12.2667  12.3823  13.5247
    14.3504  14.5258

          k = 0.3750 0.5102 0.0000 (  6345 PWs)   bands (ev):

   -44.8607 -23.0531 -23.0143 -22.9312 -12.1028 -11.6309  -1.6995  -1.5723
    -0.9649  -0.7255  -0.4151   0.0181   4.6281   6.7711   7.0712   7.5526
     8.0400   9.9666  10.9690  11.7371  12.2062  12.5875  12.6201  13.6223
    14.4609  14.4998

          k = 0.3750 0.5831 0.0000 (  6344 PWs)   bands (ev):

   -44.8602 -23.0358 -23.0128 -22.9556 -12.0966 -11.6202  -1.6607  -1.4744
    -0.9568  -0.8625  -0.5277  -0.0021   4.7673   6.6877   7.0237   7.4873
     8.1510  10.1312  10.7324  12.0069  12.3039  12.8246  12.9875  13.2799
    14.3283  14.6167

          k = 0.3750-0.1458 0.0000 (  6367 PWs)   bands (ev):

   -44.8712 -23.0472 -23.0325 -22.8057 -12.2455 -11.8416  -1.7192  -1.2343
    -1.1061  -0.2347   0.1201   0.8083   3.9009   6.4549   6.9990   7.3179
     7.5151   9.0847   9.9108  11.2924  11.7805  12.0775  13.4764  14.0185
    14.4275  14.7518

          k = 0.3750-0.0729 0.0000 (  6364 PWs)   bands (ev):

   -44.8726 -23.0512 -23.0036 -22.8166 -12.2666 -11.8658  -1.5246  -1.2389
    -0.9680  -0.3697   0.1608   0.6574   4.0509   6.1047   7.0352   7.3274
     7.4667   9.0830  10.0259  11.4673  12.0629  12.2210  13.5601  13.7057
    14.0087  14.7288

          k = 0.3750 0.0000 0.0000 (  6373 PWs)   bands (ev):

   -44.8731 -23.0527 -22.9904 -22.8234 -12.2742 -11.8741  -1.4152  -1.2707
    -0.8806  -0.4460   0.1550   0.5921   4.1278   5.9527   7.0585   7.3141
     7.4736   9.0863  10.0853  11.5173  12.2612  12.4822  13.2698  13.5609
    13.7065  14.8082

          k = 0.4375 0.2551 0.0000 (  6336 PWs)   bands (ev):

   -44.8656 -23.1017 -23.0292 -22.8126 -12.1662 -11.7337  -2.1079  -1.5554
    -1.0475  -0.2551   0.0632   0.8360   3.7852   6.9617   7.2795   7.6421
     7.7331   9.3849   9.7260  11.0124  11.6939  12.0233  12.6880  13.8652
    14.0907  14.3365

          k = 0.4375 0.3280 0.0000 (  6344 PWs)   bands (ev):

   -44.8643 -23.1079 -23.0252 -22.8241 -12.1494 -11.7071  -2.1299  -1.6055
    -1.0231  -0.3248   0.0638   0.7010   3.8598   7.0549   7.3275   7.6132
     7.8167   9.4801   9.8725  11.1195  11.7070  12.0539  12.4924  13.4876
    14.2051  14.3118

          k = 0.4375 0.4009 0.0000 (  6343 PWs)   bands (ev):

   -44.8631 -23.0980 -23.0216 -22.8511 -12.1338 -11.6824  -2.0381  -1.6097
    -1.0013  -0.4455   0.0444   0.3744   4.0698   7.1026   7.3255   7.5655
     7.7542   9.5724  10.3642  11.4853  11.8460  12.1248  12.1702  13.3508
    14.2714  14.4695

          k = 0.4375 0.4738 0.0000 (  6347 PWs)   bands (ev):

   -44.8622 -23.0752 -23.0188 -22.8876 -12.1219 -11.6635  -1.8569  -1.5791
    -0.9883  -0.5781  -0.0894   0.0876   4.3429   6.8792   7.1895   7.6919
     7.7871   9.7648  10.8019  11.6186  11.9390  12.2528  12.4150  13.5140
    14.3553  14.5411

          k = 0.4375 0.5467 0.0000 (  6341 PWs)   bands (ev):

   -44.8617 -23.0511 -23.0173 -22.9193 -12.1154 -11.6532  -1.6844  -1.5287
    -0.9873  -0.6900  -0.3546   0.0498   4.5617   6.6152   7.0928   7.6856
     7.9771   9.9875  10.8599  11.4274  12.1221  12.6116  13.0044  13.6983
    14.2046  14.4587

          k = 0.4375-0.1822 0.0000 (  6344 PWs)   bands (ev):

   -44.8668 -23.0812 -23.0328 -22.8177 -12.1820 -11.7579  -1.9803  -1.4569
    -1.0712  -0.2917   0.0787   0.7339   3.8666   6.8555   7.1429   7.5718
     7.6589   9.4316   9.7778  11.1841  11.7847  12.0452  12.8997  13.7067
    14.3104  14.6073

          k = 0.4375-0.1093 0.0000 (  6346 PWs)   bands (ev):

   -44.8677 -23.0530 -23.0354 -22.8349 -12.1942 -11.7760  -1.7854  -1.3228
    -1.0973  -0.4188   0.0981   0.5041   4.0425   6.4855   7.1624   7.5113
     7.6993   9.5600   9.8959  11.4990  11.9744  12.1277  13.0778  13.5692
    14.3775  14.6688

          k = 0.4375-0.0364 0.0000 (  6362 PWs)   bands (ev):

   -44.8682 -23.0379 -23.0289 -22.8522 -12.2009 -11.7857  -1.6134  -1.2027
    -1.1316  -0.5318   0.0510   0.3589   4.1957   6.1910   7.1581   7.5308
     7.7505   9.6098  10.0457  11.6849  12.1785  12.3705  13.1208  13.4696
    14.0320  14.5686

          k =-0.5000-0.2916 0.0000 (  6336 PWs)   bands (ev):

   -44.8644 -23.1154 -23.0253 -22.8156 -12.1500 -11.7077  -2.1850  -1.6285
    -1.0235  -0.2775   0.0596   0.8212   3.7831   7.0109   7.4186   7.6730
     7.8539   9.4011   9.7520  10.9754  11.6112  12.0554  12.5076  13.6756
    14.0077  14.2058

          k =-0.5000-0.2187 0.0000 (  6332 PWs)   bands (ev):

   -44.8644 -23.1074 -23.0253 -22.8241 -12.1499 -11.7079  -2.1272  -1.6033
    -1.0234  -0.3226   0.0610   0.6974   3.8630   7.0568   7.3461   7.6141
     7.7914   9.4706   9.8758  11.1208  11.7142  12.0548  12.4930  13.4746
    14.2115  14.3239

          k =-0.5000-0.1458 0.0000 (  6346 PWs)   bands (ev):

   -44.8644 -23.0857 -23.0254 -22.8470 -12.1495 -11.7085  -1.9692  -1.5333
    -1.0259  -0.4391   0.0570   0.4044   4.0611   6.9015   7.2543   7.5687
     7.7870   9.6647  10.0863  11.4879  11.8929  12.0689  12.5362  13.4003
    14.3190  14.6070

          k =-0.5000-0.0729 0.0000 (  6349 PWs)   bands (ev):

   -44.8644 -23.0589 -23.0254 -22.8751 -12.1491 -11.7090  -1.7695  -1.4431
    -1.0377  -0.5673  -0.0407   0.1819   4.2826   6.5371   7.1822   7.6994
     7.8285   9.8959  10.2258  11.7332  11.8741  12.2960  12.8907  13.5546
    14.3092  14.5662

          k =-0.5000 0.0000 0.0000 (  6355 PWs)   bands (ev):

   -44.8644 -23.0451 -23.0253 -22.8895 -12.1489 -11.7092  -1.6647  -1.3951
    -1.0497  -0.6246  -0.1633   0.1546   4.3884   6.3690   7.1396   7.7735
     7.8529  10.0117  10.2642  11.6504  11.9434  12.5439  13.2057  13.5877
    14.2136  14.3393

     highest occupied, lowest unoccupied level (ev):     4.7673    5.7269

!    total energy              =    -591.24405411 Ry
     total all-electron energy =    -13333.877330 Ry
     estimated scf accuracy    <          4.3E-11 Ry

     The total energy is the sum of the following terms:
     one-electron contribution =    -204.18192394 Ry
     hartree contribution      =     109.91575666 Ry
     xc contribution           =     -37.59258025 Ry
     ewald contribution        =     -28.26951845 Ry
     one-center paw contrib.   =    -431.11578813 Ry

     convergence has been achieved in   6 iterations

     Forces acting on atoms (cartesian axes, Ry/au):

     atom    1 type  1   force =     0.00000000   -0.00018826    0.00003778
     atom    2 type  2   force =     0.00000000    0.00007100   -0.00079035
     atom    3 type  3   force =     0.00000000    0.00011726    0.00075256
     The non-local contrib.  to forces
     atom    1 type  1   force =     0.00000000   -0.00129735   -0.00066320
     atom    2 type  2   force =     0.00000000   -0.00094207   -0.21288498
     atom    3 type  3   force =     0.00000000   -0.00087724    0.20949235
     The ionic contribution  to forces
     atom    1 type  1   force =    -0.00000001   -0.07063734   -0.31452036
     atom    2 type  2   force =     0.00000000    0.03987160   20.97261611
     atom    3 type  3   force =     0.00000000    0.03076574  -20.65809574
     The local contribution  to forces
     atom    1 type  1   force =     0.00000000    0.07169968    0.31485706
     atom    2 type  2   force =     0.00000003   -0.03883876  -20.76846314
     atom    3 type  3   force =    -0.00000000   -0.02971626   20.45308233
     The core correction contribution to forces
     atom    1 type  1   force =     0.00000000    0.00004693    0.00036883
     atom    2 type  2   force =    -0.00000000   -0.00002013    0.00796075
     atom    3 type  3   force =    -0.00000000   -0.00005585   -0.00369377
     The Hubbard contrib.    to forces
     atom    1 type  1   force =     0.00000000    0.00000000    0.00000000
     atom    2 type  2   force =     0.00000000    0.00000000    0.00000000
     atom    3 type  3   force =     0.00000000    0.00000000    0.00000000
     The SCF correction term to forces
     atom    1 type  1   force =     0.00000000   -0.00000171    0.00002149
     atom    2 type  2   force =    -0.00000000   -0.00000117    0.00000696
     atom    3 type  3   force =    -0.00000000   -0.00000066   -0.00000657

     Total force =     0.001117     Total SCF correction =     0.000024
     Energy error            =      8.0E-06 Ry
     Gradient error          =      7.9E-04 Ry/Bohr

     number of scf cycles    =   4
     number of bfgs steps    =   3

     energy             old  =    -591.2440461366 Ry
     energy             new  =    -591.2440541114 Ry

     CASE: energy            _new < energy            _old

     new trust radius        =       0.0043200186 bohr
     new conv_thr            =            1.0E-10 Ry


ATOMIC_POSITIONS (angstrom)
Zr            0.0000000000       -0.0032164230       10.2767040584
Cl           -0.0000000017        2.0158965493       11.9586329295
Br           -0.0000000017        2.0161767182        8.4278117865



     Writing config-only to output data dir ./tmp/ZrClBr.save/
     NEW-OLD atomic charge density approx. for the potential

     Check: negative core charge=   -0.000004

     total cpu time spent up to now is       54.4 secs

     Self-consistent Calculation

     iteration #  1     ecut=    65.00 Ry     beta= 0.70
     Davidson diagonalization with overlap
     ethr =  1.00E-06,  avg # of iterations =  3.0

     Threshold (ethr) on eigenvalues was too large:
     Diagonalizing with lowered threshold

     Davidson diagonalization with overlap
     ethr =  1.11E-08,  avg # of iterations =  2.5

     total cpu time spent up to now is       58.1 secs

     total energy              =    -591.24405598 Ry
     estimated scf accuracy    <       0.00000313 Ry

     iteration #  2     ecut=    65.00 Ry     beta= 0.70
     Davidson diagonalization with overlap
     ethr =  1.20E-08,  avg # of iterations =  2.0

     total cpu time spent up to now is       59.7 secs

     total energy              =    -591.24405566 Ry
     estimated scf accuracy    <       0.00001114 Ry

     iteration #  3     ecut=    65.00 Ry     beta= 0.70
     Davidson diagonalization with overlap
     ethr =  1.20E-08,  avg # of iterations =  2.0

     total cpu time spent up to now is       61.2 secs

     total energy              =    -591.24405766 Ry
     estimated scf accuracy    <       0.00000007 Ry

     iteration #  4     ecut=    65.00 Ry     beta= 0.70
     Davidson diagonalization with overlap
     ethr =  2.55E-10,  avg # of iterations =  2.0

     total cpu time spent up to now is       62.8 secs

     total energy              =    -591.24405767 Ry
     estimated scf accuracy    <       0.00000003 Ry

     iteration #  5     ecut=    65.00 Ry     beta= 0.70
     Davidson diagonalization with overlap
     ethr =  1.25E-10,  avg # of iterations =  1.5

     total cpu time spent up to now is       64.2 secs

     total energy              =    -591.24405767 Ry
     estimated scf accuracy    <          2.6E-09 Ry

     iteration #  6     ecut=    65.00 Ry     beta= 0.70
     Davidson diagonalization with overlap
     ethr =  9.83E-12,  avg # of iterations =  2.0

     total cpu time spent up to now is       65.7 secs

     End of self-consistent calculation

          k = 0.0000 0.0000 0.0000 (  6395 PWs)   bands (ev):

   -44.8910 -23.1217 -22.7411 -22.7277 -12.7227 -12.1604  -2.0818  -0.0122
     0.1750   0.2230   1.3424   1.4040   4.3051   5.9281   6.0339   6.6370
     6.6701   6.7772   8.3687   9.4216  11.3395  13.5280  13.6649  13.9364
    14.6236  15.1816

          k = 0.0000 0.0729 0.0000 (  6405 PWs)   bands (ev):

   -44.8897 -23.1178 -22.7444 -22.7429 -12.6971 -12.1489  -2.0374  -0.0809
     0.1621   0.1709   1.2451   1.3064   4.3089   5.9630   5.9656   6.6308
     6.6973   6.9586   8.4984   9.6569  11.4055  13.1852  13.6555  14.3217
    14.6536  14.8781

          k = 0.0000 0.1458 0.0000 (  6403 PWs)   bands (ev):

   -44.8861 -23.1067 -22.7858 -22.7537 -12.6246 -12.1146  -1.9123  -0.3130
     0.0588   0.1209   0.8541   1.2124   4.2944   5.8470   6.0751   6.5883
     6.8577   7.3974   8.8603  10.2137  11.6034  12.6147  14.0187  14.0752
    14.5324  14.9041

          k = 0.0000 0.2187 0.0000 (  6377 PWs)   bands (ev):

   -44.8806 -23.0899 -22.8492 -22.7677 -12.5186 -12.0578  -1.7324  -0.6753
    -0.1388   0.0480   0.4379   1.0920   4.2097   5.8411   6.2797   6.6242
     7.0698   7.9050   9.3705  10.7908  11.8429  12.2133  13.5722  14.3386
    14.5462  15.1803

          k = 0.0000 0.2916 0.0000 (  6369 PWs)   bands (ev):

   -44.8742 -23.0701 -22.9229 -22.7840 -12.3996 -11.9798  -1.5502  -1.0695
    -0.5239  -0.0516   0.2142   0.9743   4.0614   6.0259   6.5839   6.7357
     7.2814   8.3789   9.8121  11.1709  11.7869  12.0799  13.7550  14.0504
    15.0111  15.0487

          k = 0.0000 0.3645 0.0000 (  6355 PWs)   bands (ev):

   -44.8677 -23.0503 -22.9952 -22.8003 -12.2906 -11.8855  -1.5932  -1.2489
    -0.9556  -0.1615   0.1295   0.8753   3.9236   6.3591   6.8812   6.9707
     7.4562   8.8026   9.9518  11.2686  11.6911  12.0529  13.7412  14.3192
    14.6900  14.8447

          k = 0.0000 0.4373 0.0000 (  6338 PWs)   bands (ev):

   -44.8622 -23.0562 -23.0329 -22.8141 -12.2080 -11.7901  -1.8865  -1.3528
    -1.1106  -0.2594   0.0955   0.8013   3.8462   6.7324   7.0404   7.3837
     7.5816   9.1650   9.8666  11.1119  11.7319  12.0531  13.2675  14.2588
    14.2770  14.6358

          k = 0.0000 0.5102 0.0000 (  6344 PWs)   bands (ev):

   -44.8586 -23.0959 -23.0218 -22.8233 -12.1578 -11.7181  -2.1028  -1.5668
    -1.0480  -0.3261   0.0837   0.7554   3.8239   6.9452   7.2711   7.6301
     7.7486   9.4040   9.7647  10.9728  11.7249  12.0679  12.7407  13.7534
    14.1373  14.3855

          k = 0.0000-0.5831 0.0000 (  6346 PWs)   bands (ev):

   -44.8573 -23.1098 -23.0178 -22.8265 -12.1411 -11.6913  -2.1799  -1.6420
    -1.0251  -0.3496   0.0812   0.7398   3.8226   6.9907   7.4076   7.6587
     7.8805   9.4427   9.7752  10.9273  11.6513  12.1152  12.5501  13.5548
    14.0417  14.2470

          k = 0.0625 0.0364 0.0000 (  6409 PWs)   bands (ev):

   -44.8898 -23.1179 -22.7541 -22.7326 -12.6976 -12.1495  -2.0380  -0.0906
     0.1414   0.2034   1.1988   1.3580   4.3056   5.8830   6.0523   6.6102
     6.7226   6.9569   8.4932   9.6509  11.4043  13.1331  13.7552  14.2871
    14.6299  14.7953

          k = 0.0625 0.1093 0.0000 (  6413 PWs)   bands (ev):

   -44.8873 -23.1104 -22.7761 -22.7460 -12.6485 -12.1266  -1.9530  -0.2381
     0.0703   0.1631   0.9557   1.2619   4.3008   5.8400   6.0762   6.5862
     6.8181   7.2660   8.7393  10.0456  11.5390  12.7536  13.8808  14.2513
    14.5979  14.7715

          k = 0.0625 0.1822 0.0000 (  6385 PWs)   bands (ev):

   -44.8828 -23.0964 -22.8253 -22.7616 -12.5592 -12.0810  -1.7993  -0.5287
    -0.0681   0.0868   0.5706   1.1344   4.2560   5.7768   6.2391   6.6021
     6.9948   7.7336   9.1813  10.6046  11.8099  12.3214  13.6451  14.1335
    14.6406  15.1218

          k = 0.0625 0.2551 0.0000 (  6363 PWs)   bands (ev):

   -44.8768 -23.0782 -22.8913 -22.7792 -12.4467 -12.0133  -1.6112  -0.9026
    -0.3280  -0.0719   0.3018   0.9944   4.1470   5.8466   6.5195   6.6988
     7.1958   8.2180   9.6775  11.0576  11.9318  12.1587  13.4146  14.0656
    14.8600  15.1323

          k = 0.0625 0.3280 0.0000 (  6348 PWs)   bands (ev):

   -44.8704 -23.0583 -22.9622 -22.7977 -12.3333 -11.9261  -1.4876  -1.2284
    -0.7529  -0.1990   0.1923   0.8606   4.0165   6.0871   6.8142   6.9258
     7.3753   8.6708   9.9619  11.3032  11.8230  12.0918  13.7656  14.0064
    14.6414  14.9393

          k = 0.0625 0.4009 0.0000 (  6353 PWs)   bands (ev):

   -44.8644 -23.0404 -23.0263 -22.8145 -12.2389 -11.8291  -1.7203  -1.2373
    -1.1080  -0.2907   0.1319   0.7479   3.9269   6.4524   6.9758   7.3240
     7.5104   9.0880   9.9477  11.2841  11.7777  12.0883  13.5349  14.0527
    14.4437  14.7497

          k = 0.0625 0.4738 0.0000 (  6348 PWs)   bands (ev):

   -44.8598 -23.0759 -23.0255 -22.8273 -12.1740 -11.7430  -1.9798  -1.4699
    -1.0707  -0.3551   0.0970   0.6672   3.8959   6.8441   7.1219   7.5634
     7.6844   9.4433   9.8189  11.1495  11.7988  12.0703  12.9443  13.6906
    14.3379  14.6192

          k = 0.0625 0.5467 0.0000 (  6338 PWs)   bands (ev):

   -44.8573 -23.1021 -23.0179 -22.8342 -12.1414 -11.6922  -2.1243  -1.6180
    -1.0247  -0.3890   0.0815   0.6253   3.8966   7.0386   7.3301   7.6020
     7.8239   9.5158   9.8921  11.0707  11.7439  12.1067  12.5193  13.4260
    14.2316  14.3365

          k = 0.1250 0.0729 0.0000 (  6403 PWs)   bands (ev):

   -44.8863 -23.1070 -22.7950 -22.7424 -12.6266 -12.1168  -1.9146  -0.3336
     0.0461   0.1610   0.8200   1.2659   4.2813   5.7936   6.1513   6.5800
     6.8782   7.3933   8.8433  10.1990  11.5973  12.5882  14.0165  14.1069
    14.5171  14.8510

          k = 0.1250 0.1458 0.0000 (  6383 PWs)   bands (ev):

   -44.8829 -23.0967 -22.8296 -22.7557 -12.5606 -12.0827  -1.8009  -0.5410
    -0.0706   0.1042   0.5568   1.1653   4.2448   5.7659   6.2665   6.5960
     7.0075   7.7316   9.1708  10.5975  11.8036  12.3087  13.6223  14.1413
    14.6637  15.0927

          k = 0.1250 0.2187 0.0000 (  6380 PWs)   bands (ev):

   -44.8779 -23.0813 -22.8808 -22.7756 -12.4648 -12.0261  -1.6350  -0.8336
    -0.2535  -0.0955   0.3392   1.0072   4.1833   5.7522   6.5377   6.6888
     7.1686   8.1682   9.6174  11.0106  12.0650  12.1969  13.1786  13.9813
    14.8552  15.0303

          k = 0.1250 0.2916 0.0000 (  6376 PWs)   bands (ev):

   -44.8719 -23.0629 -22.9405 -22.7989 -12.3583 -11.9483  -1.4595  -1.1573
    -0.5843  -0.3013   0.2366   0.8200   4.1098   5.8556   6.8196   6.9481
     7.3254   8.6275   9.9762  11.3018  12.0184  12.3667  13.1912  13.7960
    14.5605  14.9213

          k = 0.1250 0.3645 0.0000 (  6363 PWs)   bands (ev):

   -44.8660 -23.0446 -22.9992 -22.8221 -12.2613 -11.8554  -1.5358  -1.2379
    -0.9835  -0.4050   0.1640   0.6316   4.0590   6.1083   6.9969   7.3410
     7.4789   9.0903  10.0547  11.4601  12.0403  12.2112  13.5687  13.7403
    14.0087  14.7657

          k = 0.1250 0.4373 0.0000 (  6347 PWs)   bands (ev):

   -44.8609 -23.0489 -23.0285 -22.8417 -12.1875 -11.7632  -1.7944  -1.3408
    -1.0970  -0.4627   0.1070   0.4693   4.0545   6.4826   7.1397   7.5012
     7.7369   9.5698   9.9302  11.4683  11.9648  12.1317  13.0711  13.6086
    14.4012  14.6805

          k = 0.1250 0.5102 0.0000 (  6339 PWs)   bands (ev):

   -44.8575 -23.0812 -23.0183 -22.8548 -12.1423 -11.6947  -1.9729  -1.5520
    -1.0269  -0.4896   0.0709   0.3589   4.0800   6.8962   7.2432   7.5435
     7.8312   9.7075  10.1002  11.4321  11.8890  12.0975  12.5419  13.4107
    14.3525  14.6018

          k = 0.1250 0.5831 0.0000 (  6346 PWs)   bands (ev):

   -44.8563 -23.0926 -23.0146 -22.8593 -12.1271 -11.6694  -2.0360  -1.6255
    -1.0034  -0.4969   0.0587   0.3196   4.0955   7.1033   7.3278   7.5433
     7.7677   9.6147  10.3727  11.4233  11.8634  12.1589  12.1837  13.3444
    14.3103  14.4578

          k = 0.1250 0.0000 0.0000 (  6385 PWs)   bands (ev):

   -44.8875 -23.1107 -22.7827 -22.7377 -12.6500 -12.1282  -1.9548  -0.2521
     0.0668   0.1856   0.9339   1.2961   4.2933   5.7913   6.1406   6.5914
     6.8239   7.2628   8.7257  10.0335  11.5365  12.7300  13.9694  14.2053
    14.5506  14.7517

          k = 0.1875 0.1093 0.0000 (  6387 PWs)   bands (ev):

   -44.8811 -23.0907 -22.8567 -22.7558 -12.5226 -12.0628  -1.7367  -0.6951
    -0.1537   0.0924   0.4190   1.1511   4.1844   5.8138   6.3442   6.6256
     7.0867   7.9011   9.3432  10.7758  11.8311  12.1922  13.5331  14.3110
    14.6250  15.1161

          k = 0.1875 0.1822 0.0000 (  6368 PWs)   bands (ev):

   -44.8772 -23.0789 -22.8966 -22.7701 -12.4501 -12.0179  -1.6145  -0.9187
    -0.3442  -0.0409   0.2985   1.0440   4.1228   5.8451   6.5513   6.6953
     7.2122   8.2163   9.6596  11.0484  11.9229  12.1373  13.3885  14.0381
    14.8907  15.1109

          k = 0.1875 0.2551 0.0000 (  6366 PWs)   bands (ev):

   -44.8722 -23.0634 -22.9430 -22.7941 -12.3603 -11.9512  -1.4610  -1.1658
    -0.5950  -0.2850   0.2399   0.8452   4.0960   5.8597   6.8214   6.9572
     7.3323   8.6276   9.9690  11.2962  12.0091  12.3762  13.1684  13.7737
    14.5745  14.9054

          k = 0.1875 0.3280 0.0000 (  6363 PWs)   bands (ev):

   -44.8667 -23.0466 -22.9885 -22.8241 -12.2708 -11.8666  -1.4380  -1.2700
    -0.9082  -0.4625   0.1593   0.5980   4.1182   5.9636   7.0133   7.3400
     7.4947   9.0963  10.1076  11.5038  12.2365  12.4489  13.2648  13.5719
    13.7175  14.8363

          k = 0.1875 0.4009 0.0000 (  6362 PWs)   bands (ev):

   -44.8616 -23.0322 -23.0264 -22.8544 -12.1962 -11.7759  -1.6361  -1.2279
    -1.1330  -0.5557   0.0530   0.3625   4.1876   6.1972   7.1415   7.5221
     7.7959   9.6248  10.0661  11.6576  12.1810  12.3363  13.0880  13.4859
    14.0395  14.5980

          k = 0.1875 0.4738 0.0000 (  6346 PWs)   bands (ev):

   -44.8578 -23.0560 -23.0187 -22.8789 -12.1439 -11.6983  -1.7850  -1.4679
    -1.0384  -0.5979  -0.0506   0.1871   4.2818   6.5408   7.1830   7.6672
     7.8844   9.9281  10.2445  11.7090  11.8361  12.2910  12.8545  13.5880
    14.3324  14.5700

          k = 0.1875 0.5467 0.0000 (  6344 PWs)   bands (ev):

   -44.8557 -23.0707 -23.0123 -22.8926 -12.1172 -11.6535  -1.8628  -1.5989
    -0.9905  -0.6118  -0.1146   0.0952   4.3519   6.8873   7.1954   7.7180
     7.7631   9.8021  10.8155  11.5993  11.8684  12.2790  12.4274  13.5148
    14.3842  14.5267

          k = 0.1875-0.0364 0.0000 (  6391 PWs)   bands (ev):

   -44.8832 -23.0972 -22.8322 -22.7508 -12.5628 -12.0853  -1.8034  -0.5440
    -0.0702   0.1143   0.5582   1.1755   4.2395   5.7405   6.3054   6.6230
     6.9940   7.7295   9.1533  10.5879  11.8036  12.3145  13.6117  14.1870
    14.6349  15.0776

          k = 0.2500 0.1458 0.0000 (  6374 PWs)   bands (ev):

   -44.8749 -23.0714 -22.9286 -22.7712 -12.4059 -11.9884  -1.5559  -1.0851
    -0.5398  -0.0011   0.2040   1.0391   4.0295   6.0156   6.6329   6.7446
     7.2970   8.3769   9.7848  11.1570  11.7791  12.0598  13.7178  14.0038
    14.9647  15.0911

          k = 0.2500 0.2187 0.0000 (  6361 PWs)   bands (ev):

   -44.8710 -23.0596 -22.9671 -22.7862 -12.3390 -11.9343  -1.4943  -1.2418
    -0.7680  -0.1614   0.1938   0.9224   3.9847   6.0901   6.8245   6.9493
     7.3909   8.6711   9.9427  11.2877  11.8230  12.0795  13.7157  13.9521
    14.6331  14.9415

          k = 0.2500 0.2916 0.0000 (  6352 PWs)   bands (ev):

   -44.8665 -23.0456 -23.0027 -22.8136 -12.2656 -11.8619  -1.5463  -1.2419
    -0.9929  -0.3797   0.1685   0.6738   4.0356   6.1127   7.0063   7.3537
     7.4877   9.0923  10.0407  11.4491  12.0554  12.2148  13.5259  13.7592
    13.9584  14.7253

          k = 0.2500 0.3645 0.0000 (  6351 PWs)   bands (ev):

   -44.8619 -23.0329 -23.0279 -22.8499 -12.1985 -11.7796  -1.6424  -1.2290
    -1.1351  -0.5436   0.0592   0.3777   4.1764   6.1976   7.1496   7.5240
     7.8025   9.6252  10.0579  11.6537  12.1856  12.3624  13.1264  13.4317
    13.9994  14.5666

          k = 0.2500 0.4373 0.0000 (  6351 PWs)   bands (ev):

   -44.8580 -23.0444 -23.0192 -22.8884 -12.1462 -11.7022  -1.6920  -1.4234
    -1.0502  -0.6397  -0.1596   0.1714   4.3717   6.3758   7.1463   7.7515
     7.9128  10.0244  10.2918  11.6485  11.9050  12.5317  13.1426  13.6032
    14.2246  14.3395

          k = 0.2500 0.5102 0.0000 (  6340 PWs)   bands (ev):

   -44.8554 -23.0484 -23.0113 -22.9199 -12.1131 -11.6469  -1.7025  -1.5511
    -0.9889  -0.7059  -0.3650   0.0648   4.5536   6.6237   7.1018   7.7380
     7.9480  10.0152  10.8587  11.4493  12.0734  12.6032  12.9681  13.6922
    14.2225  14.4728

          k = 0.2500 0.5831 0.0000 (  6346 PWs)   bands (ev):

   -44.8545 -23.0481 -23.0085 -22.9327 -12.1019 -11.6268  -1.7084  -1.5838
    -0.9676  -0.7422  -0.4349   0.0285   4.6302   6.7871   7.0806   7.5707
     8.0202   9.9998  10.9387  11.7541  12.1849  12.6022  12.6258  13.5616
    14.4811  14.4973

          k = 0.2500-0.0729 0.0000 (  6385 PWs)   bands (ev):

   -44.8775 -23.0794 -22.8965 -22.7675 -12.4526 -12.0211  -1.6172  -0.9127
    -0.3383  -0.0347   0.3001   1.0396   4.1247   5.8314   6.5678   6.7277
     7.1942   8.2148   9.6442  11.0452  11.9337  12.1484  13.3971  14.0611
    14.8733  15.0999

          k = 0.2500 0.0000 0.0000 (  6375 PWs)   bands (ev):

   -44.8784 -23.0822 -22.8832 -22.7682 -12.4694 -12.0320  -1.6400  -0.8324
    -0.2530  -0.0766   0.3438   1.0197   4.1759   5.7347   6.5730   6.7351
     7.1462   8.1654   9.5879  11.0014  12.0844  12.2026  13.1748  14.0028
    14.8389  15.0141

          k = 0.3125 0.1822 0.0000 (  6360 PWs)   bands (ev):

   -44.8687 -23.0521 -22.9994 -22.7865 -12.2991 -11.8980  -1.6028  -1.2568
    -0.9636  -0.1047   0.1175   0.9452   3.8896   6.3581   6.8959   7.0004
     7.4727   8.8037   9.9250  11.2581  11.6945  12.0368  13.6711  14.2645
    14.6144  14.9312

          k = 0.3125 0.2551 0.0000 (  6349 PWs)   bands (ev):

   -44.8654 -23.0421 -23.0303 -22.8013 -12.2469 -11.8412  -1.7333  -1.2409
    -1.1161  -0.2455   0.1290   0.8171   3.8919   6.4532   6.9908   7.3475
     7.5239   9.0922   9.9194  11.2841  11.7824  12.0762  13.4656  14.0627
    14.4193  14.7025

          k = 0.3125 0.3280 0.0000 (  6340 PWs)   bands (ev):

   -44.8617 -23.0522 -23.0300 -22.8307 -12.1942 -11.7735  -1.8070  -1.3417
    -1.1009  -0.4286   0.1069   0.5213   4.0266   6.4801   7.1606   7.5071
     7.7534   9.5756   9.9028  11.4784  11.9751  12.1324  13.0823  13.5706
    14.3564  14.6200

          k = 0.3125 0.4009 0.0000 (  6346 PWs)   bands (ev):

   -44.8583 -23.0586 -23.0197 -22.8711 -12.1487 -11.7057  -1.7939  -1.4652
    -1.0400  -0.5758  -0.0349   0.2011   4.2652   6.5329   7.1942   7.6787
     7.8956   9.8993  10.2552  11.7185  11.8558  12.3158  12.8488  13.5609
    14.2923  14.5314

          k = 0.3125 0.4738 0.0000 (  6344 PWs)   bands (ev):

   -44.8557 -23.0498 -23.0118 -22.9158 -12.1156 -11.6507  -1.7048  -1.5489
    -0.9897  -0.6959  -0.3518   0.0621   4.5486   6.6152   7.1041   7.7419
     7.9597   9.9962  10.8739  11.4584  12.0768  12.6215  12.9350  13.7225
    14.2082  14.4640

          k = 0.3125 0.5467 0.0000 (  6350 PWs)   bands (ev):

   -44.8543 -23.0323 -23.0075 -22.9529 -12.0981 -11.6199  -1.6725  -1.4871
    -0.9589  -0.8666  -0.5330   0.0045   4.7629   6.6920   7.0341   7.5147
     8.1441  10.1513  10.7159  12.0612  12.2810  12.8089  12.9524  13.2657
    14.3775  14.5938

          k = 0.3125-0.1093 0.0000 (  6360 PWs)   bands (ev):

   -44.8713 -23.0601 -22.9656 -22.7851 -12.3415 -11.9377  -1.4930  -1.2353
    -0.7567  -0.1561   0.1888   0.9109   3.9928   6.0866   6.8442   6.9489
     7.3798   8.6690   9.9351  11.2933  11.8289  12.0864  13.7367  13.9835
    14.5846  14.9446

          k = 0.3125-0.0364 0.0000 (  6369 PWs)   bands (ev):

   -44.8727 -23.0644 -22.9417 -22.7901 -12.3652 -11.9579  -1.4651  -1.1523
    -0.5779  -0.2763   0.2383   0.8362   4.1027   5.8507   6.8670   6.9645
     7.3084   8.6235   9.9493  11.2982  12.0389  12.3868  13.1902  13.8051
    14.4993  14.8912

          k = 0.3750 0.2187 0.0000 (  6344 PWs)   bands (ev):

   -44.8635 -23.0590 -23.0352 -22.7994 -12.2185 -11.8062  -1.8966  -1.3497
    -1.1165  -0.1972   0.0792   0.8752   3.8109   6.7411   7.0579   7.3916
     7.5993   9.1693   9.8272  11.1311  11.7201  12.0354  13.1959  14.2076
    14.3591  14.5750

          k = 0.3750 0.2916 0.0000 (  6345 PWs)   bands (ev):

   -44.8610 -23.0788 -23.0277 -22.8131 -12.1841 -11.7586  -1.9920  -1.4658
    -1.0746  -0.3016   0.0864   0.7396   3.8599   6.8471   7.1374   7.5796
     7.6979   9.4505   9.7762  11.1826  11.7814  12.0450  12.8953  13.7467
    14.2919  14.5717

          k = 0.3750 0.3645 0.0000 (  6342 PWs)   bands (ev):

   -44.8586 -23.0839 -23.0201 -22.8423 -12.1512 -11.7084  -1.9837  -1.5451
    -1.0292  -0.4471   0.0627   0.4140   4.0519   6.8867   7.2625   7.5578
     7.8461   9.6768  10.0994  11.4773  11.8855  12.0760  12.5226  13.4195
    14.3081  14.5780

          k = 0.3750 0.4373 0.0000 (  6349 PWs)   bands (ev):

   -44.8565 -23.0727 -23.0137 -22.8831 -12.1242 -11.6642  -1.8689  -1.5894
    -0.9919  -0.5830  -0.0894   0.0962   4.3368   6.8704   7.2000   7.7314
     7.7857   9.7683  10.8258  11.6274  11.9135  12.2676  12.3840  13.5275
    14.3491  14.5294

          k = 0.3750 0.5102 0.0000 (  6345 PWs)   bands (ev):

   -44.8551 -23.0492 -23.0094 -22.9267 -12.1064 -11.6339  -1.7041  -1.5766
    -0.9691  -0.7282  -0.4172   0.0188   4.6295   6.7731   7.0807   7.5613
     8.0473   9.9709  10.9736  11.7380  12.2039  12.5907  12.6195  13.6248
    14.4604  14.5042

          k = 0.3750 0.5831 0.0000 (  6344 PWs)   bands (ev):

   -44.8546 -23.0319 -23.0079 -22.9511 -12.1002 -11.6231  -1.6660  -1.4785
    -0.9615  -0.8650  -0.5290  -0.0013   4.7687   6.6883   7.0333   7.4968
     8.1590  10.1365  10.7351  12.0080  12.3019  12.8226  12.9898  13.2826
    14.3310  14.6211

          k = 0.3750-0.1458 0.0000 (  6367 PWs)   bands (ev):

   -44.8656 -23.0425 -23.0285 -22.8011 -12.2490 -11.8443  -1.7243  -1.2375
    -1.1095  -0.2398   0.1213   0.8044   3.9022   6.4620   7.0041   7.3203
     7.5232   9.0893   9.9172  11.2922  11.7830  12.0793  13.4774  14.0198
    14.4271  14.7538

          k = 0.3750-0.0729 0.0000 (  6364 PWs)   bands (ev):

   -44.8670 -23.0465 -22.9996 -22.8120 -12.2702 -11.8685  -1.5299  -1.2425
    -0.9712  -0.3741   0.1611   0.6543   4.0516   6.1125   7.0390   7.3310
     7.4746   9.0858  10.0351  11.4648  12.0646  12.2222  13.5614  13.7072
    14.0095  14.7289

          k = 0.3750 0.0000 0.0000 (  6373 PWs)   bands (ev):

   -44.8675 -23.0480 -22.9864 -22.8188 -12.2777 -11.8767  -1.4208  -1.2741
    -0.8840  -0.4500   0.1547   0.5898   4.1281   5.9608   7.0617   7.3191
     7.4807   9.0883  10.0956  11.5146  12.2627  12.4802  13.2743  13.5616
    13.7078  14.8083

          k = 0.4375 0.2551 0.0000 (  6336 PWs)   bands (ev):

   -44.8600 -23.0979 -23.0243 -22.8080 -12.1698 -11.7366  -2.1125  -1.5574
    -1.0513  -0.2604   0.0641   0.8320   3.7870   6.9684   7.2860   7.6492
     7.7359   9.3952   9.7249  11.0164  11.6968  12.0251  12.6899  13.8658
    14.0943  14.3364

          k = 0.4375 0.3280 0.0000 (  6344 PWs)   bands (ev):

   -44.8587 -23.1041 -23.0204 -22.8195 -12.1530 -11.7101  -2.1343  -1.6077
    -1.0271  -0.3295   0.0644   0.6972   3.8616   7.0625   7.3327   7.6205
     7.8207   9.4859   9.8751  11.1236  11.7098  12.0550  12.4943  13.4911
    14.2040  14.3136

          k = 0.4375 0.4009 0.0000 (  6343 PWs)   bands (ev):

   -44.8575 -23.0942 -23.0168 -22.8465 -12.1375 -11.6854  -2.0424  -1.6125
    -1.0053  -0.4495   0.0448   0.3711   4.0714   7.1091   7.3325   7.5716
     7.7598   9.5755  10.3694  11.4882  11.8482  12.1252  12.1728  13.3537
    14.2683  14.4739

          k = 0.4375 0.4738 0.0000 (  6347 PWs)   bands (ev):

   -44.8566 -23.0713 -23.0140 -22.8831 -12.1256 -11.6664  -1.8612  -1.5827
    -0.9925  -0.5813  -0.0915   0.0877   4.3442   6.8837   7.1982   7.6976
     7.7946   9.7683  10.8076  11.6209  11.9390  12.2531  12.4174  13.5162
    14.3535  14.5448

          k = 0.4375 0.5467 0.0000 (  6341 PWs)   bands (ev):

   -44.8561 -23.0473 -23.0125 -22.9148 -12.1191 -11.6562  -1.6890  -1.5329
    -0.9917  -0.6925  -0.3569   0.0507   4.5627   6.6194   7.1017   7.6910
     7.9857   9.9918  10.8649  11.4299  12.1205  12.6098  13.0072  13.7006
    14.2053  14.4601

          k = 0.4375-0.1822 0.0000 (  6344 PWs)   bands (ev):

   -44.8612 -23.0774 -23.0280 -22.8131 -12.1855 -11.7607  -1.9849  -1.4591
    -1.0751  -0.2970   0.0798   0.7301   3.8681   6.8619   7.1492   7.5790
     7.6624   9.4413   9.7778  11.1864  11.7877  12.0473  12.9018  13.7071
    14.3094  14.6117

          k = 0.4375-0.1093 0.0000 (  6346 PWs)   bands (ev):

   -44.8621 -23.0491 -23.0307 -22.8303 -12.1977 -11.7789  -1.7902  -1.3255
    -1.1013  -0.4234   0.0987   0.5011   4.0435   6.4923   7.1671   7.5208
     7.7020   9.5654   9.9011  11.4983  11.9775  12.1302  13.0799  13.5690
    14.3768  14.6709

          k = 0.4375-0.0364 0.0000 (  6362 PWs)   bands (ev):

   -44.8626 -23.0332 -23.0249 -22.8476 -12.2044 -11.7885  -1.6183  -1.2059
    -1.1356  -0.5358   0.0501   0.3577   4.1960   6.1985   7.1626   7.5403
     7.7535   9.6118  10.0552  11.6830  12.1832  12.3690  13.1218  13.4704
    14.0344  14.5685

          k =-0.5000-0.2916 0.0000 (  6336 PWs)   bands (ev):

   -44.8588 -23.1115 -23.0205 -22.8110 -12.1537 -11.7106  -2.1895  -1.6304
    -1.0274  -0.2827   0.0604   0.8173   3.7850   7.0180   7.4250   7.6810
     7.8558   9.4081   9.7545  10.9795  11.6134  12.0568  12.5109  13.6763
    14.0140  14.2023

          k =-0.5000-0.2187 0.0000 (  6332 PWs)   bands (ev):

   -44.8588 -23.1035 -23.0205 -22.8195 -12.1535 -11.7108  -2.1317  -1.6053
    -1.0273  -0.3277   0.0618   0.6937   3.8647   7.0637   7.3524   7.6220
     7.7943   9.4766   9.8788  11.1244  11.7164  12.0563  12.4964  13.4759
    14.2104  14.3272

          k =-0.5000-0.1458 0.0000 (  6346 PWs)   bands (ev):

   -44.8588 -23.0819 -23.0205 -22.8424 -12.1531 -11.7114  -1.9737  -1.5359
    -1.0299  -0.4435   0.0577   0.4013   4.0625   6.9074   7.2611   7.5774
     7.7902   9.6702  10.0898  11.4894  11.8973  12.0698  12.5386  13.4009
    14.3172  14.6113

          k =-0.5000-0.0729 0.0000 (  6349 PWs)   bands (ev):

   -44.8588 -23.0550 -23.0205 -22.8705 -12.1527 -11.7119  -1.7740  -1.4465
    -1.0419  -0.5709  -0.0423   0.1816   4.2834   6.5433   7.1893   7.7084
     7.8316   9.9008  10.2302  11.7358  11.8757  12.2953  12.8935  13.5546
    14.3092  14.5680

          k =-0.5000 0.0000 0.0000 (  6355 PWs)   bands (ev):

   -44.8588 -23.0412 -23.0205 -22.8849 -12.1526 -11.7121  -1.6694  -1.3989
    -1.0539  -0.6278  -0.1656   0.1553   4.3889   6.3756   7.1469   7.7815
     7.8571  10.0157  10.2699  11.6546  11.9427  12.5407  13.2103  13.5871
    14.2156  14.3403

     highest occupied, lowest unoccupied level (ev):     4.7687    5.7347

!    total energy              =    -591.24405768 Ry
     total all-electron energy =    -13333.877334 Ry
     estimated scf accuracy    <          6.5E-11 Ry

     The total energy is the sum of the following terms:
     one-electron contribution =    -204.53031368 Ry
     hartree contribution      =     110.09103940 Ry
     xc contribution           =     -37.59467700 Ry
     ewald contribution        =     -28.09420069 Ry
     one-center paw contrib.   =    -431.11590571 Ry

     convergence has been achieved in   6 iterations

     Forces acting on atoms (cartesian axes, Ry/au):

     atom    1 type  1   force =     0.00000000    0.00027350    0.00003175
     atom    2 type  2   force =     0.00000000   -0.00015023   -0.00011706
     atom    3 type  3   force =     0.00000000   -0.00012327    0.00008531
     The non-local contrib.  to forces
     atom    1 type  1   force =     0.00000000   -0.00112292   -0.00065620
     atom    2 type  2   force =     0.00000000   -0.00103214   -0.21248718
     atom    3 type  3   force =     0.00000000   -0.00098372    0.20919999
     The ionic contribution  to forces
     atom    1 type  1   force =    -0.00000001   -0.06574502   -0.31227872
     atom    2 type  2   force =     0.00000000    0.03715305   20.99057124
     atom    3 type  3   force =     0.00000000    0.02859197  -20.67829252
     The local contribution  to forces
     atom    1 type  1   force =    -0.00000000    0.06709041    0.31258709
     atom    2 type  2   force =     0.00000003   -0.03625869  -20.78608087
     atom    3 type  3   force =    -0.00000000   -0.02769341   20.47285128
     The core correction contribution to forces
     atom    1 type  1   force =     0.00000000    0.00005025    0.00036839
     atom    2 type  2   force =    -0.00000000   -0.00001387    0.00788574
     atom    3 type  3   force =    -0.00000000   -0.00004003   -0.00365039
     The Hubbard contrib.    to forces
     atom    1 type  1   force =     0.00000000    0.00000000    0.00000000
     atom    2 type  2   force =     0.00000000    0.00000000    0.00000000
     atom    3 type  3   force =     0.00000000    0.00000000    0.00000000
     The SCF correction term to forces
     atom    1 type  1   force =     0.00000000   -0.00000191    0.00002588
     atom    2 type  2   force =    -0.00000000   -0.00000124    0.00000870
     atom    3 type  3   force =    -0.00000000   -0.00000075   -0.00000837

     Total force =     0.000367     Total SCF correction =     0.000029
     Energy error            =      3.6E-06 Ry
     Gradient error          =      2.7E-04 Ry/Bohr

     number of scf cycles    =   5
     number of bfgs steps    =   4

     energy             old  =    -591.2440541114 Ry
     energy             new  =    -591.2440576755 Ry

     CASE: energy            _new < energy            _old

     new trust radius        =       0.0002612746 bohr
     new conv_thr            =            1.0E-10 Ry


ATOMIC_POSITIONS (angstrom)
Zr            0.0000000000       -0.0030997489       10.2767208533
Cl           -0.0000000017        2.0158296268       11.9585119446
Br           -0.0000000017        2.0161269667        8.4279159765



     Writing config-only to output data dir ./tmp/ZrClBr.save/
     NEW-OLD atomic charge density approx. for the potential

     Check: negative core charge=   -0.000004

     total cpu time spent up to now is       66.2 secs

     Self-consistent Calculation

     iteration #  1     ecut=    65.00 Ry     beta= 0.70
     Davidson diagonalization with overlap
     ethr =  1.00E-06,  avg # of iterations =  2.0

     Threshold (ethr) on eigenvalues was too large:
     Diagonalizing with lowered threshold

     Davidson diagonalization with overlap
     ethr =  6.45E-11,  avg # of iterations =  4.0

     total cpu time spent up to now is       69.7 secs

     total energy              =    -591.24405779 Ry
     estimated scf accuracy    <          9.6E-09 Ry

     iteration #  2     ecut=    65.00 Ry     beta= 0.70
     Davidson diagonalization with overlap
     ethr =  3.70E-11,  avg # of iterations =  2.0

     total cpu time spent up to now is       71.3 secs

     total energy              =    -591.24405779 Ry
     estimated scf accuracy    <       0.00000003 Ry

     iteration #  3     ecut=    65.00 Ry     beta= 0.70
     Davidson diagonalization with overlap
     ethr =  3.70E-11,  avg # of iterations =  2.0

     total cpu time spent up to now is       72.8 secs

     total energy              =    -591.24405779 Ry
     estimated scf accuracy    <          4.6E-10 Ry

     iteration #  4     ecut=    65.00 Ry     beta= 0.70
     Davidson diagonalization with overlap
     ethr =  1.77E-12,  avg # of iterations =  1.9

     total cpu time spent up to now is       74.4 secs

     End of self-consistent calculation

          k = 0.0000 0.0000 0.0000 (  6395 PWs)   bands (ev):

   -44.8907 -23.1215 -22.7408 -22.7275 -12.7229 -12.1605  -2.0820  -0.0121
     0.1747   0.2224   1.3424   1.4037   4.3056   5.9286   6.0340   6.6368
     6.6705   6.7772   8.3686   9.4216  11.3393  13.5277  13.6651  13.9367
    14.6235  15.1822

          k = 0.0000 0.0729 0.0000 (  6405 PWs)   bands (ev):

   -44.8894 -23.1176 -22.7441 -22.7427 -12.6973 -12.1490  -2.0376  -0.0810
     0.1618   0.1706   1.2448   1.3064   4.3093   5.9635   5.9657   6.6312
     6.6970   6.9587   8.4983   9.6569  11.4053  13.1855  13.6552  14.3219
    14.6536  14.8779

          k = 0.0000 0.1458 0.0000 (  6403 PWs)   bands (ev):

   -44.8858 -23.1064 -22.7856 -22.7535 -12.6249 -12.1146  -1.9125  -0.3134
     0.0588   0.1206   0.8539   1.2124   4.2947   5.8472   6.0755   6.5886
     6.8575   7.3974   8.8603  10.2137  11.6034  12.6149  14.0185  14.0749
    14.5328  14.9037

          k = 0.0000 0.2187 0.0000 (  6377 PWs)   bands (ev):

   -44.8803 -23.0897 -22.8490 -22.7674 -12.5188 -12.0579  -1.7326  -0.6757
    -0.1389   0.0478   0.4379   1.0919   4.2098   5.8414   6.2800   6.6245
     7.0697   7.9051   9.3706  10.7908  11.8431  12.2134  13.5718  14.3391
    14.5460  15.1800

          k = 0.0000 0.2916 0.0000 (  6369 PWs)   bands (ev):

   -44.8739 -23.0699 -22.9227 -22.7838 -12.3998 -11.9799  -1.5504  -1.0698
    -0.5241  -0.0518   0.2143   0.9741   4.0614   6.0263   6.5841   6.7361
     7.2815   8.3791   9.8124  11.1708  11.7872  12.0800  13.7546  14.0508
    15.0110  15.0485

          k = 0.0000 0.3645 0.0000 (  6355 PWs)   bands (ev):

   -44.8674 -23.0501 -22.9950 -22.8001 -12.2908 -11.8856  -1.5935  -1.2491
    -0.9557  -0.1617   0.1296   0.8752   3.9235   6.3595   6.8817   6.9709
     7.4564   8.8029   9.9522  11.2686  11.6914  12.0530  13.7413  14.3191
    14.6900  14.8447

          k = 0.0000 0.4373 0.0000 (  6338 PWs)   bands (ev):

   -44.8620 -23.0560 -23.0326 -22.8139 -12.2082 -11.7902  -1.8868  -1.3529
    -1.1107  -0.2596   0.0955   0.8012   3.8461   6.7328   7.0410   7.3838
     7.5819   9.1654   9.8667  11.1121  11.7321  12.0533  13.2675  14.2588
    14.2770  14.6358

          k = 0.0000 0.5102 0.0000 (  6344 PWs)   bands (ev):

   -44.8583 -23.0957 -23.0215 -22.8230 -12.1580 -11.7182  -2.1031  -1.5668
    -1.0481  -0.3263   0.0837   0.7553   3.8238   6.9457   7.2715   7.6304
     7.7487   9.4047   9.7646  10.9731  11.7251  12.0680  12.7407  13.7533
    14.1373  14.3854

          k = 0.0000-0.5831 0.0000 (  6346 PWs)   bands (ev):

   -44.8570 -23.1097 -23.0176 -22.8263 -12.1413 -11.6914  -2.1802  -1.6420
    -1.0252  -0.3498   0.0811   0.7398   3.8225   6.9913   7.4080   7.6590
     7.8806   9.4433   9.7751  10.9276  11.6514  12.1153  12.5502  13.5548
    14.0417  14.2468

          k = 0.0625 0.0364 0.0000 (  6409 PWs)   bands (ev):

   -44.8895 -23.1177 -22.7539 -22.7324 -12.6978 -12.1495  -2.0382  -0.0906
     0.1412   0.2029   1.1988   1.3577   4.3061   5.8834   6.0525   6.6100
     6.7229   6.9570   8.4931   9.6509  11.4041  13.1331  13.7553  14.2873
    14.6300  14.7957

          k = 0.0625 0.1093 0.0000 (  6413 PWs)   bands (ev):

   -44.8870 -23.1102 -22.7758 -22.7458 -12.6487 -12.1266  -1.9532  -0.2384
     0.0702   0.1628   0.9555   1.2618   4.3011   5.8404   6.0765   6.5864
     6.8181   7.2661   8.7393  10.0456  11.5389  12.7538  13.8806  14.2514
    14.5983  14.7713

          k = 0.0625 0.1822 0.0000 (  6385 PWs)   bands (ev):

   -44.8825 -23.0962 -22.8251 -22.7614 -12.5595 -12.0810  -1.7995  -0.5291
    -0.0682   0.0865   0.5705   1.1343   4.2562   5.7771   6.2394   6.6024
     6.9947   7.7337   9.1814  10.6046  11.8100  12.3216  13.6449  14.1334
    14.6410  15.1214

          k = 0.0625 0.2551 0.0000 (  6363 PWs)   bands (ev):

   -44.8765 -23.0779 -22.8911 -22.7790 -12.4469 -12.0134  -1.6114  -0.9029
    -0.3282  -0.0721   0.3018   0.9943   4.1471   5.8470   6.5197   6.6991
     7.1958   8.2182   9.6778  11.0575  11.9320  12.1589  13.4142  14.0659
    14.8600  15.1323

          k = 0.0625 0.3280 0.0000 (  6348 PWs)   bands (ev):

   -44.8701 -23.0581 -22.9620 -22.7975 -12.3335 -11.9262  -1.4878  -1.2286
    -0.7531  -0.1992   0.1923   0.8605   4.0164   6.0875   6.8146   6.9261
     7.3755   8.6709   9.9622  11.3031  11.8233  12.0919  13.7657  14.0064
    14.6413  14.9392

          k = 0.0625 0.4009 0.0000 (  6353 PWs)   bands (ev):

   -44.8641 -23.0402 -23.0261 -22.8143 -12.2391 -11.8292  -1.7206  -1.2375
    -1.1081  -0.2909   0.1319   0.7478   3.9268   6.4528   6.9763   7.3242
     7.5107   9.0883   9.9480  11.2841  11.7780  12.0885  13.5349  14.0526
    14.4437  14.7497

          k = 0.0625 0.4738 0.0000 (  6348 PWs)   bands (ev):

   -44.8595 -23.0757 -23.0253 -22.8271 -12.1742 -11.7431  -1.9801  -1.4700
    -1.0708  -0.3553   0.0970   0.6671   3.8958   6.8445   7.1225   7.5637
     7.6846   9.4438   9.8189  11.1497  11.7990  12.0705  12.9443  13.6906
    14.3378  14.6193

          k = 0.0625 0.5467 0.0000 (  6338 PWs)   bands (ev):

   -44.8571 -23.1019 -23.0177 -22.8340 -12.1416 -11.6923  -2.1245  -1.6181
    -1.0248  -0.3891   0.0815   0.6252   3.8965   7.0392   7.3306   7.6023
     7.8240   9.5164   9.8922  11.0709  11.7440  12.1068  12.5194  13.4261
    14.2315  14.3364

          k = 0.1250 0.0729 0.0000 (  6403 PWs)   bands (ev):

   -44.8860 -23.1068 -22.7947 -22.7422 -12.6268 -12.1168  -1.9148  -0.3338
     0.0461   0.1605   0.8199   1.2657   4.2817   5.7940   6.1515   6.5800
     6.8785   7.3934   8.8433  10.1989  11.5972  12.5883  14.0168  14.1069
    14.5173  14.8509

          k = 0.1250 0.1458 0.0000 (  6383 PWs)   bands (ev):

   -44.8826 -23.0965 -22.8293 -22.7555 -12.5609 -12.0827  -1.8011  -0.5413
    -0.0707   0.1039   0.5567   1.1651   4.2450   5.7662   6.2667   6.5962
     7.0076   7.7317   9.1708  10.5974  11.8036  12.3088  13.6224  14.1411
    14.6642  15.0924

          k = 0.1250 0.2187 0.0000 (  6380 PWs)   bands (ev):

   -44.8776 -23.0810 -22.8806 -22.7754 -12.4650 -12.0262  -1.6352  -0.8339
    -0.2536  -0.0957   0.3392   1.0070   4.1834   5.7526   6.5379   6.6890
     7.1687   8.1683   9.6176  11.0105  12.0651  12.1971  13.1786  13.9813
    14.8554  15.0304

          k = 0.1250 0.2916 0.0000 (  6376 PWs)   bands (ev):

   -44.8716 -23.0627 -22.9402 -22.7987 -12.3585 -11.9484  -1.4597  -1.1576
    -0.5845  -0.3014   0.2366   0.8199   4.1098   5.8560   6.8198   6.9483
     7.3257   8.6276   9.9766  11.3017  12.0184  12.3670  13.1911  13.7962
    14.5605  14.9213

          k = 0.1250 0.3645 0.0000 (  6363 PWs)   bands (ev):

   -44.8657 -23.0444 -22.9990 -22.8219 -12.2615 -11.8555  -1.5361  -1.2381
    -0.9837  -0.4052   0.1640   0.6315   4.0590   6.1087   6.9973   7.3412
     7.4793   9.0904  10.0552  11.4599  12.0405  12.2113  13.5688  13.7403
    14.0087  14.7657

          k = 0.1250 0.4373 0.0000 (  6347 PWs)   bands (ev):

   -44.8606 -23.0487 -23.0283 -22.8415 -12.1877 -11.7633  -1.7947  -1.3409
    -1.0972  -0.4629   0.1070   0.4693   4.0544   6.4830   7.1402   7.5016
     7.7371   9.5701   9.9305  11.4683  11.9650  12.1319  13.0711  13.6086
    14.4012  14.6805

          k = 0.1250 0.5102 0.0000 (  6339 PWs)   bands (ev):

   -44.8572 -23.0810 -23.0180 -22.8545 -12.1425 -11.6948  -1.9731  -1.5521
    -1.0270  -0.4897   0.0709   0.3588   4.0799   6.8965   7.2438   7.5438
     7.8314   9.7079  10.1003  11.4322  11.8893  12.0975  12.5419  13.4108
    14.3524  14.6019

          k = 0.1250 0.5831 0.0000 (  6346 PWs)   bands (ev):

   -44.8560 -23.0924 -23.0143 -22.8591 -12.1274 -11.6695  -2.0363  -1.6256
    -1.0035  -0.4970   0.0587   0.3195   4.0955   7.1037   7.3283   7.5436
     7.7680   9.6150  10.3728  11.4235  11.8635  12.1590  12.1837  13.3445
    14.3101  14.4578

          k = 0.1250 0.0000 0.0000 (  6385 PWs)   bands (ev):

   -44.8872 -23.1104 -22.7825 -22.7375 -12.6502 -12.1282  -1.9550  -0.2522
     0.0668   0.1850   0.9339   1.2958   4.2938   5.7917   6.1407   6.5912
     6.8244   7.2629   8.7257  10.0334  11.5363  12.7299  13.9696  14.2058
    14.5508  14.7515

          k = 0.1875 0.1093 0.0000 (  6387 PWs)   bands (ev):

   -44.8808 -23.0905 -22.8565 -22.7556 -12.5228 -12.0628  -1.7369  -0.6954
    -0.1537   0.0920   0.4190   1.1509   4.1847   5.8142   6.3444   6.6256
     7.0870   7.9012   9.3433  10.7756  11.8311  12.1923  13.5334  14.3111
    14.6251  15.1161

          k = 0.1875 0.1822 0.0000 (  6368 PWs)   bands (ev):

   -44.8769 -23.0787 -22.8964 -22.7698 -12.4503 -12.0179  -1.6147  -0.9190
    -0.3443  -0.0413   0.2985   1.0438   4.1230   5.8455   6.5515   6.6955
     7.2125   8.2163   9.6598  11.0482  11.9229  12.1375  13.3887  14.0380
    14.8911  15.1108

          k = 0.1875 0.2551 0.0000 (  6366 PWs)   bands (ev):

   -44.8719 -23.0631 -22.9428 -22.7938 -12.3605 -11.9512  -1.4613  -1.1660
    -0.5951  -0.2853   0.2399   0.8451   4.0961   5.8601   6.8215   6.9574
     7.3327   8.6277   9.9694  11.2961  12.0091  12.3762  13.1686  13.7736
    14.5745  14.9055

          k = 0.1875 0.3280 0.0000 (  6363 PWs)   bands (ev):

   -44.8664 -23.0463 -22.9883 -22.8238 -12.2710 -11.8667  -1.4383  -1.2702
    -0.9083  -0.4628   0.1593   0.5979   4.1182   5.9640   7.0135   7.3402
     7.4951   9.0964  10.1081  11.5037  12.2366  12.4488  13.2650  13.5720
    13.7176  14.8363

          k = 0.1875 0.4009 0.0000 (  6362 PWs)   bands (ev):

   -44.8614 -23.0319 -23.0262 -22.8541 -12.1964 -11.7760  -1.6364  -1.2280
    -1.1332  -0.5559   0.0530   0.3625   4.1876   6.1976   7.1418   7.5226
     7.7961   9.6249  10.0666  11.6575  12.1812  12.3363  13.0881  13.4859
    14.0397  14.5980

          k = 0.1875 0.4738 0.0000 (  6346 PWs)   bands (ev):

   -44.8575 -23.0558 -23.0185 -22.8787 -12.1442 -11.6984  -1.7853  -1.4680
    -1.0386  -0.5980  -0.0507   0.1871   4.2818   6.5411   7.1835   7.6677
     7.8846   9.9284  10.2447  11.7091  11.8362  12.2910  12.8546  13.5880
    14.3323  14.5701

          k = 0.1875 0.5467 0.0000 (  6344 PWs)   bands (ev):

   -44.8554 -23.0705 -23.0120 -22.8924 -12.1174 -11.6536  -1.8631  -1.5991
    -0.9907  -0.6119  -0.1146   0.0952   4.3519   6.8876   7.1960   7.7183
     7.7636   9.8024  10.8158  11.5994  11.8684  12.2790  12.4275  13.5150
    14.3841  14.5267

          k = 0.1875-0.0364 0.0000 (  6391 PWs)   bands (ev):

   -44.8829 -23.0969 -22.8319 -22.7506 -12.5630 -12.0853  -1.8036  -0.5443
    -0.0702   0.1137   0.5583   1.1752   4.2399   5.7409   6.3056   6.6228
     6.9945   7.7296   9.1533  10.5876  11.8036  12.3145  13.6122  14.1874
    14.6348  15.0775

          k = 0.2500 0.1458 0.0000 (  6374 PWs)   bands (ev):

   -44.8746 -23.0712 -22.9284 -22.7710 -12.4061 -11.9884  -1.5562  -1.0853
    -0.5398  -0.0016   0.2041   1.0389   4.0297   6.0159   6.6331   6.7447
     7.2974   8.3770   9.7851  11.1568  11.7792  12.0599  13.7180  14.0037
    14.9650  15.0911

          k = 0.2500 0.2187 0.0000 (  6361 PWs)   bands (ev):

   -44.8708 -23.0593 -22.9669 -22.7860 -12.3392 -11.9344  -1.4946  -1.2420
    -0.7681  -0.1618   0.1938   0.9222   3.9849   6.0905   6.8246   6.9495
     7.3914   8.6712   9.9431  11.2876  11.8230  12.0795  13.7157  13.9522
    14.6333  14.9416

          k = 0.2500 0.2916 0.0000 (  6352 PWs)   bands (ev):

   -44.8662 -23.0453 -23.0025 -22.8134 -12.2658 -11.8619  -1.5465  -1.2422
    -0.9930  -0.3800   0.1686   0.6738   4.0358   6.1131   7.0063   7.3539
     7.4883   9.0925  10.0412  11.4490  12.0554  12.2149  13.5259  13.7594
    13.9585  14.7253

          k = 0.2500 0.3645 0.0000 (  6351 PWs)   bands (ev):

   -44.8616 -23.0327 -23.0277 -22.8496 -12.1987 -11.7796  -1.6426  -1.2291
    -1.1353  -0.5438   0.0592   0.3777   4.1765   6.1979   7.1497   7.5246
     7.8026   9.6253  10.0584  11.6536  12.1859  12.3622  13.1265  13.4317
    13.9996  14.5667

          k = 0.2500 0.4373 0.0000 (  6351 PWs)   bands (ev):

   -44.8578 -23.0442 -23.0189 -22.8882 -12.1464 -11.7023  -1.6922  -1.4235
    -1.0504  -0.6399  -0.1597   0.1715   4.3717   6.3762   7.1467   7.7520
     7.9129  10.0246  10.2921  11.6487  11.9049  12.5315  13.1428  13.6031
    14.2247  14.3395

          k = 0.2500 0.5102 0.0000 (  6340 PWs)   bands (ev):

   -44.8552 -23.0482 -23.0110 -22.9196 -12.1134 -11.6470  -1.7028  -1.5513
    -0.9891  -0.7060  -0.3650   0.0648   4.5536   6.6240   7.1023   7.7383
     7.9485  10.0155  10.8590  11.4494  12.0733  12.6032  12.9682  13.6923
    14.2224  14.4729

          k = 0.2500 0.5831 0.0000 (  6346 PWs)   bands (ev):

   -44.8543 -23.0479 -23.0082 -22.9324 -12.1021 -11.6269  -1.7087  -1.5840
    -0.9677  -0.7423  -0.4349   0.0285   4.6302   6.7872   7.0811   7.5711
     8.0207  10.0000  10.9389  11.7541  12.1848  12.6022  12.6259  13.5618
    14.4810  14.4975

          k = 0.2500-0.0729 0.0000 (  6385 PWs)   bands (ev):

   -44.8772 -23.0792 -22.8963 -22.7673 -12.4529 -12.0211  -1.6174  -0.9129
    -0.3383  -0.0352   0.3001   1.0394   4.1250   5.8317   6.5680   6.7277
     7.1946   8.2149   9.6444  11.0449  11.9337  12.1484  13.3973  14.0614
    14.8731  15.1000

          k = 0.2500 0.0000 0.0000 (  6375 PWs)   bands (ev):

   -44.8781 -23.0820 -22.8829 -22.7680 -12.4697 -12.0320  -1.6402  -0.8327
    -0.2530  -0.0771   0.3438   1.0194   4.1763   5.7350   6.5732   6.7350
     7.1467   8.1654   9.5880  11.0011  12.0843  12.2026  13.1753  14.0032
    14.8387  15.0142

          k = 0.3125 0.1822 0.0000 (  6360 PWs)   bands (ev):

   -44.8685 -23.0519 -22.9992 -22.7863 -12.2993 -11.8981  -1.6031  -1.2570
    -0.9637  -0.1051   0.1176   0.9450   3.8898   6.3584   6.8960   7.0005
     7.4732   8.8039   9.9254  11.2581  11.6944  12.0368  13.6711  14.2645
    14.6146  14.9313

          k = 0.3125 0.2551 0.0000 (  6349 PWs)   bands (ev):

   -44.8651 -23.0419 -23.0301 -22.8011 -12.2471 -11.8413  -1.7336  -1.2411
    -1.1162  -0.2459   0.1292   0.8170   3.8921   6.4535   6.9909   7.3475
     7.5245   9.0924   9.9197  11.2841  11.7824  12.0762  13.4656  14.0629
    14.4193  14.7027

          k = 0.3125 0.3280 0.0000 (  6340 PWs)   bands (ev):

   -44.8614 -23.0520 -23.0298 -22.8304 -12.1945 -11.7736  -1.8072  -1.3418
    -1.1011  -0.4289   0.1070   0.5212   4.0267   6.4804   7.1605   7.5078
     7.7535   9.5759   9.9030  11.4784  11.9752  12.1325  13.0825  13.5706
    14.3564  14.6202

          k = 0.3125 0.4009 0.0000 (  6346 PWs)   bands (ev):

   -44.8580 -23.0584 -23.0195 -22.8708 -12.1490 -11.7058  -1.7941  -1.4654
    -1.0403  -0.5761  -0.0350   0.2012   4.2653   6.5332   7.1944   7.6793
     7.8958   9.8994  10.2555  11.7187  11.8560  12.3157  12.8490  13.5609
    14.2923  14.5316

          k = 0.3125 0.4738 0.0000 (  6344 PWs)   bands (ev):

   -44.8554 -23.0496 -23.0116 -22.9156 -12.1158 -11.6508  -1.7051  -1.5491
    -0.9899  -0.6961  -0.3519   0.0622   4.5487   6.6154   7.1045   7.7422
     7.9601   9.9963  10.8742  11.4585  12.0767  12.6214  12.9351  13.7227
    14.2082  14.4641

          k = 0.3125 0.5467 0.0000 (  6350 PWs)   bands (ev):

   -44.8540 -23.0321 -23.0073 -22.9526 -12.0984 -11.6199  -1.6728  -1.4873
    -0.9592  -0.8667  -0.5330   0.0046   4.7630   6.6921   7.0346   7.5152
     8.1446  10.1515  10.7160  12.0612  12.2809  12.8089  12.9525  13.2659
    14.3777  14.5940

          k = 0.3125-0.1093 0.0000 (  6360 PWs)   bands (ev):

   -44.8710 -23.0598 -22.9654 -22.7849 -12.3417 -11.9378  -1.4932  -1.2355
    -0.7567  -0.1564   0.1888   0.9107   3.9931   6.0869   6.8444   6.9491
     7.3802   8.6691   9.9356  11.2931  11.8290  12.0864  13.7369  13.9836
    14.5849  14.9446

          k = 0.3125-0.0364 0.0000 (  6369 PWs)   bands (ev):

   -44.8725 -23.0641 -22.9415 -22.7898 -12.3654 -11.9579  -1.4654  -1.1526
    -0.5781  -0.2765   0.2382   0.8360   4.1030   5.8510   6.8671   6.9648
     7.3088   8.6235   9.9497  11.2978  12.0387  12.3868  13.1906  13.8055
    14.4995  14.8912

          k = 0.3750 0.2187 0.0000 (  6344 PWs)   bands (ev):

   -44.8632 -23.0588 -23.0350 -22.7991 -12.2187 -11.8062  -1.8968  -1.3498
    -1.1167  -0.1977   0.0794   0.8750   3.8111   6.7413   7.0581   7.3917
     7.5998   9.1696   9.8274  11.1312  11.7202  12.0354  13.1961  14.2078
    14.3592  14.5752

          k = 0.3750 0.2916 0.0000 (  6345 PWs)   bands (ev):

   -44.8608 -23.0786 -23.0275 -22.8128 -12.1844 -11.7586  -1.9922  -1.4659
    -1.0749  -0.3020   0.0866   0.7394   3.8602   6.8472   7.1376   7.5801
     7.6980   9.4510   9.7761  11.1827  11.7815  12.0451  12.8955  13.7467
    14.2919  14.5721

          k = 0.3750 0.3645 0.0000 (  6342 PWs)   bands (ev):

   -44.8583 -23.0836 -23.0199 -22.8421 -12.1514 -11.7085  -1.9839  -1.5452
    -1.0294  -0.4475   0.0629   0.4139   4.0521   6.8870   7.2626   7.5584
     7.8462   9.6769  10.0997  11.4773  11.8857  12.0761  12.5228  13.4194
    14.3080  14.5784

          k = 0.3750 0.4373 0.0000 (  6349 PWs)   bands (ev):

   -44.8562 -23.0725 -23.0135 -22.8829 -12.1244 -11.6643  -1.8691  -1.5896
    -0.9922  -0.5833  -0.0895   0.0963   4.3370   6.8706   7.2004   7.7316
     7.7860   9.7684  10.8262  11.6275  11.9135  12.2676  12.3841  13.5276
    14.3491  14.5297

          k = 0.3750 0.5102 0.0000 (  6345 PWs)   bands (ev):

   -44.8548 -23.0490 -23.0092 -22.9265 -12.1066 -11.6340  -1.7043  -1.5768
    -0.9694  -0.7284  -0.4173   0.0190   4.6296   6.7732   7.0812   7.5617
     8.0475   9.9711  10.9738  11.7381  12.2038  12.5908  12.6195  13.6250
    14.4604  14.5045

          k = 0.3750 0.5831 0.0000 (  6344 PWs)   bands (ev):

   -44.8543 -23.0317 -23.0077 -22.9509 -12.1005 -11.6232  -1.6663  -1.4786
    -0.9616  -0.8653  -0.5291  -0.0012   4.7688   6.6884   7.0338   7.4974
     8.1593  10.1368  10.7351  12.0081  12.3018  12.8227  12.9899  13.2826
    14.3314  14.6211

          k = 0.3750-0.1458 0.0000 (  6367 PWs)   bands (ev):

   -44.8653 -23.0423 -23.0283 -22.8009 -12.2492 -11.8443  -1.7245  -1.2377
    -1.1096  -0.2401   0.1213   0.8042   3.9024   6.4623   7.0044   7.3205
     7.5235   9.0895   9.9175  11.2923  11.7829  12.0793  13.4776  14.0200
    14.4270  14.7539

          k = 0.3750-0.0729 0.0000 (  6364 PWs)   bands (ev):

   -44.8667 -23.0463 -22.9994 -22.8117 -12.2704 -11.8685  -1.5302  -1.2428
    -0.9714  -0.3743   0.1611   0.6541   4.0519   6.1128   7.0393   7.3313
     7.4748   9.0858  10.0355  11.4646  12.0646  12.2221  13.5617  13.7075
    14.0096  14.7290

          k = 0.3750 0.0000 0.0000 (  6373 PWs)   bands (ev):

   -44.8672 -23.0478 -22.9862 -22.8185 -12.2779 -11.8768  -1.4211  -1.2743
    -0.8843  -0.4502   0.1546   0.5896   4.1284   5.9611   7.0620   7.3193
     7.4809   9.0883  10.0961  11.5142  12.2623  12.4802  13.2747  13.5618
    13.7082  14.8083

          k = 0.4375 0.2551 0.0000 (  6336 PWs)   bands (ev):

   -44.8597 -23.0977 -23.0241 -22.8077 -12.1700 -11.7367  -2.1127  -1.5575
    -1.0516  -0.2608   0.0643   0.8318   3.7873   6.9685   7.2863   7.6496
     7.7361   9.3956   9.7249  11.0165  11.6969  12.0251  12.6900  13.8660
    14.0946  14.3365

          k = 0.4375 0.3280 0.0000 (  6344 PWs)   bands (ev):

   -44.8584 -23.1038 -23.0202 -22.8192 -12.1532 -11.7101  -2.1345  -1.6078
    -1.0274  -0.3299   0.0645   0.6970   3.8618   7.0626   7.3330   7.6210
     7.8209   9.4860   9.8754  11.1237  11.7099  12.0550  12.4945  13.4911
    14.2041  14.3139

          k = 0.4375 0.4009 0.0000 (  6343 PWs)   bands (ev):

   -44.8572 -23.0940 -23.0165 -22.8463 -12.1377 -11.6854  -2.0426  -1.6126
    -1.0056  -0.4499   0.0450   0.3710   4.0716   7.1093   7.3328   7.5719
     7.7602   9.5756  10.3698  11.4883  11.8483  12.1252  12.1730  13.3538
    14.2681  14.4744

          k = 0.4375 0.4738 0.0000 (  6347 PWs)   bands (ev):

   -44.8563 -23.0711 -23.0138 -22.8829 -12.1258 -11.6665  -1.8614  -1.5829
    -0.9928  -0.5816  -0.0916   0.0878   4.3444   6.8839   7.1987   7.6980
     7.7947   9.7685  10.8078  11.6210  11.9390  12.2532  12.4174  13.5164
    14.3535  14.5451

          k = 0.4375 0.5467 0.0000 (  6341 PWs)   bands (ev):

   -44.8558 -23.0470 -23.0123 -22.9146 -12.1193 -11.6563  -1.6892  -1.5332
    -0.9919  -0.6927  -0.3570   0.0508   4.5628   6.6197   7.1022   7.6914
     7.9858   9.9920  10.8649  11.4301  12.1203  12.6100  13.0073  13.7006
    14.2056  14.4604

          k = 0.4375-0.1822 0.0000 (  6344 PWs)   bands (ev):

   -44.8609 -23.0771 -23.0278 -22.8129 -12.1858 -11.7608  -1.9851  -1.4593
    -1.0753  -0.2973   0.0799   0.7299   3.8684   6.8620   7.1495   7.5793
     7.6626   9.4417   9.7778  11.1866  11.7878  12.0473  12.9019  13.7075
    14.3093  14.6119

          k = 0.4375-0.1093 0.0000 (  6346 PWs)   bands (ev):

   -44.8618 -23.0488 -23.0304 -22.8301 -12.1979 -11.7789  -1.7904  -1.3257
    -1.1015  -0.4236   0.0987   0.5010   4.0437   6.4926   7.1677   7.5208
     7.7023   9.5656   9.9014  11.4984  11.9774  12.1302  13.0801  13.5691
    14.3768  14.6710

          k = 0.4375-0.0364 0.0000 (  6362 PWs)   bands (ev):

   -44.8623 -23.0330 -23.0247 -22.8473 -12.2046 -11.7886  -1.6185  -1.2062
    -1.1359  -0.5359   0.0501   0.3576   4.1962   6.1988   7.1632   7.5402
     7.7538   9.6118  10.0556  11.6828  12.1830  12.3692  13.1219  13.4707
    14.0347  14.5687

          k =-0.5000-0.2916 0.0000 (  6336 PWs)   bands (ev):

   -44.8585 -23.1113 -23.0202 -22.8107 -12.1539 -11.7107  -2.1896  -1.6305
    -1.0277  -0.2831   0.0606   0.8171   3.7853   7.0181   7.4253   7.6815
     7.8559   9.4083   9.7547  10.9796  11.6135  12.0568  12.5110  13.6764
    14.0146  14.2020

          k =-0.5000-0.2187 0.0000 (  6332 PWs)   bands (ev):

   -44.8585 -23.1033 -23.0203 -22.8193 -12.1537 -11.7109  -2.1319  -1.6055
    -1.0276  -0.3281   0.0620   0.6936   3.8650   7.0639   7.3526   7.6223
     7.7946   9.4768   9.8790  11.1246  11.7166  12.0564  12.4965  13.4762
    14.2103  14.3274

          k =-0.5000-0.1458 0.0000 (  6346 PWs)   bands (ev):

   -44.8585 -23.0817 -23.0203 -22.8422 -12.1533 -11.7115  -1.9738  -1.5361
    -1.0302  -0.4438   0.0578   0.4012   4.0627   6.9076   7.2616   7.5774
     7.7906   9.6704  10.0899  11.4896  11.8975  12.0698  12.5386  13.4012
    14.3171  14.6115

          k =-0.5000-0.0729 0.0000 (  6349 PWs)   bands (ev):

   -44.8585 -23.0548 -23.0203 -22.8703 -12.1529 -11.7120  -1.7742  -1.4467
    -1.0422  -0.5711  -0.0424   0.1816   4.2836   6.5436   7.1899   7.7083
     7.8319   9.9011  10.2303  11.7358  11.8757  12.2955  12.8935  13.5548
    14.3094  14.5681

          k =-0.5000 0.0000 0.0000 (  6355 PWs)   bands (ev):

   -44.8585 -23.0410 -23.0203 -22.8847 -12.1528 -11.7122  -1.6696  -1.3992
    -1.0542  -0.6279  -0.1657   0.1553   4.3891   6.3759   7.1475   7.7816
     7.8573  10.0160  10.2700  11.6546  11.9424  12.5410  13.2102  13.5873
    14.2160  14.3406

     highest occupied, lowest unoccupied level (ev):     4.7688    5.7350

!    total energy              =    -591.24405779 Ry
     total all-electron energy =    -13333.877334 Ry
     estimated scf accuracy    <          8.5E-11 Ry

     The total energy is the sum of the following terms:
     one-electron contribution =    -204.54799137 Ry
     hartree contribution      =     110.09992277 Ry
     xc contribution           =     -37.59478086 Ry
     ewald contribution        =     -28.08529818 Ry
     one-center paw contrib.   =    -431.11591016 Ry

     convergence has been achieved in   4 iterations

     Forces acting on atoms (cartesian axes, Ry/au):

     atom    1 type  1   force =     0.00000000    0.00021156    0.00001757
     atom    2 type  2   force =     0.00000000   -0.00011744   -0.00007372
     atom    3 type  3   force =     0.00000000   -0.00009411    0.00005616
     The non-local contrib.  to forces
     atom    1 type  1   force =     0.00000000   -0.00114936   -0.00065172
     atom    2 type  2   force =     0.00000000   -0.00101951   -0.21246336
     atom    3 type  3   force =     0.00000000   -0.00097151    0.20918700
     The ionic contribution  to forces
     atom    1 type  1   force =    -0.00000001   -0.06640345   -0.31225066
     atom    2 type  2   force =     0.00000000    0.03754660   20.99151981
     atom    3 type  3   force =     0.00000000    0.02885685  -20.67926915
     The local contribution  to forces
     atom    1 type  1   force =    -0.00000000    0.06771057    0.31253537
     atom    2 type  2   force =     0.00000003   -0.03663577  -20.78701084
     atom    3 type  3   force =    -0.00000000   -0.02794247   20.47379609
     The core correction contribution to forces
     atom    1 type  1   force =     0.00000000    0.00004991    0.00036795
     atom    2 type  2   force =    -0.00000000   -0.00001486    0.00788134
     atom    3 type  3   force =    -0.00000000   -0.00004199   -0.00364897
     The Hubbard contrib.    to forces
     atom    1 type  1   force =     0.00000000    0.00000000    0.00000000
     atom    2 type  2   force =     0.00000000    0.00000000    0.00000000
     atom    3 type  3   force =     0.00000000    0.00000000    0.00000000
     The SCF correction term to forces
     atom    1 type  1   force =     0.00000000   -0.00000043    0.00003074
     atom    2 type  2   force =     0.00000000    0.00000179    0.00001343
     atom    3 type  3   force =    -0.00000000    0.00000070    0.00000529

     Total force =     0.000276     Total SCF correction =     0.000034
     SCF correction compared to forces is large: reduce conv_thr to get better values
     Energy error            =      1.2E-07 Ry
     Gradient error          =      2.1E-04 Ry/Bohr

     number of scf cycles    =   6
     number of bfgs steps    =   5

     energy             old  =    -591.2440576755 Ry
     energy             new  =    -591.2440577922 Ry

     CASE: energy            _new < energy            _old

     new trust radius        =       0.0002874020 bohr
     new conv_thr            =            1.0E-10 Ry


ATOMIC_POSITIONS (angstrom)
Zr            0.0000000000       -0.0029482564       10.2767342826
Cl           -0.0000000017        2.0157442300       11.9584291128
Br           -0.0000000017        2.0160608710        8.4279853789



     Writing config-only to output data dir ./tmp/ZrClBr.save/
     NEW-OLD atomic charge density approx. for the potential

     Check: negative core charge=   -0.000004

     total cpu time spent up to now is       74.9 secs

     Self-consistent Calculation

     iteration #  1     ecut=    65.00 Ry     beta= 0.70
     Davidson diagonalization with overlap
     ethr =  1.00E-06,  avg # of iterations =  2.0

     Threshold (ethr) on eigenvalues was too large:
     Diagonalizing with lowered threshold

     Davidson diagonalization with overlap
     ethr =  5.71E-11,  avg # of iterations =  4.0

     total cpu time spent up to now is       78.4 secs

     total energy              =    -591.24405788 Ry
     estimated scf accuracy    <          6.5E-09 Ry

     iteration #  2     ecut=    65.00 Ry     beta= 0.70
     Davidson diagonalization with overlap
     ethr =  2.50E-11,  avg # of iterations =  2.0

     total cpu time spent up to now is       80.0 secs

     total energy              =    -591.24405788 Ry
     estimated scf accuracy    <       0.00000001 Ry

     iteration #  3     ecut=    65.00 Ry     beta= 0.70
     Davidson diagonalization with overlap
     ethr =  2.50E-11,  avg # of iterations =  2.0

     total cpu time spent up to now is       81.5 secs

     total energy              =    -591.24405788 Ry
     estimated scf accuracy    <          7.5E-10 Ry

     iteration #  4     ecut=    65.00 Ry     beta= 0.70
     Davidson diagonalization with overlap
     ethr =  2.89E-12,  avg # of iterations =  1.0

     total cpu time spent up to now is       82.9 secs

     End of self-consistent calculation

          k = 0.0000 0.0000 0.0000 (  6395 PWs)   bands (ev):

   -44.8905 -23.1213 -22.7407 -22.7273 -12.7231 -12.1605  -2.0822  -0.0121
     0.1745   0.2220   1.3425   1.4034   4.3059   5.9291   6.0340   6.6363
     6.6711   6.7773   8.3685   9.4216  11.3391  13.5274  13.6653  13.9370
    14.6235  15.1829

          k = 0.0000 0.0729 0.0000 (  6405 PWs)   bands (ev):

   -44.8892 -23.1174 -22.7439 -22.7425 -12.6975 -12.1490  -2.0377  -0.0811
     0.1616   0.1704   1.2445   1.3065   4.3096   5.9639   5.9658   6.6317
     6.6966   6.9587   8.4983   9.6570  11.4052  13.1857  13.6549  14.3221
    14.6535  14.8775

          k = 0.0000 0.1458 0.0000 (  6403 PWs)   bands (ev):

   -44.8856 -23.1063 -22.7854 -22.7533 -12.6250 -12.1146  -1.9126  -0.3138
     0.0588   0.1204   0.8537   1.2124   4.2949   5.8473   6.0759   6.5890
     6.8572   7.3975   8.8603  10.2138  11.6034  12.6151  14.0182  14.0745
    14.5333  14.9034

          k = 0.0000 0.2187 0.0000 (  6377 PWs)   bands (ev):

   -44.8801 -23.0895 -22.8489 -22.7672 -12.5190 -12.0579  -1.7327  -0.6761
    -0.1390   0.0477   0.4378   1.0919   4.2098   5.8416   6.2803   6.6249
     7.0695   7.9052   9.3707  10.7909  11.8433  12.2135  13.5713  14.3396
    14.5457  15.1797

          k = 0.0000 0.2916 0.0000 (  6369 PWs)   bands (ev):

   -44.8737 -23.0697 -22.9226 -22.7836 -12.4000 -11.9799  -1.5505  -1.0702
    -0.5243  -0.0519   0.2143   0.9741   4.0613   6.0266   6.5843   6.7366
     7.2815   8.3792   9.8126  11.1708  11.7875  12.0801  13.7542  14.0512
    15.0108  15.0483

          k = 0.0000 0.3645 0.0000 (  6355 PWs)   bands (ev):

   -44.8672 -23.0499 -22.9949 -22.7999 -12.2910 -11.8856  -1.5937  -1.2492
    -0.9558  -0.1618   0.1296   0.8751   3.9233   6.3599   6.8822   6.9710
     7.4565   8.8030   9.9524  11.2685  11.6918  12.0530  13.7413  14.3190
    14.6900  14.8446

          k = 0.0000 0.4373 0.0000 (  6338 PWs)   bands (ev):

   -44.8618 -23.0559 -23.0325 -22.8137 -12.2084 -11.7903  -1.8870  -1.3529
    -1.1107  -0.2597   0.0954   0.8012   3.8459   6.7331   7.0416   7.3839
     7.5821   9.1656   9.8668  11.1122  11.7323  12.0535  13.2674  14.2587
    14.2769  14.6358

          k = 0.0000 0.5102 0.0000 (  6344 PWs)   bands (ev):

   -44.8581 -23.0956 -23.0214 -22.8229 -12.1583 -11.7182  -2.1033  -1.5668
    -1.0481  -0.3264   0.0835   0.7553   3.8236   6.9462   7.2720   7.6306
     7.7487   9.4052   9.7645  10.9734  11.7252  12.0681  12.7407  13.7532
    14.1371  14.3853

          k = 0.0000-0.5831 0.0000 (  6346 PWs)   bands (ev):

   -44.8568 -23.1095 -23.0174 -22.8261 -12.1415 -11.6914  -2.1804  -1.6420
    -1.0252  -0.3499   0.0810   0.7398   3.8223   6.9919   7.4083   7.6592
     7.8806   9.4439   9.7750  10.9278  11.6515  12.1153  12.5503  13.5546
    14.0414  14.2467

          k = 0.0625 0.0364 0.0000 (  6409 PWs)   bands (ev):

   -44.8893 -23.1175 -22.7537 -22.7322 -12.6980 -12.1495  -2.0384  -0.0907
     0.1410   0.2025   1.1988   1.3575   4.3063   5.8838   6.0525   6.6098
     6.7233   6.9570   8.4930   9.6509  11.4039  13.1331  13.7554  14.2874
    14.6300  14.7961

          k = 0.0625 0.1093 0.0000 (  6413 PWs)   bands (ev):

   -44.8868 -23.1100 -22.7757 -22.7456 -12.6489 -12.1266  -1.9534  -0.2387
     0.0701   0.1626   0.9554   1.2617   4.3013   5.8406   6.0768   6.5866
     6.8180   7.2661   8.7392  10.0457  11.5388  12.7539  13.8804  14.2513
    14.5987  14.7710

          k = 0.0625 0.1822 0.0000 (  6385 PWs)   bands (ev):

   -44.8823 -23.0961 -22.8249 -22.7612 -12.5596 -12.0811  -1.7996  -0.5295
    -0.0682   0.0864   0.5704   1.1343   4.2563   5.7773   6.2397   6.6027
     6.9946   7.7338   9.1815  10.6046  11.8101  12.3217  13.6446  14.1333
    14.6414  15.1211

          k = 0.0625 0.2551 0.0000 (  6363 PWs)   bands (ev):

   -44.8763 -23.0778 -22.8910 -22.7788 -12.4471 -12.0134  -1.6115  -0.9033
    -0.3284  -0.0722   0.3018   0.9943   4.1470   5.8473   6.5199   6.6995
     7.1958   8.2183   9.6779  11.0575  11.9322  12.1591  13.4138  14.0662
    14.8599  15.1323

          k = 0.0625 0.3280 0.0000 (  6348 PWs)   bands (ev):

   -44.8699 -23.0579 -22.9618 -22.7973 -12.3337 -11.9262  -1.4880  -1.2289
    -0.7532  -0.1992   0.1923   0.8605   4.0163   6.0878   6.8149   6.9263
     7.3755   8.6711   9.9625  11.3030  11.8236  12.0919  13.7656  14.0064
    14.6412  14.9391

          k = 0.0625 0.4009 0.0000 (  6353 PWs)   bands (ev):

   -44.8639 -23.0400 -23.0260 -22.8141 -12.2393 -11.8292  -1.7209  -1.2376
    -1.1082  -0.2910   0.1319   0.7478   3.9267   6.4532   6.9768   7.3243
     7.5108   9.0885   9.9481  11.2841  11.7782  12.0886  13.5348  14.0525
    14.4437  14.7497

          k = 0.0625 0.4738 0.0000 (  6348 PWs)   bands (ev):

   -44.8593 -23.0756 -23.0251 -22.8269 -12.1744 -11.7432  -1.9803  -1.4700
    -1.0708  -0.3553   0.0969   0.6671   3.8957   6.8449   7.1230   7.5639
     7.6847   9.4442   9.8189  11.1499  11.7991  12.0707  12.9442  13.6905
    14.3377  14.6192

          k = 0.0625 0.5467 0.0000 (  6338 PWs)   bands (ev):

   -44.8569 -23.1018 -23.0175 -22.8338 -12.1418 -11.6923  -2.1248  -1.6181
    -1.0249  -0.3892   0.0813   0.6252   3.8964   7.0398   7.3309   7.6025
     7.8241   9.5168   9.8921  11.0712  11.7441  12.1069  12.5195  13.4260
    14.2314  14.3362

          k = 0.1250 0.0729 0.0000 (  6403 PWs)   bands (ev):

   -44.8858 -23.1067 -22.7946 -22.7420 -12.6270 -12.1169  -1.9150  -0.3340
     0.0460   0.1601   0.8199   1.2655   4.2819   5.7943   6.1516   6.5799
     6.8789   7.3934   8.8432  10.1988  11.5971  12.5883  14.0172  14.1070
    14.5173  14.8508

          k = 0.1250 0.1458 0.0000 (  6383 PWs)   bands (ev):

   -44.8824 -23.0963 -22.8292 -22.7553 -12.5610 -12.0828  -1.8012  -0.5416
    -0.0708   0.1037   0.5566   1.1650   4.2452   5.7665   6.2669   6.5963
     7.0077   7.7318   9.1709  10.5973  11.8036  12.3090  13.6225  14.1408
    14.6647  15.0921

          k = 0.1250 0.2187 0.0000 (  6380 PWs)   bands (ev):

   -44.8774 -23.0809 -22.8804 -22.7752 -12.4652 -12.0262  -1.6354  -0.8342
    -0.2537  -0.0958   0.3391   1.0070   4.1834   5.7529   6.5380   6.6893
     7.1688   8.1684   9.6177  11.0105  12.0653  12.1973  13.1784  13.9812
    14.8557  15.0304

          k = 0.1250 0.2916 0.0000 (  6376 PWs)   bands (ev):

   -44.8714 -23.0625 -22.9401 -22.7985 -12.3587 -11.9484  -1.4598  -1.1579
    -0.5846  -0.3016   0.2366   0.8199   4.1097   5.8563   6.8201   6.9485
     7.3259   8.6277   9.9768  11.3016  12.0185  12.3672  13.1908  13.7963
    14.5604  14.9213

          k = 0.1250 0.3645 0.0000 (  6363 PWs)   bands (ev):

   -44.8655 -23.0442 -22.9988 -22.8217 -12.2617 -11.8555  -1.5364  -1.2382
    -0.9837  -0.4053   0.1639   0.6315   4.0589   6.1090   6.9976   7.3412
     7.4795   9.0905  10.0555  11.4599  12.0407  12.2114  13.5688  13.7402
    14.0087  14.7656

          k = 0.1250 0.4373 0.0000 (  6347 PWs)   bands (ev):

   -44.8604 -23.0486 -23.0281 -22.8413 -12.1879 -11.7634  -1.7950  -1.3410
    -1.0972  -0.4630   0.1069   0.4693   4.0543   6.4833   7.1407   7.5018
     7.7372   9.5703   9.9307  11.4683  11.9652  12.1321  13.0710  13.6085
    14.4011  14.6805

          k = 0.1250 0.5102 0.0000 (  6339 PWs)   bands (ev):

   -44.8570 -23.0809 -23.0178 -22.8543 -12.1428 -11.6949  -1.9734  -1.5521
    -1.0271  -0.4898   0.0708   0.3588   4.0798   6.8968   7.2443   7.5441
     7.8315   9.7083  10.1003  11.4323  11.8895  12.0976  12.5419  13.4108
    14.3523  14.6017

          k = 0.1250 0.5831 0.0000 (  6346 PWs)   bands (ev):

   -44.8558 -23.0923 -23.0142 -22.8589 -12.1276 -11.6696  -2.0365  -1.6256
    -1.0036  -0.4971   0.0586   0.3195   4.0953   7.1041   7.3288   7.5439
     7.7681   9.6153  10.3729  11.4236  11.8637  12.1590  12.1837  13.3446
    14.3100  14.4576

          k = 0.1250 0.0000 0.0000 (  6385 PWs)   bands (ev):

   -44.8870 -23.1103 -22.7823 -22.7374 -12.6504 -12.1282  -1.9552  -0.2523
     0.0667   0.1845   0.9340   1.2955   4.2941   5.7920   6.1408   6.5908
     6.8250   7.2629   8.7256  10.0333  11.5362  12.7298  13.9699  14.2064
    14.5509  14.7514

          k = 0.1875 0.1093 0.0000 (  6387 PWs)   bands (ev):

   -44.8806 -23.0904 -22.8563 -22.7554 -12.5230 -12.0629  -1.7371  -0.6956
    -0.1537   0.0915   0.4191   1.1507   4.1850   5.8145   6.3445   6.6256
     7.0874   7.9012   9.3434  10.7754  11.8311  12.1923  13.5337  14.3110
    14.6252  15.1161

          k = 0.1875 0.1822 0.0000 (  6368 PWs)   bands (ev):

   -44.8767 -23.0785 -22.8962 -22.7697 -12.4505 -12.0179  -1.6149  -0.9193
    -0.3443  -0.0416   0.2985   1.0437   4.1232   5.8458   6.5516   6.6956
     7.2128   8.2164   9.6600  11.0481  11.9229  12.1375  13.3888  14.0378
    14.8915  15.1106

          k = 0.1875 0.2551 0.0000 (  6366 PWs)   bands (ev):

   -44.8717 -23.0630 -22.9426 -22.7937 -12.3607 -11.9513  -1.4615  -1.1663
    -0.5951  -0.2856   0.2399   0.8451   4.0961   5.8604   6.8216   6.9575
     7.3330   8.6277   9.9697  11.2960  12.0092  12.3762  13.1688  13.7735
    14.5745  14.9056

          k = 0.1875 0.3280 0.0000 (  6363 PWs)   bands (ev):

   -44.8662 -23.0461 -22.9882 -22.8237 -12.2712 -11.8668  -1.4386  -1.2703
    -0.9083  -0.4630   0.1593   0.5980   4.1182   5.9643   7.0136   7.3404
     7.4955   9.0965  10.1085  11.5037  12.2368  12.4487  13.2651  13.5719
    13.7176  14.8362

          k = 0.1875 0.4009 0.0000 (  6362 PWs)   bands (ev):

   -44.8612 -23.0318 -23.0260 -22.8540 -12.1966 -11.7761  -1.6366  -1.2281
    -1.1333  -0.5560   0.0530   0.3626   4.1875   6.1979   7.1421   7.5230
     7.7961   9.6250  10.0670  11.6574  12.1815  12.3363  13.0881  13.4859
    14.0397  14.5979

          k = 0.1875 0.4738 0.0000 (  6346 PWs)   bands (ev):

   -44.8573 -23.0557 -23.0183 -22.8785 -12.1444 -11.6984  -1.7856  -1.4681
    -1.0387  -0.5981  -0.0507   0.1871   4.2817   6.5414   7.1839   7.6682
     7.8847   9.9286  10.2448  11.7091  11.8363  12.2910  12.8548  13.5880
    14.3322  14.5701

          k = 0.1875 0.5467 0.0000 (  6344 PWs)   bands (ev):

   -44.8552 -23.0704 -23.0118 -22.8922 -12.1177 -11.6536  -1.8634  -1.5991
    -0.9908  -0.6120  -0.1146   0.0951   4.3518   6.8877   7.1964   7.7186
     7.7639   9.8026  10.8159  11.5995  11.8685  12.2790  12.4276  13.5151
    14.3840  14.5266

          k = 0.1875-0.0364 0.0000 (  6391 PWs)   bands (ev):

   -44.8827 -23.0968 -22.8318 -22.7504 -12.5632 -12.0853  -1.8038  -0.5445
    -0.0701   0.1132   0.5583   1.1750   4.2402   5.7411   6.3057   6.6226
     6.9950   7.7296   9.1534  10.5874  11.8035  12.3144  13.6127  14.1877
    14.6345  15.0776

          k = 0.2500 0.1458 0.0000 (  6374 PWs)   bands (ev):

   -44.8744 -23.0711 -22.9282 -22.7708 -12.4063 -11.9884  -1.5564  -1.0855
    -0.5398  -0.0020   0.2042   1.0388   4.0300   6.0162   6.6332   6.7447
     7.2977   8.3770   9.7854  11.1566  11.7791  12.0600  13.7182  14.0036
    14.9652  15.0911

          k = 0.2500 0.2187 0.0000 (  6361 PWs)   bands (ev):

   -44.8706 -23.0592 -22.9668 -22.7858 -12.3394 -11.9344  -1.4948  -1.2422
    -0.7681  -0.1622   0.1939   0.9222   3.9850   6.0907   6.8246   6.9495
     7.3918   8.6713   9.9434  11.2875  11.8230  12.0796  13.7157  13.9522
    14.6334  14.9417

          k = 0.2500 0.2916 0.0000 (  6352 PWs)   bands (ev):

   -44.8660 -23.0452 -23.0024 -22.8132 -12.2660 -11.8620  -1.5467  -1.2423
    -0.9930  -0.3804   0.1686   0.6737   4.0358   6.1133   7.0062   7.3541
     7.4887   9.0926  10.0415  11.4490  12.0554  12.2150  13.5258  13.7595
    13.9586  14.7254

          k = 0.2500 0.3645 0.0000 (  6351 PWs)   bands (ev):

   -44.8614 -23.0325 -23.0276 -22.8495 -12.1989 -11.7797  -1.6428  -1.2291
    -1.1355  -0.5441   0.0592   0.3778   4.1765   6.1982   7.1497   7.5252
     7.8027   9.6254  10.0587  11.6536  12.1862  12.3620  13.1265  13.4316
    13.9997  14.5666

          k = 0.2500 0.4373 0.0000 (  6351 PWs)   bands (ev):

   -44.8576 -23.0441 -23.0188 -22.8880 -12.1466 -11.7023  -1.6925  -1.4236
    -1.0506  -0.6401  -0.1597   0.1716   4.3717   6.3764   7.1469   7.7525
     7.9130  10.0247  10.2924  11.6489  11.9050  12.5313  13.1430  13.6030
    14.2248  14.3395

          k = 0.2500 0.5102 0.0000 (  6340 PWs)   bands (ev):

   -44.8550 -23.0481 -23.0108 -22.9195 -12.1136 -11.6470  -1.7031  -1.5513
    -0.9892  -0.7061  -0.3650   0.0648   4.5536   6.6241   7.1026   7.7385
     7.9490  10.0157  10.8592  11.4495  12.0733  12.6030  12.9684  13.6924
    14.2223  14.4729

          k = 0.2500 0.5831 0.0000 (  6346 PWs)   bands (ev):

   -44.8541 -23.0478 -23.0081 -22.9322 -12.1023 -11.6270  -1.7090  -1.5841
    -0.9679  -0.7423  -0.4348   0.0284   4.6302   6.7873   7.0815   7.5714
     8.0212  10.0002  10.9391  11.7541  12.1848  12.6022  12.6261  13.5619
    14.4809  14.4975

          k = 0.2500-0.0729 0.0000 (  6385 PWs)   bands (ev):

   -44.8770 -23.0790 -22.8961 -22.7672 -12.4531 -12.0211  -1.6177  -0.9131
    -0.3382  -0.0356   0.3001   1.0392   4.1253   5.8319   6.5681   6.7276
     7.1950   8.2149   9.6445  11.0446  11.9336  12.1484  13.3977  14.0617
    14.8728  15.1002

          k = 0.2500 0.0000 0.0000 (  6375 PWs)   bands (ev):

   -44.8779 -23.0818 -22.8828 -22.7679 -12.4699 -12.0320  -1.6404  -0.8329
    -0.2528  -0.0776   0.3438   1.0192   4.1766   5.7352   6.5734   6.7348
     7.1472   8.1655   9.5882  11.0008  12.0841  12.2025  13.1758  14.0036
    14.8384  15.0143

          k = 0.3125 0.1822 0.0000 (  6360 PWs)   bands (ev):

   -44.8683 -23.0517 -22.9990 -22.7861 -12.2995 -11.8981  -1.6033  -1.2572
    -0.9637  -0.1056   0.1177   0.9449   3.8900   6.3585   6.8961   7.0006
     7.4735   8.8039   9.9257  11.2580  11.6944  12.0368  13.6711  14.2646
    14.6148  14.9314

          k = 0.3125 0.2551 0.0000 (  6349 PWs)   bands (ev):

   -44.8649 -23.0418 -23.0300 -22.8009 -12.2473 -11.8413  -1.7338  -1.2412
    -1.1163  -0.2463   0.1293   0.8169   3.8923   6.4537   6.9908   7.3475
     7.5250   9.0926   9.9200  11.2841  11.7824  12.0763  13.4656  14.0630
    14.4194  14.7029

          k = 0.3125 0.3280 0.0000 (  6340 PWs)   bands (ev):

   -44.8612 -23.0519 -23.0296 -22.8303 -12.1947 -11.7736  -1.8074  -1.3418
    -1.1013  -0.4293   0.1071   0.5212   4.0268   6.4806   7.1603   7.5086
     7.7535   9.5761   9.9031  11.4783  11.9754  12.1326  13.0825  13.5705
    14.3564  14.6204

          k = 0.3125 0.4009 0.0000 (  6346 PWs)   bands (ev):

   -44.8578 -23.0582 -23.0193 -22.8707 -12.1492 -11.7058  -1.7942  -1.4655
    -1.0405  -0.5764  -0.0350   0.2013   4.2654   6.5334   7.1945   7.6798
     7.8958   9.8994  10.2558  11.7188  11.8561  12.3156  12.8491  13.5608
    14.2923  14.5317

          k = 0.3125 0.4738 0.0000 (  6344 PWs)   bands (ev):

   -44.8552 -23.0495 -23.0114 -22.9154 -12.1160 -11.6508  -1.7053  -1.5492
    -0.9902  -0.6962  -0.3520   0.0623   4.5487   6.6155   7.1048   7.7424
     7.9605   9.9964  10.8746  11.4585  12.0767  12.6213  12.9351  13.7228
    14.2082  14.4641

          k = 0.3125 0.5467 0.0000 (  6350 PWs)   bands (ev):

   -44.8538 -23.0320 -23.0071 -22.9525 -12.0986 -11.6200  -1.6730  -1.4874
    -0.9594  -0.8667  -0.5331   0.0046   4.7630   6.6921   7.0349   7.5155
     8.1449  10.1517  10.7162  12.0612  12.2809  12.8088  12.9525  13.2660
    14.3777  14.5942

          k = 0.3125-0.1093 0.0000 (  6360 PWs)   bands (ev):

   -44.8708 -23.0597 -22.9652 -22.7847 -12.3419 -11.9378  -1.4935  -1.2357
    -0.7568  -0.1567   0.1888   0.9105   3.9933   6.0871   6.8445   6.9493
     7.3804   8.6691   9.9358  11.2929  11.8289  12.0863  13.7370  13.9836
    14.5853  14.9445

          k = 0.3125-0.0364 0.0000 (  6369 PWs)   bands (ev):

   -44.8722 -23.0640 -22.9413 -22.7897 -12.3657 -11.9579  -1.4656  -1.1528
    -0.5781  -0.2768   0.2381   0.8358   4.1033   5.8512   6.8671   6.9650
     7.3091   8.6235   9.9500  11.2975  12.0383  12.3868  13.1910  13.8059
    14.4998  14.8912

          k = 0.3750 0.2187 0.0000 (  6344 PWs)   bands (ev):

   -44.8630 -23.0586 -23.0348 -22.7990 -12.2189 -11.8063  -1.8970  -1.3499
    -1.1169  -0.1981   0.0796   0.8749   3.8114   6.7414   7.0582   7.3918
     7.6001   9.1698   9.8275  11.1313  11.7202  12.0354  13.1961  14.2079
    14.3592  14.5754

          k = 0.3750 0.2916 0.0000 (  6345 PWs)   bands (ev):

   -44.8605 -23.0784 -23.0273 -22.8127 -12.1846 -11.7587  -1.9924  -1.4660
    -1.0751  -0.3025   0.0867   0.7393   3.8604   6.8473   7.1376   7.5806
     7.6981   9.4513   9.7761  11.1827  11.7816  12.0451  12.8957  13.7466
    14.2919  14.5725

          k = 0.3750 0.3645 0.0000 (  6342 PWs)   bands (ev):

   -44.8581 -23.0835 -23.0197 -22.8419 -12.1516 -11.7085  -1.9840  -1.5453
    -1.0297  -0.4479   0.0630   0.4139   4.0523   6.8871   7.2625   7.5590
     7.8463   9.6769  10.1000  11.4773  11.8858  12.0761  12.5231  13.4193
    14.3080  14.5788

          k = 0.3750 0.4373 0.0000 (  6349 PWs)   bands (ev):

   -44.8560 -23.0724 -23.0133 -22.8827 -12.1246 -11.6643  -1.8692  -1.5897
    -0.9924  -0.5835  -0.0896   0.0964   4.3371   6.8707   7.2006   7.7318
     7.7863   9.7684  10.8266  11.6275  11.9135  12.2676  12.3842  13.5276
    14.3490  14.5299

          k = 0.3750 0.5102 0.0000 (  6345 PWs)   bands (ev):

   -44.8546 -23.0488 -23.0090 -22.9263 -12.1068 -11.6340  -1.7046  -1.5769
    -0.9696  -0.7285  -0.4173   0.0191   4.6297   6.7732   7.0815   7.5620
     8.0477   9.9712  10.9739  11.7382  12.2036  12.5909  12.6195  13.6250
    14.4604  14.5047

          k = 0.3750 0.5831 0.0000 (  6344 PWs)   bands (ev):

   -44.8541 -23.0315 -23.0075 -22.9507 -12.1007 -11.6233  -1.6666  -1.4788
    -0.9617  -0.8655  -0.5291  -0.0011   4.7688   6.6884   7.0341   7.4977
     8.1594  10.1371  10.7350  12.0082  12.3016  12.8228  12.9899  13.2826
    14.3318  14.6210

          k = 0.3750-0.1458 0.0000 (  6367 PWs)   bands (ev):

   -44.8651 -23.0421 -23.0281 -22.8007 -12.2494 -11.8444  -1.7247  -1.2379
    -1.1098  -0.2403   0.1213   0.8040   3.9027   6.4624   7.0046   7.3207
     7.5236   9.0895   9.9178  11.2924  11.7828  12.0792  13.4777  14.0203
    14.4270  14.7540

          k = 0.3750-0.0729 0.0000 (  6364 PWs)   bands (ev):

   -44.8665 -23.0461 -22.9992 -22.8116 -12.2706 -11.8685  -1.5304  -1.2430
    -0.9716  -0.3744   0.1610   0.6540   4.0521   6.1129   7.0395   7.3315
     7.4748   9.0858  10.0358  11.4644  12.0645  12.2219  13.5620  13.7077
    14.0098  14.7292

          k = 0.3750 0.0000 0.0000 (  6373 PWs)   bands (ev):

   -44.8670 -23.0476 -22.9860 -22.8184 -12.2782 -11.8768  -1.4214  -1.2745
    -0.8845  -0.4502   0.1546   0.5895   4.1286   5.9613   7.0623   7.3194
     7.4810   9.0883  10.0964  11.5140  12.2617  12.4803  13.2751  13.5621
    13.7087  14.8084

          k = 0.4375 0.2551 0.0000 (  6336 PWs)   bands (ev):

   -44.8595 -23.0975 -23.0239 -22.8076 -12.1703 -11.7367  -2.1128  -1.5576
    -1.0519  -0.2612   0.0644   0.8317   3.7875   6.9685   7.2865   7.6499
     7.7362   9.3959   9.7249  11.0166  11.6970  12.0252  12.6901  13.8661
    14.0948  14.3366

          k = 0.4375 0.3280 0.0000 (  6344 PWs)   bands (ev):

   -44.8582 -23.1037 -23.0200 -22.8191 -12.1534 -11.7102  -2.1346  -1.6079
    -1.0276  -0.3303   0.0647   0.6969   3.8621   7.0626   7.3333   7.6214
     7.8210   9.4861   9.8757  11.1237  11.7099  12.0551  12.4948  13.4911
    14.2041  14.3142

          k = 0.4375 0.4009 0.0000 (  6343 PWs)   bands (ev):

   -44.8570 -23.0938 -23.0164 -22.8461 -12.1379 -11.6855  -2.0427  -1.6127
    -1.0058  -0.4502   0.0451   0.3709   4.0718   7.1094   7.3330   7.5720
     7.7604   9.5756  10.3700  11.4884  11.8484  12.1252  12.1732  13.3539
    14.2680  14.4747

          k = 0.4375 0.4738 0.0000 (  6347 PWs)   bands (ev):

   -44.8561 -23.0710 -23.0136 -22.8827 -12.1260 -11.6665  -1.8615  -1.5831
    -0.9930  -0.5818  -0.0916   0.0878   4.3445   6.8840   7.1991   7.6983
     7.7946   9.7685  10.8079  11.6212  11.9390  12.2532  12.4174  13.5165
    14.3535  14.5454

          k = 0.4375 0.5467 0.0000 (  6341 PWs)   bands (ev):

   -44.8556 -23.0469 -23.0121 -22.9144 -12.1195 -11.6563  -1.6894  -1.5334
    -0.9921  -0.6929  -0.3571   0.0509   4.5629   6.6198   7.1026   7.6917
     7.9858   9.9923  10.8648  11.4302  12.1200  12.6103  13.0073  13.7006
    14.2060  14.4607

          k = 0.4375-0.1822 0.0000 (  6344 PWs)   bands (ev):

   -44.8607 -23.0770 -23.0276 -22.8127 -12.1860 -11.7608  -1.9853  -1.4594
    -1.0756  -0.2976   0.0799   0.7298   3.8686   6.8621   7.1496   7.5794
     7.6629   9.4418   9.7779  11.1868  11.7878  12.0472  12.9019  13.7079
    14.3092  14.6121

          k = 0.4375-0.1093 0.0000 (  6346 PWs)   bands (ev):

   -44.8616 -23.0487 -23.0303 -22.8299 -12.1982 -11.7789  -1.7906  -1.3259
    -1.1017  -0.4237   0.0987   0.5009   4.0439   6.4927   7.1682   7.5206
     7.7026   9.5656   9.9016  11.4984  11.9773  12.1301  13.0804  13.5693
    14.3768  14.6711

          k = 0.4375-0.0364 0.0000 (  6362 PWs)   bands (ev):

   -44.8621 -23.0329 -23.0245 -22.8472 -12.2048 -11.7886  -1.6187  -1.2064
    -1.1361  -0.5359   0.0500   0.3575   4.1964   6.1990   7.1638   7.5399
     7.7540   9.6117  10.0559  11.6825  12.1827  12.3694  13.1220  13.4710
    14.0350  14.5689

          k =-0.5000-0.2916 0.0000 (  6336 PWs)   bands (ev):

   -44.8583 -23.1112 -23.0201 -22.8106 -12.1541 -11.7107  -2.1898  -1.6306
    -1.0280  -0.2836   0.0607   0.8170   3.7855   7.0181   7.4255   7.6818
     7.8560   9.4083   9.7550  10.9797  11.6136  12.0569  12.5111  13.6765
    14.0151  14.2019

          k =-0.5000-0.2187 0.0000 (  6332 PWs)   bands (ev):

   -44.8583 -23.1031 -23.0201 -22.8191 -12.1539 -11.7109  -2.1320  -1.6056
    -1.0278  -0.3284   0.0621   0.6935   3.8652   7.0640   7.3527   7.6226
     7.7948   9.4768   9.8792  11.1247  11.7167  12.0564  12.4965  13.4766
    14.2102  14.3277

          k =-0.5000-0.1458 0.0000 (  6346 PWs)   bands (ev):

   -44.8583 -23.0815 -23.0201 -22.8420 -12.1535 -11.7115  -1.9740  -1.5363
    -1.0304  -0.4441   0.0579   0.4011   4.0629   6.9077   7.2620   7.5772
     7.7909   9.6705  10.0899  11.4897  11.8976  12.0697  12.5385  13.4016
    14.3170  14.6117

          k =-0.5000-0.0729 0.0000 (  6349 PWs)   bands (ev):

   -44.8583 -23.0547 -23.0201 -22.8701 -12.1531 -11.7120  -1.7744  -1.4469
    -1.0424  -0.5712  -0.0424   0.1816   4.2838   6.5438   7.1905   7.7081
     7.8322   9.9013  10.2303  11.7357  11.8756  12.2957  12.8935  13.5549
    14.3096  14.5682

          k =-0.5000 0.0000 0.0000 (  6355 PWs)   bands (ev):

   -44.8583 -23.0408 -23.0201 -22.8846 -12.1530 -11.7122  -1.6698  -1.3994
    -1.0544  -0.6280  -0.1658   0.1553   4.3892   6.3761   7.1480   7.7815
     7.8575  10.0163  10.2700  11.6545  11.9422  12.5413  13.2100  13.5876
    14.2163  14.3410

     highest occupied, lowest unoccupied level (ev):     4.7688    5.7352

!    total energy              =    -591.24405788 Ry
     total all-electron energy =    -13333.877334 Ry
     estimated scf accuracy    <          9.6E-12 Ry

     The total energy is the sum of the following terms:
     one-electron contribution =    -204.55997553 Ry
     hartree contribution      =     110.10595005 Ry
     xc contribution           =     -37.59485495 Ry
     ewald contribution        =     -28.07926339 Ry
     one-center paw contrib.   =    -431.11591406 Ry

     convergence has been achieved in   4 iterations

     Forces acting on atoms (cartesian axes, Ry/au):

     atom    1 type  1   force =     0.00000000    0.00013399    0.00000890
     atom    2 type  2   force =     0.00000000   -0.00007695   -0.00004526
     atom    3 type  3   force =     0.00000000   -0.00005705    0.00003636
     The non-local contrib.  to forces
     atom    1 type  1   force =     0.00000000   -0.00118007   -0.00064392
     atom    2 type  2   force =     0.00000000   -0.00100348   -0.21244494
     atom    3 type  3   force =     0.00000000   -0.00095501    0.20917827
     The ionic contribution  to forces
     atom    1 type  1   force =    -0.00000001   -0.06725116   -0.31224478
     atom    2 type  2   force =     0.00000000    0.03805055   20.99217140
     atom    3 type  3   force =     0.00000000    0.02920061  -20.67992662
     The local contribution  to forces
     atom    1 type  1   force =    -0.00000000    0.06851231    0.31255063
     atom    2 type  2   force =     0.00000003   -0.03711512  -20.78763557
     atom    3 type  3   force =    -0.00000000   -0.02826376   20.47444785
     The core correction contribution to forces
     atom    1 type  1   force =     0.00000000    0.00004944    0.00036779
     atom    2 type  2   force =    -0.00000000   -0.00001602    0.00787835
     atom    3 type  3   force =    -0.00000000   -0.00004450   -0.00364761
     The Hubbard contrib.    to forces
     atom    1 type  1   force =     0.00000000    0.00000000    0.00000000
     atom    2 type  2   force =     0.00000000    0.00000000    0.00000000
     atom    3 type  3   force =     0.00000000    0.00000000    0.00000000
     The SCF correction term to forces
     atom    1 type  1   force =    -0.00000000   -0.00000095   -0.00000422
     atom    2 type  2   force =    -0.00000000    0.00000270    0.00000213
     atom    3 type  3   force =    -0.00000000    0.00000118    0.00000109

     Total force =     0.000175     Total SCF correction =     0.000006
     Energy error            =      9.1E-08 Ry
     Gradient error          =      1.3E-04 Ry/Bohr

     number of scf cycles    =   7
     number of bfgs steps    =   6

     energy             old  =    -591.2440577922 Ry
     energy             new  =    -591.2440578831 Ry

     CASE: energy            _new < energy            _old

     new trust radius        =       0.0004311030 bohr
     new conv_thr            =            1.0E-10 Ry


ATOMIC_POSITIONS (angstrom)
Zr            0.0000000000       -0.0027207853       10.2767516076
Cl           -0.0000000017        2.0156128743       11.9583082072
Br           -0.0000000017        2.0159647557        8.4280889596



     Writing config-only to output data dir ./tmp/ZrClBr.save/
     NEW-OLD atomic charge density approx. for the potential

     Check: negative core charge=   -0.000004

     total cpu time spent up to now is       83.4 secs

     Self-consistent Calculation

     iteration #  1     ecut=    65.00 Ry     beta= 0.70
     Davidson diagonalization with overlap
     ethr =  1.00E-06,  avg # of iterations =  2.0

     Threshold (ethr) on eigenvalues was too large:
     Diagonalizing with lowered threshold

     Davidson diagonalization with overlap
     ethr =  9.15E-11,  avg # of iterations =  4.0

     total cpu time spent up to now is       87.0 secs

     total energy              =    -591.24405794 Ry
     estimated scf accuracy    <       0.00000001 Ry

     iteration #  2     ecut=    65.00 Ry     beta= 0.70
     Davidson diagonalization with overlap
     ethr =  5.66E-11,  avg # of iterations =  2.0

     total cpu time spent up to now is       88.6 secs

     total energy              =    -591.24405794 Ry
     estimated scf accuracy    <       0.00000003 Ry

     iteration #  3     ecut=    65.00 Ry     beta= 0.70
     Davidson diagonalization with overlap
     ethr =  5.66E-11,  avg # of iterations =  2.0

     total cpu time spent up to now is       90.1 secs

     total energy              =    -591.24405794 Ry
     estimated scf accuracy    <          1.8E-09 Ry

     iteration #  4     ecut=    65.00 Ry     beta= 0.70
     Davidson diagonalization with overlap
     ethr =  6.92E-12,  avg # of iterations =  1.0

     total cpu time spent up to now is       91.5 secs

     total energy              =    -591.24405794 Ry
     estimated scf accuracy    <          1.9E-10 Ry

     iteration #  5     ecut=    65.00 Ry     beta= 0.70
     Davidson diagonalization with overlap
     ethr =  7.22E-13,  avg # of iterations =  2.0

     total cpu time spent up to now is       93.0 secs

     End of self-consistent calculation

          k = 0.0000 0.0000 0.0000 (  6395 PWs)   bands (ev):

   -44.8902 -23.1211 -22.7404 -22.7271 -12.7234 -12.1605  -2.0824  -0.0120
     0.1742   0.2213   1.3427   1.4029   4.3063   5.9297   6.0340   6.6357
     6.6719   6.7773   8.3684   9.4217  11.3389  13.5269  13.6657  13.9373
    14.6235  15.1840

          k = 0.0000 0.0729 0.0000 (  6405 PWs)   bands (ev):

   -44.8889 -23.1172 -22.7437 -22.7423 -12.6978 -12.1490  -2.0379  -0.0813
     0.1613   0.1700   1.2441   1.3066   4.3100   5.9645   5.9658   6.6324
     6.6960   6.9587   8.4982   9.6570  11.4050  13.1861  13.6544  14.3224
    14.6535  14.8769

          k = 0.0000 0.1458 0.0000 (  6403 PWs)   bands (ev):

   -44.8853 -23.1061 -22.7852 -22.7530 -12.6253 -12.1147  -1.9128  -0.3143
     0.0587   0.1202   0.8534   1.2125   4.2951   5.8475   6.0764   6.5896
     6.8567   7.3976   8.8602  10.2140  11.6033  12.6153  14.0177  14.0739
    14.5341  14.9029

          k = 0.0000 0.2187 0.0000 (  6377 PWs)   bands (ev):

   -44.8798 -23.0893 -22.8487 -22.7670 -12.5192 -12.0580  -1.7329  -0.6766
    -0.1391   0.0475   0.4378   1.0919   4.2098   5.8419   6.2808   6.6255
     7.0692   7.9053   9.3708  10.7910  11.8436  12.2136  13.5704  14.3404
    14.5454  15.1792

          k = 0.0000 0.2916 0.0000 (  6369 PWs)   bands (ev):

   -44.8734 -23.0695 -22.9224 -22.7834 -12.4002 -11.9800  -1.5507  -1.0706
    -0.5246  -0.0521   0.2144   0.9741   4.0611   6.0271   6.5846   6.7372
     7.2813   8.3794   9.8129  11.1707  11.7879  12.0801  13.7535  14.0518
    15.0106  15.0481

          k = 0.0000 0.3645 0.0000 (  6355 PWs)   bands (ev):

   -44.8669 -23.0497 -22.9947 -22.7997 -12.2912 -11.8857  -1.5941  -1.2494
    -0.9560  -0.1619   0.1296   0.8751   3.9230   6.3604   6.8829   6.9712
     7.4566   8.8033   9.9526  11.2684  11.6923  12.0531  13.7414  14.3188
    14.6898  14.8445

          k = 0.0000 0.4373 0.0000 (  6338 PWs)   bands (ev):

   -44.8615 -23.0557 -23.0322 -22.8134 -12.2086 -11.7903  -1.8874  -1.3530
    -1.1108  -0.2598   0.0953   0.8012   3.8456   6.7337   7.0424   7.3840
     7.5823   9.1660   9.8670  11.1124  11.7326  12.0537  13.2673  14.2586
    14.2767  14.6358

          k = 0.0000 0.5102 0.0000 (  6344 PWs)   bands (ev):

   -44.8578 -23.0955 -23.0211 -22.8226 -12.1585 -11.7183  -2.1037  -1.5668
    -1.0482  -0.3264   0.0834   0.7553   3.8233   6.9470   7.2726   7.6309
     7.7488   9.4059   9.7643  10.9738  11.7253  12.0683  12.7407  13.7531
    14.1368  14.3852

          k = 0.0000-0.5831 0.0000 (  6346 PWs)   bands (ev):

   -44.8565 -23.1094 -23.0171 -22.8258 -12.1418 -11.6915  -2.1808  -1.6420
    -1.0253  -0.3500   0.0808   0.7398   3.8220   6.9928   7.4089   7.6595
     7.8806   9.4448   9.7747  10.9283  11.6516  12.1154  12.5505  13.5545
    14.0410  14.2466

          k = 0.0625 0.0364 0.0000 (  6409 PWs)   bands (ev):

   -44.8890 -23.1173 -22.7534 -22.7320 -12.6983 -12.1496  -2.0386  -0.0907
     0.1408   0.2019   1.1989   1.3571   4.3068   5.8844   6.0526   6.6094
     6.7239   6.9571   8.4929   9.6509  11.4037  13.1330  13.7555  14.2875
    14.6301  14.7967

          k = 0.0625 0.1093 0.0000 (  6413 PWs)   bands (ev):

   -44.8865 -23.1098 -22.7754 -22.7454 -12.6492 -12.1266  -1.9536  -0.2390
     0.0699   0.1623   0.9552   1.2616   4.3017   5.8409   6.0771   6.5870
     6.8178   7.2662   8.7392  10.0457  11.5387  12.7542  13.8801  14.2512
    14.5992  14.7707

          k = 0.0625 0.1822 0.0000 (  6385 PWs)   bands (ev):

   -44.8820 -23.0958 -22.8247 -22.7609 -12.5599 -12.0811  -1.7998  -0.5300
    -0.0684   0.0863   0.5702   1.1343   4.2565   5.7776   6.2401   6.6032
     6.9943   7.7339   9.1815  10.6047  11.8102  12.3219  13.6440  14.1331
    14.6420  15.1206

          k = 0.0625 0.2551 0.0000 (  6363 PWs)   bands (ev):

   -44.8760 -23.0775 -22.8908 -22.7786 -12.4474 -12.0135  -1.6117  -0.9038
    -0.3286  -0.0723   0.3018   0.9943   4.1469   5.8478   6.5202   6.7000
     7.1956   8.2184   9.6781  11.0575  11.9325  12.1593  13.4131  14.0666
    14.8598  15.1323

          k = 0.0625 0.3280 0.0000 (  6348 PWs)   bands (ev):

   -44.8696 -23.0577 -22.9617 -22.7970 -12.3339 -11.9263  -1.4883  -1.2292
    -0.7534  -0.1993   0.1923   0.8605   4.0161   6.0883   6.8154   6.9266
     7.3756   8.6713   9.9628  11.3029  11.8241  12.0920  13.7656  14.0063
    14.6411  14.9389

          k = 0.0625 0.4009 0.0000 (  6353 PWs)   bands (ev):

   -44.8636 -23.0398 -23.0258 -22.8139 -12.2395 -11.8293  -1.7213  -1.2377
    -1.1082  -0.2911   0.1318   0.7478   3.9264   6.4537   6.9775   7.3244
     7.5110   9.0888   9.9484  11.2841  11.7787  12.0888  13.5348  14.0524
    14.4437  14.7496

          k = 0.0625 0.4738 0.0000 (  6348 PWs)   bands (ev):

   -44.8591 -23.0754 -23.0249 -22.8267 -12.1747 -11.7432  -1.9807  -1.4701
    -1.0709  -0.3554   0.0967   0.6671   3.8954   6.8454   7.1238   7.5641
     7.6848   9.4448   9.8189  11.1501  11.7993  12.0709  12.9441  13.6904
    14.3376  14.6190

          k = 0.0625 0.5467 0.0000 (  6338 PWs)   bands (ev):

   -44.8566 -23.1016 -23.0172 -22.8336 -12.1421 -11.6924  -2.1252  -1.6181
    -1.0249  -0.3893   0.0812   0.6252   3.8961   7.0406   7.3314   7.6028
     7.8242   9.5176   9.8919  11.0715  11.7442  12.1070  12.5195  13.4259
    14.2311  14.3360

          k = 0.1250 0.0729 0.0000 (  6403 PWs)   bands (ev):

   -44.8855 -23.1064 -22.7943 -22.7418 -12.6272 -12.1169  -1.9152  -0.3342
     0.0459   0.1595   0.8199   1.2652   4.2824   5.7948   6.1517   6.5797
     6.8793   7.3935   8.8432  10.1986  11.5970  12.5883  14.0178  14.1071
    14.5174  14.8508

          k = 0.1250 0.1458 0.0000 (  6383 PWs)   bands (ev):

   -44.8821 -23.0961 -22.8289 -22.7551 -12.5613 -12.0828  -1.8015  -0.5419
    -0.0709   0.1034   0.5565   1.1649   4.2455   5.7669   6.2671   6.5965
     7.0078   7.7318   9.1709  10.5973  11.8035  12.3092  13.6226  14.1404
    14.6654  15.0917

          k = 0.1250 0.2187 0.0000 (  6380 PWs)   bands (ev):

   -44.8771 -23.0806 -22.8802 -22.7749 -12.4655 -12.0263  -1.6356  -0.8346
    -0.2539  -0.0960   0.3391   1.0069   4.1835   5.7533   6.5382   6.6896
     7.1689   8.1685   9.6180  11.0104  12.0654  12.1975  13.1782  13.9811
    14.8560  15.0304

          k = 0.1250 0.2916 0.0000 (  6376 PWs)   bands (ev):

   -44.8712 -23.0623 -22.9399 -22.7983 -12.3589 -11.9485  -1.4600  -1.1583
    -0.5848  -0.3017   0.2366   0.8199   4.1096   5.8568   6.8205   6.9487
     7.3261   8.6278   9.9772  11.3015  12.0186  12.3676  13.1904  13.7964
    14.5603  14.9213

          k = 0.1250 0.3645 0.0000 (  6363 PWs)   bands (ev):

   -44.8652 -23.0440 -22.9987 -22.8215 -12.2619 -11.8556  -1.5368  -1.2383
    -0.9839  -0.4055   0.1639   0.6315   4.0586   6.1095   6.9982   7.3413
     7.4799   9.0907  10.0559  11.4597  12.0410  12.2115  13.5688  13.7400
    14.0086  14.7654

          k = 0.1250 0.4373 0.0000 (  6347 PWs)   bands (ev):

   -44.8601 -23.0484 -23.0278 -22.8411 -12.1882 -11.7634  -1.7954  -1.3411
    -1.0973  -0.4631   0.1068   0.4693   4.0540   6.4837   7.1414   7.5022
     7.7373   9.5706   9.9309  11.4683  11.9655  12.1324  13.0709  13.6085
    14.4011  14.6804

          k = 0.1250 0.5102 0.0000 (  6339 PWs)   bands (ev):

   -44.8567 -23.0808 -23.0176 -22.8541 -12.1431 -11.6949  -1.9738  -1.5521
    -1.0272  -0.4899   0.0707   0.3588   4.0796   6.8972   7.2451   7.5445
     7.8316   9.7088  10.1003  11.4325  11.8898  12.0976  12.5418  13.4108
    14.3522  14.6016

          k = 0.1250 0.5831 0.0000 (  6346 PWs)   bands (ev):

   -44.8555 -23.0921 -23.0139 -22.8587 -12.1279 -11.6696  -2.0369  -1.6256
    -1.0037  -0.4971   0.0585   0.3195   4.0951   7.1047   7.3294   7.5443
     7.7683   9.6158  10.3730  11.4239  11.8638  12.1590  12.1838  13.3447
    14.3098  14.4573

          k = 0.1250 0.0000 0.0000 (  6385 PWs)   bands (ev):

   -44.8867 -23.1101 -22.7821 -22.7371 -12.6507 -12.1283  -1.9554  -0.2523
     0.0666   0.1838   0.9341   1.2951   4.2946   5.7925   6.1408   6.5903
     6.8259   7.2630   8.7256  10.0331  11.5360  12.7297  13.9704  14.2072
    14.5511  14.7512

          k = 0.1875 0.1093 0.0000 (  6387 PWs)   bands (ev):

   -44.8803 -23.0901 -22.8560 -22.7552 -12.5233 -12.0629  -1.7374  -0.6959
    -0.1537   0.0910   0.4191   1.1505   4.1854   5.8149   6.3446   6.6255
     7.0878   7.9013   9.3435  10.7751  11.8310  12.1924  13.5342  14.3108
    14.6254  15.1161

          k = 0.1875 0.1822 0.0000 (  6368 PWs)   bands (ev):

   -44.8764 -23.0783 -22.8960 -22.7694 -12.4508 -12.0180  -1.6152  -0.9196
    -0.3443  -0.0421   0.2985   1.0436   4.1234   5.8462   6.5517   6.6957
     7.2131   8.2164   9.6602  11.0479  11.9230  12.1377  13.3891  14.0374
    14.8921  15.1105

          k = 0.1875 0.2551 0.0000 (  6366 PWs)   bands (ev):

   -44.8714 -23.0627 -22.9424 -22.7934 -12.3609 -11.9513  -1.4617  -1.1666
    -0.5952  -0.2860   0.2399   0.8450   4.0962   5.8608   6.8217   6.9576
     7.3335   8.6278   9.9701  11.2959  12.0094  12.3761  13.1690  13.7732
    14.5745  14.9057

          k = 0.1875 0.3280 0.0000 (  6363 PWs)   bands (ev):

   -44.8659 -23.0459 -22.9880 -22.8234 -12.2715 -11.8668  -1.4390  -1.2705
    -0.9084  -0.4633   0.1593   0.5980   4.1181   5.9647   7.0137   7.3406
     7.4959   9.0966  10.1090  11.5036  12.2371  12.4485  13.2652  13.5719
    13.7175  14.8362

          k = 0.1875 0.4009 0.0000 (  6362 PWs)   bands (ev):

   -44.8609 -23.0315 -23.0258 -22.8537 -12.1968 -11.7761  -1.6370  -1.2282
    -1.1335  -0.5563   0.0530   0.3626   4.1874   6.1984   7.1424   7.5236
     7.7963   9.6251  10.0675  11.6574  12.1818  12.3363  13.0881  13.4858
    14.0397  14.5978

          k = 0.1875 0.4738 0.0000 (  6346 PWs)   bands (ev):

   -44.8570 -23.0555 -23.0180 -22.8782 -12.1447 -11.6985  -1.7859  -1.4682
    -1.0388  -0.5982  -0.0507   0.1870   4.2815   6.5417   7.1844   7.6689
     7.8848   9.9290  10.2450  11.7092  11.8365  12.2910  12.8549  13.5879
    14.3321  14.5701

          k = 0.1875 0.5467 0.0000 (  6344 PWs)   bands (ev):

   -44.8549 -23.0702 -23.0116 -22.8920 -12.1180 -11.6537  -1.8638  -1.5992
    -0.9909  -0.6121  -0.1145   0.0950   4.3516   6.8880   7.1970   7.7190
     7.7645   9.8030  10.8160  11.5996  11.8685  12.2790  12.4278  13.5152
    14.3837  14.5265

          k = 0.1875-0.0364 0.0000 (  6391 PWs)   bands (ev):

   -44.8824 -23.0965 -22.8315 -22.7502 -12.5635 -12.0853  -1.8041  -0.5447
    -0.0700   0.1124   0.5584   1.1747   4.2407   5.7415   6.3058   6.6222
     6.9958   7.7297   9.1534  10.5870  11.8034  12.3143  13.6135  14.1883
    14.6341  15.0777

          k = 0.2500 0.1458 0.0000 (  6374 PWs)   bands (ev):

   -44.8741 -23.0708 -22.9280 -22.7706 -12.4066 -11.9884  -1.5567  -1.0858
    -0.5398  -0.0026   0.2043   1.0386   4.0303   6.0165   6.6333   6.7447
     7.2982   8.3770   9.7857  11.1563  11.7791  12.0600  13.7184  14.0035
    14.9656  15.0911

          k = 0.2500 0.2187 0.0000 (  6361 PWs)   bands (ev):

   -44.8703 -23.0589 -22.9665 -22.7856 -12.3397 -11.9344  -1.4951  -1.2424
    -0.7681  -0.1628   0.1940   0.9220   3.9852   6.0911   6.8245   6.9496
     7.3924   8.6714   9.9439  11.2873  11.8229  12.0797  13.7157  13.9522
    14.6335  14.9420

          k = 0.2500 0.2916 0.0000 (  6352 PWs)   bands (ev):

   -44.8657 -23.0449 -23.0021 -22.8129 -12.2663 -11.8620  -1.5470  -1.2426
    -0.9930  -0.3809   0.1687   0.6737   4.0360   6.1137   7.0060   7.3543
     7.4894   9.0927  10.0420  11.4489  12.0554  12.2151  13.5257  13.7596
    13.9587  14.7254

          k = 0.2500 0.3645 0.0000 (  6351 PWs)   bands (ev):

   -44.8611 -23.0323 -23.0273 -22.8492 -12.1992 -11.7797  -1.6431  -1.2292
    -1.1358  -0.5445   0.0592   0.3778   4.1766   6.1985   7.1496   7.5261
     7.8027   9.6255  10.0592  11.6535  12.1867  12.3618  13.1266  13.4314
    13.9999  14.5666

          k = 0.2500 0.4373 0.0000 (  6351 PWs)   bands (ev):

   -44.8573 -23.0439 -23.0185 -22.8877 -12.1469 -11.7024  -1.6928  -1.4237
    -1.0508  -0.6403  -0.1597   0.1716   4.3717   6.3767   7.1472   7.7532
     7.9131  10.0248  10.2928  11.6492  11.9050  12.5309  13.1434  13.6028
    14.2248  14.3395

          k = 0.2500 0.5102 0.0000 (  6340 PWs)   bands (ev):

   -44.8547 -23.0479 -23.0106 -22.9192 -12.1139 -11.6471  -1.7034  -1.5515
    -0.9895  -0.7062  -0.3650   0.0648   4.5535   6.6243   7.1031   7.7387
     7.9497  10.0159  10.8594  11.4496  12.0733  12.6029  12.9686  13.6926
    14.2221  14.4730

          k = 0.2500 0.5831 0.0000 (  6346 PWs)   bands (ev):

   -44.8538 -23.0476 -23.0078 -22.9320 -12.1026 -11.6270  -1.7093  -1.5843
    -0.9681  -0.7424  -0.4347   0.0284   4.6301   6.7873   7.0820   7.5718
     8.0219  10.0005  10.9393  11.7540  12.1848  12.6021  12.6263  13.5621
    14.4807  14.4976

          k = 0.2500-0.0729 0.0000 (  6385 PWs)   bands (ev):

   -44.8767 -23.0788 -22.8958 -22.7669 -12.4534 -12.0211  -1.6180  -0.9134
    -0.3382  -0.0361   0.3001   1.0389   4.1258   5.8322   6.5684   6.7275
     7.1956   8.2149   9.6448  11.0442  11.9335  12.1483  13.3982  14.0620
    14.8724  15.1005

          k = 0.2500 0.0000 0.0000 (  6375 PWs)   bands (ev):

   -44.8776 -23.0816 -22.8825 -22.7676 -12.4701 -12.0320  -1.6407  -0.8332
    -0.2526  -0.0784   0.3437   1.0189   4.1771   5.7355   6.5736   6.7345
     7.1479   8.1655   9.5883  11.0003  12.0838  12.2024  13.1767  14.0043
    14.8379  15.0145

          k = 0.3125 0.1822 0.0000 (  6360 PWs)   bands (ev):

   -44.8680 -23.0515 -22.9988 -22.7859 -12.2998 -11.8981  -1.6036  -1.2575
    -0.9638  -0.1062   0.1179   0.9447   3.8904   6.3588   6.8961   7.0008
     7.4740   8.8040   9.9261  11.2580  11.6943  12.0368  13.6710  14.2646
    14.6152  14.9316

          k = 0.3125 0.2551 0.0000 (  6349 PWs)   bands (ev):

   -44.8646 -23.0415 -23.0297 -22.8007 -12.2476 -11.8413  -1.7340  -1.2414
    -1.1164  -0.2469   0.1295   0.8167   3.8926   6.4540   6.9907   7.3475
     7.5258   9.0928   9.9203  11.2840  11.7823  12.0764  13.4656  14.0631
    14.4194  14.7032

          k = 0.3125 0.3280 0.0000 (  6340 PWs)   bands (ev):

   -44.8609 -23.0517 -23.0294 -22.8300 -12.1949 -11.7737  -1.8076  -1.3419
    -1.1016  -0.4299   0.1073   0.5212   4.0270   6.4809   7.1599   7.5096
     7.7535   9.5765   9.9034  11.4782  11.9755  12.1327  13.0827  13.5704
    14.3564  14.6207

          k = 0.3125 0.4009 0.0000 (  6346 PWs)   bands (ev):

   -44.8575 -23.0580 -23.0191 -22.8704 -12.1494 -11.7059  -1.7945  -1.4656
    -1.0408  -0.5768  -0.0350   0.2014   4.2655   6.5336   7.1945   7.6806
     7.8959   9.8995  10.2562  11.7190  11.8563  12.3154  12.8492  13.5607
    14.2924  14.5319

          k = 0.3125 0.4738 0.0000 (  6344 PWs)   bands (ev):

   -44.8550 -23.0493 -23.0111 -22.9152 -12.1163 -11.6508  -1.7056  -1.5494
    -0.9905  -0.6965  -0.3520   0.0625   4.5488   6.6157   7.1052   7.7426
     7.9610   9.9965  10.8751  11.4587  12.0767  12.6211  12.9352  13.7230
    14.2081  14.4641

          k = 0.3125 0.5467 0.0000 (  6350 PWs)   bands (ev):

   -44.8536 -23.0318 -23.0068 -22.9522 -12.0989 -11.6200  -1.6734  -1.4877
    -0.9596  -0.8668  -0.5331   0.0047   4.7631   6.6921   7.0354   7.5159
     8.1454  10.1519  10.7163  12.0613  12.2808  12.8087  12.9525  13.2662
    14.3778  14.5944

          k = 0.3125-0.1093 0.0000 (  6360 PWs)   bands (ev):

   -44.8706 -23.0594 -22.9650 -22.7845 -12.3422 -11.9378  -1.4938  -1.2360
    -0.7569  -0.1570   0.1887   0.9103   3.9937   6.0873   6.8446   6.9495
     7.3808   8.6691   9.9362  11.2926  11.8289  12.0862  13.7372  13.9837
    14.5858  14.9445

          k = 0.3125-0.0364 0.0000 (  6369 PWs)   bands (ev):

   -44.8720 -23.0638 -22.9411 -22.7895 -12.3659 -11.9579  -1.4660  -1.1531
    -0.5782  -0.2770   0.2380   0.8355   4.1037   5.8515   6.8671   6.9653
     7.3095   8.6235   9.9504  11.2971  12.0379  12.3868  13.1916  13.8064
    14.5001  14.8912

          k = 0.3750 0.2187 0.0000 (  6344 PWs)   bands (ev):

   -44.8627 -23.0584 -23.0346 -22.7987 -12.2192 -11.8063  -1.8972  -1.3501
    -1.1172  -0.1987   0.0798   0.8747   3.8117   6.7415   7.0583   7.3919
     7.6006   9.1701   9.8277  11.1314  11.7201  12.0353  13.1963  14.2081
    14.3594  14.5757

          k = 0.3750 0.2916 0.0000 (  6345 PWs)   bands (ev):

   -44.8603 -23.0782 -23.0271 -22.8124 -12.1848 -11.7587  -1.9926  -1.4661
    -1.0755  -0.3031   0.0870   0.7392   3.8607   6.8474   7.1376   7.5813
     7.6982   9.4518   9.7761  11.1826  11.7817  12.0452  12.8960  13.7464
    14.2920  14.5731

          k = 0.3750 0.3645 0.0000 (  6342 PWs)   bands (ev):

   -44.8578 -23.0833 -23.0195 -22.8417 -12.1519 -11.7086  -1.9842  -1.5455
    -1.0300  -0.4484   0.0632   0.4138   4.0525   6.8873   7.2623   7.5599
     7.8464   9.6770  10.1004  11.4772  11.8859  12.0762  12.5234  13.4191
    14.3079  14.5794

          k = 0.3750 0.4373 0.0000 (  6349 PWs)   bands (ev):

   -44.8557 -23.0722 -23.0131 -22.8825 -12.1249 -11.6644  -1.8694  -1.5899
    -0.9928  -0.5839  -0.0897   0.0966   4.3373   6.8708   7.2010   7.7320
     7.7867   9.7684  10.8271  11.6276  11.9134  12.2677  12.3843  13.5277
    14.3490  14.5303

          k = 0.3750 0.5102 0.0000 (  6345 PWs)   bands (ev):

   -44.8543 -23.0486 -23.0088 -22.9261 -12.1071 -11.6341  -1.7048  -1.5771
    -0.9699  -0.7288  -0.4174   0.0192   4.6298   6.7733   7.0820   7.5625
     8.0479   9.9713  10.9742  11.7383  12.2035  12.5909  12.6196  13.6251
    14.4605  14.5051

          k = 0.3750 0.5831 0.0000 (  6344 PWs)   bands (ev):

   -44.8538 -23.0313 -23.0073 -22.9505 -12.1010 -11.6233  -1.6669  -1.4789
    -0.9619  -0.8658  -0.5292  -0.0010   4.7689   6.6885   7.0347   7.4983
     8.1596  10.1375  10.7349  12.0083  12.3013  12.8229  12.9900  13.2827
    14.3325  14.6209

          k = 0.3750-0.1458 0.0000 (  6367 PWs)   bands (ev):

   -44.8648 -23.0419 -23.0279 -22.8005 -12.2497 -11.8444  -1.7250  -1.2381
    -1.1100  -0.2407   0.1213   0.8038   3.9031   6.4625   7.0048   7.3211
     7.5237   9.0896   9.9181  11.2925  11.7827  12.0790  13.4779  14.0207
    14.4269  14.7542

          k = 0.3750-0.0729 0.0000 (  6364 PWs)   bands (ev):

   -44.8662 -23.0459 -22.9990 -22.8114 -12.2709 -11.8686  -1.5307  -1.2433
    -0.9718  -0.3746   0.1609   0.6537   4.0525   6.1132   7.0399   7.3318
     7.4748   9.0858  10.0363  11.4642  12.0644  12.2216  13.5624  13.7081
    14.0100  14.7293

          k = 0.3750 0.0000 0.0000 (  6373 PWs)   bands (ev):

   -44.8667 -23.0474 -22.9858 -22.8182 -12.2784 -11.8768  -1.4217  -1.2747
    -0.8848  -0.4503   0.1545   0.5892   4.1290   5.9616   7.0627   7.3197
     7.4810   9.0883  10.0969  11.5135  12.2610  12.4805  13.2756  13.5624
    13.7093  14.8085

          k = 0.4375 0.2551 0.0000 (  6336 PWs)   bands (ev):

   -44.8592 -23.0973 -23.0237 -22.8073 -12.1705 -11.7367  -2.1130  -1.5578
    -1.0522  -0.2618   0.0647   0.8315   3.7878   6.9685   7.2867   7.6503
     7.7365   9.3963   9.7250  11.0167  11.6971  12.0252  12.6902  13.8663
    14.0952  14.3367

          k = 0.4375 0.3280 0.0000 (  6344 PWs)   bands (ev):

   -44.8579 -23.1035 -23.0198 -22.8188 -12.1537 -11.7102  -2.1348  -1.6080
    -1.0280  -0.3309   0.0650   0.6968   3.8624   7.0625   7.3336   7.6219
     7.8211   9.4861   9.8761  11.1238  11.7100  12.0552  12.4951  13.4911
    14.2042  14.3147

          k = 0.4375 0.4009 0.0000 (  6343 PWs)   bands (ev):

   -44.8568 -23.0936 -23.0161 -22.8459 -12.1382 -11.6855  -2.0429  -1.6129
    -1.0062  -0.4506   0.0453   0.3708   4.0721   7.1096   7.3333   7.5722
     7.7608   9.5755  10.3704  11.4885  11.8484  12.1252  12.1734  13.3541
    14.2679  14.4753

          k = 0.4375 0.4738 0.0000 (  6347 PWs)   bands (ev):

   -44.8558 -23.0707 -23.0134 -22.8825 -12.1263 -11.6666  -1.8617  -1.5834
    -0.9933  -0.5821  -0.0917   0.0879   4.3447   6.8841   7.1996   7.6987
     7.7946   9.7686  10.8081  11.6214  11.9390  12.2533  12.4174  13.5167
    14.3535  14.5458

          k = 0.4375 0.5467 0.0000 (  6341 PWs)   bands (ev):

   -44.8554 -23.0466 -23.0119 -22.9142 -12.1198 -11.6563  -1.6896  -1.5337
    -0.9923  -0.6931  -0.3572   0.0510   4.5631   6.6201   7.1032   7.6922
     7.9856   9.9926  10.8647  11.4304  12.1196  12.6107  13.0074  13.7005
    14.2065  14.4612

          k = 0.4375-0.1822 0.0000 (  6344 PWs)   bands (ev):

   -44.8604 -23.0767 -23.0274 -22.8125 -12.1862 -11.7609  -1.9855  -1.4596
    -1.0759  -0.2980   0.0800   0.7296   3.8690   6.8622   7.1499   7.5796
     7.6632   9.4421   9.7779  11.1870  11.7878  12.0471  12.9020  13.7086
    14.3091  14.6123

          k = 0.4375-0.1093 0.0000 (  6346 PWs)   bands (ev):

   -44.8613 -23.0484 -23.0300 -22.8297 -12.1984 -11.7790  -1.7908  -1.3261
    -1.1021  -0.4239   0.0987   0.5006   4.0443   6.4930   7.1689   7.5202
     7.7029   9.5656   9.9019  11.4986  11.9772  12.1299  13.0808  13.5695
    14.3767  14.6712

          k = 0.4375-0.0364 0.0000 (  6362 PWs)   bands (ev):

   -44.8618 -23.0326 -23.0243 -22.8470 -12.2051 -11.7886  -1.6189  -1.2068
    -1.1364  -0.5360   0.0499   0.3574   4.1967   6.1993   7.1646   7.5395
     7.7544   9.6117  10.0564  11.6822  12.1822  12.3697  13.1221  13.4714
    14.0355  14.5692

          k =-0.5000-0.2916 0.0000 (  6336 PWs)   bands (ev):

   -44.8580 -23.1109 -23.0198 -22.8103 -12.1543 -11.7108  -2.1899  -1.6308
    -1.0283  -0.2841   0.0610   0.8168   3.7859   7.0181   7.4257   7.6823
     7.8562   9.4083   9.7554  10.9798  11.6137  12.0569  12.5113  13.6767
    14.0159  14.2017

          k =-0.5000-0.2187 0.0000 (  6332 PWs)   bands (ev):

   -44.8580 -23.1029 -23.0199 -22.8189 -12.1542 -11.7110  -2.1322  -1.6058
    -1.0282  -0.3289   0.0623   0.6933   3.8655   7.0641   7.3528   7.6229
     7.7952   9.4769   9.8794  11.1248  11.7169  12.0564  12.4964  13.4771
    14.2102  14.3280

          k =-0.5000-0.1458 0.0000 (  6346 PWs)   bands (ev):

   -44.8580 -23.0813 -23.0199 -22.8418 -12.1538 -11.7115  -1.9741  -1.5365
    -1.0308  -0.4444   0.0580   0.4009   4.0632   6.9079   7.2626   7.5770
     7.7914   9.6706  10.0900  11.4900  11.8978  12.0696  12.5385  13.4021
    14.3169  14.6121

          k =-0.5000-0.0729 0.0000 (  6349 PWs)   bands (ev):

   -44.8580 -23.0544 -23.0199 -22.8699 -12.1534 -11.7121  -1.7746  -1.4473
    -1.0427  -0.5714  -0.0425   0.1816   4.2840   6.5440   7.1913   7.7077
     7.8327   9.9015  10.2303  11.7355  11.8755  12.2959  12.8936  13.5552
    14.3099  14.5683

          k =-0.5000 0.0000 0.0000 (  6355 PWs)   bands (ev):

   -44.8580 -23.0405 -23.0199 -22.8844 -12.1532 -11.7123  -1.6700  -1.3998
    -1.0546  -0.6281  -0.1659   0.1553   4.3894   6.3765   7.1487   7.7813
     7.8577  10.0166  10.2699  11.6543  11.9418  12.5419  13.2097  13.5880
    14.2167  14.3415

     highest occupied, lowest unoccupied level (ev):     4.7689    5.7355

!    total energy              =    -591.24405794 Ry
     total all-electron energy =    -13333.877334 Ry
     estimated scf accuracy    <          6.2E-11 Ry

     The total energy is the sum of the following terms:
     one-electron contribution =    -204.57766384 Ry
     hartree contribution      =     110.11485474 Ry
     xc contribution           =     -37.59496410 Ry
     ewald contribution        =     -28.07036476 Ry
     one-center paw contrib.   =    -431.11591998 Ry

     convergence has been achieved in   5 iterations

     Forces acting on atoms (cartesian axes, Ry/au):

     atom    1 type  1   force =     0.00000000    0.00001855   -0.00000231
     atom    2 type  2   force =     0.00000000   -0.00001619   -0.00000488
     atom    3 type  3   force =     0.00000000   -0.00000236    0.00000719
     The non-local contrib.  to forces
     atom    1 type  1   force =     0.00000000   -0.00122356   -0.00063523
     atom    2 type  2   force =     0.00000000   -0.00097758   -0.21241946
     atom    3 type  3   force =     0.00000000   -0.00092939    0.20916607
     The ionic contribution  to forces
     atom    1 type  1   force =    -0.00000001   -0.06852665   -0.31222285
     atom    2 type  2   force =     0.00000000    0.03881383   20.99312824
     atom    3 type  3   force =     0.00000000    0.02971282  -20.68090539
     The local contribution  to forces
     atom    1 type  1   force =    -0.00000000    0.06971636    0.31254200
     atom    2 type  2   force =     0.00000003   -0.03784155  -20.78856448
     atom    3 type  3   force =    -0.00000000   -0.02874279   20.47541510
     The core correction contribution to forces
     atom    1 type  1   force =     0.00000000    0.00004858    0.00036751
     atom    2 type  2   force =    -0.00000000   -0.00001800    0.00787397
     atom    3 type  3   force =    -0.00000000   -0.00004827   -0.00364568
     The Hubbard contrib.    to forces
     atom    1 type  1   force =     0.00000000    0.00000000    0.00000000
     atom    2 type  2   force =     0.00000000    0.00000000    0.00000000
     atom    3 type  3   force =     0.00000000    0.00000000    0.00000000
     The SCF correction term to forces
     atom    1 type  1   force =    -0.00000000   -0.00000034   -0.00003543
     atom    2 type  2   force =    -0.00000000    0.00000297   -0.00000484
     atom    3 type  3   force =     0.00000000    0.00000112   -0.00000460

     Total force =     0.000026     Total SCF correction =     0.000036
     SCF correction compared to forces is large: reduce conv_thr to get better values
     Energy error            =      6.0E-08 Ry
     Gradient error          =      1.9E-05 Ry/Bohr

     bfgs converged in   8 scf cycles and   7 bfgs steps
     (criteria: energy <  1.0E-05 Ry, force <  1.0E-04 Ry/Bohr)

     End of BFGS Geometry Optimization

     Final energy             =    -591.2440579436 Ry

     File ./tmp/ZrClBr.bfgs deleted, as requested
Begin final coordinates

ATOMIC_POSITIONS (angstrom)
Zr            0.0000000000       -0.0027207853       10.2767516076
Cl           -0.0000000017        2.0156128743       11.9583082072
Br           -0.0000000017        2.0159647557        8.4280889596
End final coordinates



     Writing all to output data dir ./tmp/ZrClBr.save/

     init_run     :      0.85s CPU      0.88s WALL (       1 calls)
     electrons    :     86.38s CPU     88.14s WALL (       8 calls)
     update_pot   :      0.88s CPU      0.93s WALL (       7 calls)
     forces       :      1.96s CPU      1.98s WALL (       8 calls)

     Called by init_run:
     wfcinit      :      0.60s CPU      0.61s WALL (       1 calls)
     potinit      :      0.13s CPU      0.14s WALL (       1 calls)
     hinit0       :      0.09s CPU      0.09s WALL (       1 calls)

     Called by electrons:
     c_bands      :     73.38s CPU     74.51s WALL (      52 calls)
     sum_band     :     10.53s CPU     10.76s WALL (      52 calls)
     v_of_rho     :      0.18s CPU      0.18s WALL (      52 calls)
     newd         :      0.51s CPU      0.54s WALL (      52 calls)
     PAW_pot      :      2.49s CPU      2.97s WALL (      59 calls)
     mix_rho      :      0.01s CPU      0.01s WALL (      52 calls)

     Called by c_bands:
     init_us_2    :      0.58s CPU      0.59s WALL (    8760 calls)
     init_us_2:cp :      0.57s CPU      0.58s WALL (    8760 calls)
     cegterg      :     71.88s CPU     72.99s WALL (    3796 calls)

     Called by *egterg:
     cdiaghg      :     10.15s CPU     10.22s WALL (   12133 calls)
     h_psi        :     43.12s CPU     44.05s WALL (   13301 calls)
     s_psi        :      2.67s CPU      2.69s WALL (   13301 calls)
     g_psi        :      0.10s CPU      0.10s WALL (    9432 calls)

     Called by h_psi:
     h_psi:calbec :      4.71s CPU      4.81s WALL (   13301 calls)
     vloc_psi     :     35.65s CPU     36.45s WALL (   13301 calls)
     add_vuspsi   :      2.66s CPU      2.70s WALL (   13301 calls)

     General routines
     calbec       :      8.11s CPU      8.26s WALL (   19944 calls)
     fft          :      0.13s CPU      0.13s WALL (     675 calls)
     ffts         :      0.01s CPU      0.01s WALL (      52 calls)
     fftw         :     40.66s CPU     41.56s WALL (  559314 calls)

     Parallel routines

     PWSCF        :   1m31.54s CPU   1m33.72s WALL


   This run was terminated on:   8:30:42  18Sep2026            

=------------------------------------------------------------------------------=
   JOB DONE.
=------------------------------------------------------------------------------=
Note: The following floating-point exceptions are signalling: IEEE_INVALID_FLAG
