
     Program PWSCF v.7.2 starts on 18Aug2026 at  7:52:17 

     This program is part of the open-source Quantum ESPRESSO suite
     for quantum simulation of materials; please cite
         "P. Giannozzi et al., J. Phys.:Condens. Matter 21 395502 (2009);
         "P. Giannozzi et al., J. Phys.:Condens. Matter 29 465901 (2017);
         "P. Giannozzi et al., J. Chem. Phys. 152 154105 (2020);
          URL http://www.quantum-espresso.org", 
     in publications or presentations arising from this work. More details at
     http://www.quantum-espresso.org/quote

     Parallel version (MPI), running on    32 processors

     MPI processes distributed on     1 nodes
     228676 MiB available memory on the printing compute node when the environment starts

     Waiting for input...
     Reading input from standard input

     Current dimensions of program PWSCF are:
     Max number of different atomic species (ntypx) = 10
     Max number of k-points (npk) =  40000
     Max angular momentum in pseudopotentials (lmaxx) =  4
     file Zr.pbe-spn-kjpaw_psl.1.0.0.UPF: wavefunction(s)  4S 4P renormalized
     file Cl.pbe-n-kjpaw_psl.1.0.0.UPF: wavefunction(s)  3S 3P renormalized
     file Br.pbe-n-kjpaw_psl.1.0.0.UPF: wavefunction(s)  4S 4P renormalized
     Message from routine setup:
     using ibrav=0 with symmetry is DISCOURAGED, use correct ibrav instead

     R & G space division:  proc/nbgrp/npool/nimage =      32
     Subspace diagonalization in iterative solution of the eigenvalue problem:
     a serial algorithm will be used


     Parallelization info
     --------------------
     sticks:   dense  smooth     PW     G-vecs:    dense   smooth      PW
     Min          24      24      6                 1566     1566     234
     Max          25      25      7                 1579     1579     251
     Sum         769     769    223                50293    50293    7761

     Using Slab Decomposition



     bravais-lattice index     =            0
     lattice parameter (alat)  =       6.5934  a.u.
     unit-cell volume          =     711.4628 (a.u.)^3
     number of atoms/cell      =            3
     number of atomic types    =            3
     number of electrons       =        26.00
     number of Kohn-Sham states=           26
     kinetic-energy cutoff     =      65.0000  Ry
     charge density cutoff     =     260.0000  Ry
     scf convergence threshold =      1.0E-06
     mixing beta               =       0.7000
     number of iterations used =            8  plain     mixing
     Exchange-correlation= SLA  PW   PBX  PBC
                           (   1   4   3   4   0   0   0)

     celldm(1)=   6.593429  celldm(2)=   0.000000  celldm(3)=   0.000000
     celldm(4)=   0.000000  celldm(5)=   0.000000  celldm(6)=   0.000000

     crystal axes: (cart. coord. in units of alat)
               a(1) = (   1.000000  -0.000000   0.000000 )  
               a(2) = (  -0.500000   0.866025  -0.000000 )  
               a(3) = (   0.000000   0.000000   2.866075 )  

     reciprocal axes: (cart. coord. in units 2 pi/alat)
               b(1) = (  1.000000  0.577350 -0.000000 )  
               b(2) = (  0.000000  1.154701 -0.000000 )  
               b(3) = (  0.000000  0.000000  0.348909 )  


     PseudoPot. # 1 for Zr read from file:
     /mgpfs/home/rabdillah/repo/qe/pseudo/Zr.pbe-spn-kjpaw_psl.1.0.0.UPF
     MD5 check sum: 02112c41713a0468aff2bb39ef194e36
     Pseudo is Projector augmented-wave + core cor, Zval = 12.0
     Generated using &quot;atomic&quot; code by A. Dal Corso  v.6.2.2
     Shape of augmentation charge: PSQ
     Using radial grid of 1225 points,  6 beta functions with: 
                l(1) =   0
                l(2) =   0
                l(3) =   1
                l(4) =   1
                l(5) =   2
                l(6) =   2
     Q(r) pseudized with 0 coefficients 


     PseudoPot. # 2 for Cl read from file:
     /mgpfs/home/rabdillah/repo/qe/pseudo/Cl.pbe-n-kjpaw_psl.1.0.0.UPF
     MD5 check sum: 530da96d25dcb7781b0586ca00827062
     Pseudo is Projector augmented-wave + core cor, Zval =  7.0
     Generated using &quot;atomic&quot; code by A. Dal Corso  v.6.3
     Shape of augmentation charge: PSQ
     Using radial grid of 1157 points,  6 beta functions with: 
                l(1) =   0
                l(2) =   0
                l(3) =   1
                l(4) =   1
                l(5) =   2
                l(6) =   2
     Q(r) pseudized with 0 coefficients 


     PseudoPot. # 3 for Br read from file:
     /mgpfs/home/rabdillah/repo/qe/pseudo/Br.pbe-n-kjpaw_psl.1.0.0.UPF
     MD5 check sum: b00de77caabc69c0a6b76eb37264f235
     Pseudo is Projector augmented-wave + core cor, Zval =  7.0
     Generated using &quot;atomic&quot; code by A. Dal Corso  v.6.3
     Shape of augmentation charge: PSQ
     Using radial grid of 1213 points,  4 beta functions with: 
                l(1) =   0
                l(2) =   0
                l(3) =   1
                l(4) =   1
     Q(r) pseudized with 0 coefficients 


     atomic species   valence    mass     pseudopotential
        Zr            12.00    91.22400     Zr( 1.00)
        Cl             7.00    35.45300     Cl( 1.00)
        Br             7.00    79.90400     Br( 1.00)

      6 Sym. Ops. (no inversion) found



   Cartesian axes

     site n.     atom                  positions (alat units)
         1           Zr  tau(   1) = (   0.0000000   0.0000000   2.9453878  )
         2           Cl  tau(   2) = (  -0.0000000   0.5773503   3.4291986  )
         3           Br  tau(   3) = (  -0.0000000   0.5773503   2.4137016  )

     number of k points=    14
                       cart. coord. in units 2pi/alat
        k(    1) = (   0.0000000   0.0000000   0.0000000), wk =   0.0200000
        k(    2) = (   0.0000000   0.1154701   0.0000000), wk =   0.1200000
        k(    3) = (   0.0000000   0.2309401   0.0000000), wk =   0.1200000
        k(    4) = (   0.0000000   0.3464102   0.0000000), wk =   0.1200000
        k(    5) = (   0.0000000   0.4618802   0.0000000), wk =   0.1200000
        k(    6) = (   0.0000000  -0.5773503   0.0000000), wk =   0.0600000
        k(    7) = (   0.1000000   0.1732051   0.0000000), wk =   0.1200000
        k(    8) = (   0.1000000   0.2886751   0.0000000), wk =   0.2400000
        k(    9) = (   0.1000000   0.4041452   0.0000000), wk =   0.2400000
        k(   10) = (   0.1000000   0.5196152   0.0000000), wk =   0.2400000
        k(   11) = (   0.2000000   0.3464102   0.0000000), wk =   0.1200000
        k(   12) = (   0.2000000   0.4618802   0.0000000), wk =   0.2400000
        k(   13) = (   0.2000000   0.5773503   0.0000000), wk =   0.1200000
        k(   14) = (   0.3000000   0.5196152   0.0000000), wk =   0.1200000

     Dense  grid:    50293 G-vectors     FFT dimensions: (  36,  36, 100)

     Estimated max dynamical RAM per process >      10.76 MB

     Estimated total dynamical RAM >     344.30 MB

     Check: negative core charge=   -0.000004

     Initial potential from superposition of free atoms

     starting charge      25.9978, renormalised to      26.0000
     Starting wfcs are   21 randomized atomic wfcs +    5 random wfcs
     Checking if some PAW data can be deallocated... 

     total cpu time spent up to now is        0.7 secs

     Self-consistent Calculation

     iteration #  1     ecut=    65.00 Ry     beta= 0.70
     Davidson diagonalization with overlap
     ethr =  1.00E-02,  avg # of iterations =  6.5

     Threshold (ethr) on eigenvalues was too large:
     Diagonalizing with lowered threshold

     Davidson diagonalization with overlap
     ethr =  4.46E-04,  avg # of iterations =  2.2

     negative rho (up, down):  1.206E-06 0.000E+00

     total cpu time spent up to now is        1.5 secs

     total energy              =    -591.18533291 Ry
     estimated scf accuracy    <       0.11932256 Ry

     iteration #  2     ecut=    65.00 Ry     beta= 0.70
     Davidson diagonalization with overlap
     ethr =  4.59E-04,  avg # of iterations =  4.3

     total cpu time spent up to now is        2.0 secs

     total energy              =    -591.17964647 Ry
     estimated scf accuracy    <       0.32725825 Ry

     iteration #  3     ecut=    65.00 Ry     beta= 0.70
     Davidson diagonalization with overlap
     ethr =  4.59E-04,  avg # of iterations =  2.4

     total cpu time spent up to now is        2.4 secs

     total energy              =    -591.24261487 Ry
     estimated scf accuracy    <       0.00663526 Ry

     iteration #  4     ecut=    65.00 Ry     beta= 0.70
     Davidson diagonalization with overlap
     ethr =  2.55E-05,  avg # of iterations =  6.2

     negative rho (up, down):  2.528E-08 0.000E+00

     total cpu time spent up to now is        2.8 secs

     total energy              =    -591.24415221 Ry
     estimated scf accuracy    <       0.00040026 Ry

     iteration #  5     ecut=    65.00 Ry     beta= 0.70
     Davidson diagonalization with overlap
     ethr =  1.54E-06,  avg # of iterations =  4.0

     negative rho (up, down):  3.213E-08 0.000E+00

     total cpu time spent up to now is        3.2 secs

     total energy              =    -591.24422251 Ry
     estimated scf accuracy    <       0.00001299 Ry

     iteration #  6     ecut=    65.00 Ry     beta= 0.70
     Davidson diagonalization with overlap
     ethr =  4.99E-08,  avg # of iterations =  2.0

     negative rho (up, down):  3.608E-08 0.000E+00

     total cpu time spent up to now is        3.6 secs

     total energy              =    -591.24422399 Ry
     estimated scf accuracy    <       0.00000499 Ry

     iteration #  7     ecut=    65.00 Ry     beta= 0.70
     Davidson diagonalization with overlap
     ethr =  1.92E-08,  avg # of iterations =  2.0

     negative rho (up, down):  3.913E-08 0.000E+00

     total cpu time spent up to now is        3.9 secs

     total energy              =    -591.24422549 Ry
     estimated scf accuracy    <       0.00000213 Ry

     iteration #  8     ecut=    65.00 Ry     beta= 0.70
     Davidson diagonalization with overlap
     ethr =  8.19E-09,  avg # of iterations =  1.1

     negative rho (up, down):  4.006E-08 0.000E+00

     total cpu time spent up to now is        4.2 secs

     End of self-consistent calculation

          k = 0.0000 0.0000 0.0000 (  6343 PWs)   bands (ev):

   -44.7882 -23.0268 -22.6251 -22.6251 -12.6581 -12.0957  -2.0189   0.0398
     0.3134   0.3134   1.5024   1.5024   4.3381   6.0673   6.0673   6.7689
     6.7689   6.9090   8.4636   9.5622  11.4206  13.7313  13.7313  14.0275
    14.7510  15.3706

          k = 0.0000 0.1155 0.0000 (  6345 PWs)   bands (ev):

   -44.7849 -23.0167 -22.6643 -22.6333 -12.5928 -12.0660  -1.9062  -0.1346
     0.1808   0.2792   1.1180   1.4162   4.3417   5.9259   6.1594   6.7050
     6.9141   7.3325   8.7874  10.1073  11.5947  12.9242  14.0515  14.4146
    14.6189  14.8865

          k = 0.0000 0.2309 0.0000 (  6317 PWs)   bands (ev):

   -44.7762 -22.9902 -22.7653 -22.6549 -12.4262 -11.9780  -1.6249  -0.6837
    -0.1414   0.1683   0.4455   1.2303   4.2227   5.9098   6.4725   6.7560
     7.2387   8.1214   9.5744  11.0063  11.9545  12.2776  13.6314  14.3816
    14.8623  15.2776

          k = 0.0000 0.3464 0.0000 (  6299 PWs)   bands (ev):

   -44.7654 -22.9572 -22.8869 -22.6814 -12.2384 -11.8371  -1.4795  -1.1802
    -0.8171  -0.0001   0.1934   1.0563   3.9861   6.3550   6.9665   7.0278
     7.5459   8.8336  10.0346  11.3601  11.8203  12.1699  13.8801  14.3620
    14.8311  15.1576

          k = 0.0000 0.4619 0.0000 (  6272 PWs)   bands (ev):

   -44.7567 -22.9832 -22.9300 -22.7026 -12.1103 -11.6854  -1.9357  -1.3975
    -1.0047  -0.1494   0.1348   0.9421   3.8689   6.9486   7.2350   7.6609
     7.7462   9.3798   9.9086  11.1504  11.8422  12.1580  13.1045  14.2589
    14.3158  14.6209

          k = 0.0000-0.5774 0.0000 (  6278 PWs)   bands (ev):

   -44.7534 -23.0193 -22.9197 -22.7107 -12.0672 -11.6178  -2.1337  -1.5881
    -0.9447  -0.2077   0.1251   0.9022   3.8577   7.0991   7.5284   7.7769
     8.0132   9.5192   9.8939  11.0492  11.7281  12.1883  12.6325  13.7851
    14.1194  14.3266

          k = 0.1000 0.1732 0.0000 (  6309 PWs)   bands (ev):

   -44.7789 -22.9984 -22.7315 -22.6511 -12.4767 -12.0071  -1.7066  -0.4898
    -0.0285   0.1872   0.6140   1.2538   4.2968   5.8064   6.4100   6.7346
     7.1354   7.9254   9.3549  10.8078  11.9798  12.3819  13.6363  14.2347
    14.8375  15.2412

          k = 0.1000 0.2887 0.0000 (  6305 PWs)   bands (ev):

   -44.7692 -22.9686 -22.8360 -22.6819 -12.3001 -11.8909  -1.4166  -1.0476
    -0.4886  -0.1340   0.3230   0.9997   4.1542   5.9426   6.9021   6.9903
     7.4153   8.6607  10.0286  11.3687  12.0954  12.3607  13.4790  13.9810
    14.8716  15.0660

          k = 0.1000 0.4041 0.0000 (  6288 PWs)   bands (ev):

   -44.7594 -22.9408 -22.9353 -22.7129 -12.1472 -11.7364  -1.6589  -1.1771
    -1.0467  -0.2731   0.2012   0.7571   4.0449   6.4688   7.1672   7.5692
     7.6815   9.3751  10.0545  11.4851  12.0213  12.2631  13.5143  13.9009
    14.5040  14.8279

          k = 0.1000 0.5196 0.0000 (  6289 PWs)   bands (ev):

   -44.7534 -22.9993 -22.9198 -22.7320 -12.0667 -11.6183  -1.9919  -1.5252
    -0.9443  -0.3211   0.1300   0.6127   4.0466   7.1136   7.3690   7.6665
     7.9407   9.7117  10.1354  11.4051  11.9558  12.1827  12.6134  13.5203
    14.3951  14.6399

          k = 0.2000 0.3464 0.0000 (  6293 PWs)   bands (ev):

   -44.7604 -22.9419 -22.9074 -22.7299 -12.1619 -11.7549  -1.4403  -1.1388
    -0.9591  -0.4311   0.1933   0.5898   4.2215   6.0985   7.1967   7.5332
     7.7442   9.4087  10.2100  11.6894  12.4641  12.5377  13.4336  13.5183
    13.8558  14.9046

          k = 0.2000 0.4619 0.0000 (  6285 PWs)   bands (ev):

   -44.7534 -22.9576 -22.9198 -22.7757 -12.0660 -11.6192  -1.6900  -1.3868
    -0.9592  -0.5253  -0.0022   0.2504   4.3895   6.5682   7.2550   7.8344
     8.0170  10.0542  10.3783  11.8311  11.9920  12.4866  13.0778  13.7347
    14.4158  14.6483

          k = 0.2000 0.5774 0.0000 (  6290 PWs)   bands (ev):

   -44.7507 -22.9750 -22.9116 -22.7947 -12.0326 -11.5615  -1.7790  -1.5511
    -0.8982  -0.5398  -0.0962   0.1257   4.4905   7.0233   7.2522   7.7607
     7.9682   9.9141  11.1488  11.6740  12.1345  12.4240  12.4837  13.6744
    14.4918  14.6585

          k = 0.3000 0.5196 0.0000 (  6276 PWs)   bands (ev):

   -44.7496 -22.9424 -22.9084 -22.8423 -12.0197 -11.5393  -1.6060  -1.4592
    -0.8849  -0.7295  -0.4262   0.0780   4.7913   6.7788   7.1205   7.6815
     8.2341  10.2016  10.9304  11.8958  12.3461  12.9047  13.1954  13.5946
    14.4033  14.7276

     highest occupied, lowest unoccupied level (ev):     4.7913    5.8064

!    total energy              =    -591.24422589 Ry
     total all-electron energy =    -13333.877502 Ry
     estimated scf accuracy    <       0.00000001 Ry

     The total energy is the sum of the following terms:
     one-electron contribution =    -204.84472207 Ry
     hartree contribution      =     110.33680362 Ry
     xc contribution           =     -37.60519974 Ry
     ewald contribution        =     -28.01442421 Ry
     one-center paw contrib.   =    -431.11668349 Ry

     convergence has been achieved in   8 iterations

     Writing all to output data dir ./out/ZrClBr.save/

     init_run     :      0.26s CPU      0.30s WALL (       1 calls)
     electrons    :      3.45s CPU      3.64s WALL (       1 calls)

     Called by init_run:
     wfcinit      :      0.09s CPU      0.09s WALL (       1 calls)
     potinit      :      0.07s CPU      0.10s WALL (       1 calls)
     hinit0       :      0.07s CPU      0.08s WALL (       1 calls)

     Called by electrons:
     c_bands      :      2.60s CPU      2.64s WALL (       9 calls)
     sum_band     :      0.40s CPU      0.41s WALL (       9 calls)
     v_of_rho     :      0.03s CPU      0.03s WALL (       9 calls)
     newd         :      0.09s CPU      0.10s WALL (       9 calls)
     PAW_pot      :      0.39s CPU      0.47s WALL (       9 calls)
     mix_rho      :      0.00s CPU      0.00s WALL (       9 calls)

     Called by c_bands:
     init_us_2    :      0.02s CPU      0.02s WALL (     266 calls)
     init_us_2:cp :      0.02s CPU      0.02s WALL (     266 calls)
     cegterg      :      2.55s CPU      2.59s WALL (     126 calls)

     Called by *egterg:
     cdiaghg      :      0.45s CPU      0.46s WALL (     543 calls)
     h_psi        :      1.48s CPU      1.51s WALL (     571 calls)
     s_psi        :      0.10s CPU      0.10s WALL (     571 calls)
     g_psi        :      0.00s CPU      0.00s WALL (     431 calls)

     Called by h_psi:
     h_psi:calbec :      0.17s CPU      0.17s WALL (     571 calls)
     vloc_psi     :      1.21s CPU      1.23s WALL (     571 calls)
     add_vuspsi   :      0.10s CPU      0.10s WALL (     571 calls)

     General routines
     calbec       :      0.23s CPU      0.24s WALL (     697 calls)
     fft          :      0.02s CPU      0.02s WALL (     100 calls)
     ffts         :      0.00s CPU      0.00s WALL (       9 calls)
     fftw         :      1.34s CPU      1.37s WALL (   20114 calls)

     Parallel routines

     PWSCF        :      4.11s CPU      4.91s WALL


   This run was terminated on:   7:52:22  18Aug2026            

=------------------------------------------------------------------------------=
   JOB DONE.
=------------------------------------------------------------------------------=
