
     Program PWSCF v.7.2 starts on  7Aug2026 at 16:46: 7 

     This program is part of the open-source Quantum ESPRESSO suite
     for quantum simulation of materials; please cite
         "P. Giannozzi et al., J. Phys.:Condens. Matter 21 395502 (2009);
         "P. Giannozzi et al., J. Phys.:Condens. Matter 29 465901 (2017);
         "P. Giannozzi et al., J. Chem. Phys. 152 154105 (2020);
          URL http://www.quantum-espresso.org", 
     in publications or presentations arising from this work. More details at
     http://www.quantum-espresso.org/quote

     Parallel version (MPI), running on    32 processors

     MPI processes distributed on     1 nodes
     227793 MiB available memory on the printing compute node when the environment starts

     Waiting for input...
     Reading input from standard input

     Current dimensions of program PWSCF are:
     Max number of different atomic species (ntypx) = 10
     Max number of k-points (npk) =  40000
     Max angular momentum in pseudopotentials (lmaxx) =  4
     file Zr.pbe-spn-kjpaw_psl.1.0.0.UPF: wavefunction(s)  4S 4P renormalized
     file Cl.pbe-n-kjpaw_psl.1.0.0.UPF: wavefunction(s)  3S 3P renormalized
     file Br.pbe-n-kjpaw_psl.1.0.0.UPF: wavefunction(s)  4S 4P renormalized
     Message from routine setup:
     using ibrav=0 with symmetry is DISCOURAGED, use correct ibrav instead

     R & G space division:  proc/nbgrp/npool/nimage =      32
     Subspace diagonalization in iterative solution of the eigenvalue problem:
     a serial algorithm will be used


     Parallelization info
     --------------------
     sticks:   dense  smooth     PW     G-vecs:    dense   smooth      PW
     Min          20      20      6                 2494     2494     398
     Max          21      21      7                 2527     2527     415
     Sum         661     661    199                80247    80247   12933

     Using Slab Decomposition



     bravais-lattice index     =            0
     lattice parameter (alat)  =       6.5934  a.u.
     unit-cell volume          =    1454.3792 (a.u.)^3
     number of atoms/cell      =            3
     number of atomic types    =            3
     number of electrons       =        26.00
     number of Kohn-Sham states=           26
     kinetic-energy cutoff     =      55.0000  Ry
     charge density cutoff     =     220.0000  Ry
     scf convergence threshold =      1.0E-06
     mixing beta               =       0.7000
     number of iterations used =            8  plain     mixing
     Exchange-correlation= SLA  PW   PBX  PBC
                           (   1   4   3   4   0   0   0)

     celldm(1)=   6.593429  celldm(2)=   0.000000  celldm(3)=   0.000000
     celldm(4)=   0.000000  celldm(5)=   0.000000  celldm(6)=   0.000000

     crystal axes: (cart. coord. in units of alat)
               a(1) = (   1.000000  -0.000000   0.000000 )  
               a(2) = (  -0.500000   0.866025  -0.000000 )  
               a(3) = (   0.000000   0.000000   5.858859 )  

     reciprocal axes: (cart. coord. in units 2 pi/alat)
               b(1) = (  1.000000  0.577350 -0.000000 )  
               b(2) = (  0.000000  1.154701 -0.000000 )  
               b(3) = (  0.000000  0.000000  0.170682 )  


     PseudoPot. # 1 for Zr read from file:
     /mgpfs/home/rabdillah/repo/qe/pseudo/Zr.pbe-spn-kjpaw_psl.1.0.0.UPF
     MD5 check sum: 02112c41713a0468aff2bb39ef194e36
     Pseudo is Projector augmented-wave + core cor, Zval = 12.0
     Generated using &quot;atomic&quot; code by A. Dal Corso  v.6.2.2
     Shape of augmentation charge: PSQ
     Using radial grid of 1225 points,  6 beta functions with: 
                l(1) =   0
                l(2) =   0
                l(3) =   1
                l(4) =   1
                l(5) =   2
                l(6) =   2
     Q(r) pseudized with 0 coefficients 


     PseudoPot. # 2 for Cl read from file:
     /mgpfs/home/rabdillah/repo/qe/pseudo/Cl.pbe-n-kjpaw_psl.1.0.0.UPF
     MD5 check sum: 530da96d25dcb7781b0586ca00827062
     Pseudo is Projector augmented-wave + core cor, Zval =  7.0
     Generated using &quot;atomic&quot; code by A. Dal Corso  v.6.3
     Shape of augmentation charge: PSQ
     Using radial grid of 1157 points,  6 beta functions with: 
                l(1) =   0
                l(2) =   0
                l(3) =   1
                l(4) =   1
                l(5) =   2
                l(6) =   2
     Q(r) pseudized with 0 coefficients 


     PseudoPot. # 3 for Br read from file:
     /mgpfs/home/rabdillah/repo/qe/pseudo/Br.pbe-n-kjpaw_psl.1.0.0.UPF
     MD5 check sum: b00de77caabc69c0a6b76eb37264f235
     Pseudo is Projector augmented-wave + core cor, Zval =  7.0
     Generated using &quot;atomic&quot; code by A. Dal Corso  v.6.3
     Shape of augmentation charge: PSQ
     Using radial grid of 1213 points,  4 beta functions with: 
                l(1) =   0
                l(2) =   0
                l(3) =   1
                l(4) =   1
     Q(r) pseudized with 0 coefficients 


     atomic species   valence    mass     pseudopotential
        Zr            12.00    91.22400     Zr( 1.00)
        Cl             7.00    35.45300     Cl( 1.00)
        Br             7.00    79.90400     Br( 1.00)

      6 Sym. Ops. (no inversion) found



   Cartesian axes

     site n.     atom                  positions (alat units)
         1           Zr  tau(   1) = (   0.0000000   0.0000000   2.9453878  )
         2           Cl  tau(   2) = (  -0.0000000   0.5773503   3.4291986  )
         3           Br  tau(   3) = (  -0.0000000   0.5773503   2.4137016  )

     number of k points=   102

     Number of k-points >= 100: set verbosity='high' to print them.

     Dense  grid:    80247 G-vectors     FFT dimensions: (  32,  32, 192)

     Estimated max dynamical RAM per process >      25.31 MB

     Estimated total dynamical RAM >     809.86 MB

     Initial potential from superposition of free atoms

     starting charge      25.9978, renormalised to      26.0000

     negative rho (up, down):  8.049E-04 0.000E+00
     Starting wfcs are   21 randomized atomic wfcs +    5 random wfcs
     Checking if some PAW data can be deallocated... 

     total cpu time spent up to now is        1.4 secs

     Self-consistent Calculation

     iteration #  1     ecut=    55.00 Ry     beta= 0.70
     Davidson diagonalization with overlap
     ethr =  1.00E-02,  avg # of iterations =  8.5

     Threshold (ethr) on eigenvalues was too large:
     Diagonalizing with lowered threshold

     Davidson diagonalization with overlap
     ethr =  4.55E-04,  avg # of iterations =  2.5

     negative rho (up, down):  9.129E-04 0.000E+00

     total cpu time spent up to now is        9.0 secs

     total energy              =    -591.18275669 Ry
     estimated scf accuracy    <       0.12106828 Ry

     iteration #  2     ecut=    55.00 Ry     beta= 0.70
     Davidson diagonalization with overlap
     ethr =  4.66E-04,  avg # of iterations =  7.5

     negative rho (up, down):  7.355E-04 0.000E+00

     total cpu time spent up to now is       13.5 secs

     total energy              =    -591.17013744 Ry
     estimated scf accuracy    <       0.37552689 Ry

     iteration #  3     ecut=    55.00 Ry     beta= 0.70
     Davidson diagonalization with overlap
     ethr =  4.66E-04,  avg # of iterations =  4.3

     negative rho (up, down):  7.720E-04 0.000E+00

     total cpu time spent up to now is       17.1 secs

     total energy              =    -591.23902617 Ry
     estimated scf accuracy    <       0.01468349 Ry

     iteration #  4     ecut=    55.00 Ry     beta= 0.70
     Davidson diagonalization with overlap
     ethr =  5.65E-05,  avg # of iterations =  5.9

     negative rho (up, down):  8.162E-04 0.000E+00

     total cpu time spent up to now is       20.7 secs

     total energy              =    -591.24184104 Ry
     estimated scf accuracy    <       0.00654952 Ry

     iteration #  5     ecut=    55.00 Ry     beta= 0.70
     Davidson diagonalization with overlap
     ethr =  2.52E-05,  avg # of iterations =  5.2

     negative rho (up, down):  8.833E-04 0.000E+00

     total cpu time spent up to now is       23.8 secs

     total energy              =    -591.24309902 Ry
     estimated scf accuracy    <       0.00036194 Ry

     iteration #  6     ecut=    55.00 Ry     beta= 0.70
     Davidson diagonalization with overlap
     ethr =  1.39E-06,  avg # of iterations =  6.2

     negative rho (up, down):  8.950E-04 0.000E+00

     total cpu time spent up to now is       27.4 secs

     total energy              =    -591.24316167 Ry
     estimated scf accuracy    <       0.00000523 Ry

     iteration #  7     ecut=    55.00 Ry     beta= 0.70
     Davidson diagonalization with overlap
     ethr =  2.01E-08,  avg # of iterations =  2.0

     negative rho (up, down):  9.010E-04 0.000E+00

     total cpu time spent up to now is       30.4 secs

     End of self-consistent calculation

     Number of k-points >= 100: set verbosity='high' to print the bands.

     highest occupied, lowest unoccupied level (ev):     0.4138    1.3641

!    total energy              =    -591.24316307 Ry
     total all-electron energy =    -13333.876439 Ry
     estimated scf accuracy    <       0.00000040 Ry

     The total energy is the sum of the following terms:
     one-electron contribution =    -864.65465236 Ry
     hartree contribution      =     435.96641460 Ry
     xc contribution           =     -37.60669282 Ry
     ewald contribution        =     306.16948208 Ry
     one-center paw contrib.   =    -431.11771457 Ry

     convergence has been achieved in   7 iterations

     Writing all to output data dir ./out/ZrClBr.save/

     init_run     :      1.05s CPU      1.09s WALL (       1 calls)
     electrons    :     28.49s CPU     28.94s WALL (       1 calls)

     Called by init_run:
     wfcinit      :      0.83s CPU      0.84s WALL (       1 calls)
     potinit      :      0.09s CPU      0.10s WALL (       1 calls)
     hinit0       :      0.10s CPU      0.10s WALL (       1 calls)

     Called by electrons:
     c_bands      :     25.31s CPU     25.67s WALL (       8 calls)
     sum_band     :      2.73s CPU      2.80s WALL (       8 calls)
     v_of_rho     :      0.03s CPU      0.03s WALL (       8 calls)
     newd         :      0.12s CPU      0.13s WALL (       8 calls)
     PAW_pot      :      0.34s CPU      0.37s WALL (       8 calls)
     mix_rho      :      0.00s CPU      0.00s WALL (       8 calls)

     Called by c_bands:
     init_us_2    :      0.19s CPU      0.20s WALL (    1734 calls)
     init_us_2:cp :      0.19s CPU      0.19s WALL (    1734 calls)
     cegterg      :     24.81s CPU     25.15s WALL (     816 calls)

     Called by *egterg:
     cdiaghg      :      4.32s CPU      4.36s WALL (    5027 calls)
     h_psi        :     13.45s CPU     13.72s WALL (    5231 calls)
     s_psi        :      1.12s CPU      1.13s WALL (    5231 calls)
     g_psi        :      0.05s CPU      0.05s WALL (    4313 calls)

     Called by h_psi:
     h_psi:calbec :      1.90s CPU      1.93s WALL (    5231 calls)
     vloc_psi     :     10.38s CPU     10.62s WALL (    5231 calls)
     add_vuspsi   :      1.12s CPU      1.13s WALL (    5231 calls)

     General routines
     calbec       :      2.54s CPU      2.58s WALL (    6047 calls)
     fft          :      0.02s CPU      0.02s WALL (      89 calls)
     ffts         :      0.00s CPU      0.00s WALL (       8 calls)
     fftw         :     11.36s CPU     11.63s WALL (  142844 calls)

     Parallel routines

     PWSCF        :     30.44s CPU     31.32s WALL


   This run was terminated on:  16:46:38   7Aug2026            

=------------------------------------------------------------------------------=
   JOB DONE.
=------------------------------------------------------------------------------=
