
     Program PWSCF v.7.2 starts on  7Aug2026 at 16:46:40 

     This program is part of the open-source Quantum ESPRESSO suite
     for quantum simulation of materials; please cite
         "P. Giannozzi et al., J. Phys.:Condens. Matter 21 395502 (2009);
         "P. Giannozzi et al., J. Phys.:Condens. Matter 29 465901 (2017);
         "P. Giannozzi et al., J. Chem. Phys. 152 154105 (2020);
          URL http://www.quantum-espresso.org", 
     in publications or presentations arising from this work. More details at
     http://www.quantum-espresso.org/quote

     Parallel version (MPI), running on    32 processors

     MPI processes distributed on     1 nodes
     222704 MiB available memory on the printing compute node when the environment starts

     Waiting for input...
     Reading input from standard input

     Current dimensions of program PWSCF are:
     Max number of different atomic species (ntypx) = 10
     Max number of k-points (npk) =  40000
     Max angular momentum in pseudopotentials (lmaxx) =  4

     Atomic positions and unit cell read from directory:
     ./out/ZrClBr.save/
     Atomic positions from file used, from input discarded

     file Zr.pbe-spn-kjpaw_psl.1.0.0.UPF: wavefunction(s)  4S 4P renormalized
     file Cl.pbe-n-kjpaw_psl.1.0.0.UPF: wavefunction(s)  3S 3P renormalized
     file Br.pbe-n-kjpaw_psl.1.0.0.UPF: wavefunction(s)  4S 4P renormalized
     Message from routine setup:
     using ibrav=0 with symmetry is DISCOURAGED, use correct ibrav instead

     R & G space division:  proc/nbgrp/npool/nimage =      32
     Subspace diagonalization in iterative solution of the eigenvalue problem:
     a serial algorithm will be used


     Parallelization info
     --------------------
     sticks:   dense  smooth     PW     G-vecs:    dense   smooth      PW
     Min          20      20      6                 2494     2494     400
     Max          21      21      7                 2527     2527     415
     Sum         661     661    199                80247    80247   12945

     Using Slab Decomposition



     bravais-lattice index     =            0
     lattice parameter (alat)  =       6.5934  a.u.
     unit-cell volume          =    1454.3792 (a.u.)^3
     number of atoms/cell      =            3
     number of atomic types    =            3
     number of electrons       =        26.00
     number of Kohn-Sham states=           26
     kinetic-energy cutoff     =      55.0000  Ry
     charge density cutoff     =     220.0000  Ry
     Exchange-correlation= SLA  PW   PBX  PBC
                           (   1   4   3   4   0   0   0)

     celldm(1)=   6.593429  celldm(2)=   0.000000  celldm(3)=   0.000000
     celldm(4)=   0.000000  celldm(5)=   0.000000  celldm(6)=   0.000000

     crystal axes: (cart. coord. in units of alat)
               a(1) = (   1.000000  -0.000000   0.000000 )  
               a(2) = (  -0.500000   0.866025  -0.000000 )  
               a(3) = (   0.000000   0.000000   5.858859 )  

     reciprocal axes: (cart. coord. in units 2 pi/alat)
               b(1) = (  1.000000  0.577350 -0.000000 )  
               b(2) = (  0.000000  1.154701 -0.000000 )  
               b(3) = (  0.000000  0.000000  0.170682 )  


     PseudoPot. # 1 for Zr read from file:
     /mgpfs/home/rabdillah/repo/qe/pseudo/Zr.pbe-spn-kjpaw_psl.1.0.0.UPF
     MD5 check sum: 02112c41713a0468aff2bb39ef194e36
     Pseudo is Projector augmented-wave + core cor, Zval = 12.0
     Generated using &quot;atomic&quot; code by A. Dal Corso  v.6.2.2
     Shape of augmentation charge: PSQ
     Using radial grid of 1225 points,  6 beta functions with: 
                l(1) =   0
                l(2) =   0
                l(3) =   1
                l(4) =   1
                l(5) =   2
                l(6) =   2
     Q(r) pseudized with 0 coefficients 


     PseudoPot. # 2 for Cl read from file:
     /mgpfs/home/rabdillah/repo/qe/pseudo/Cl.pbe-n-kjpaw_psl.1.0.0.UPF
     MD5 check sum: 530da96d25dcb7781b0586ca00827062
     Pseudo is Projector augmented-wave + core cor, Zval =  7.0
     Generated using &quot;atomic&quot; code by A. Dal Corso  v.6.3
     Shape of augmentation charge: PSQ
     Using radial grid of 1157 points,  6 beta functions with: 
                l(1) =   0
                l(2) =   0
                l(3) =   1
                l(4) =   1
                l(5) =   2
                l(6) =   2
     Q(r) pseudized with 0 coefficients 


     PseudoPot. # 3 for Br read from file:
     /mgpfs/home/rabdillah/repo/qe/pseudo/Br.pbe-n-kjpaw_psl.1.0.0.UPF
     MD5 check sum: b00de77caabc69c0a6b76eb37264f235
     Pseudo is Projector augmented-wave + core cor, Zval =  7.0
     Generated using &quot;atomic&quot; code by A. Dal Corso  v.6.3
     Shape of augmentation charge: PSQ
     Using radial grid of 1213 points,  4 beta functions with: 
                l(1) =   0
                l(2) =   0
                l(3) =   1
                l(4) =   1
     Q(r) pseudized with 0 coefficients 


     atomic species   valence    mass     pseudopotential
        Zr            12.00    91.22400     Zr( 1.00)
        Cl             7.00    35.45300     Cl( 1.00)
        Br             7.00    79.90400     Br( 1.00)

      6 Sym. Ops. (no inversion) found



   Cartesian axes

     site n.     atom                  positions (alat units)
         1           Zr  tau(   1) = (   0.0000000   0.0000000   2.9453878  )
         2           Cl  tau(   2) = (  -0.0000000   0.5773503   3.4291986  )
         3           Br  tau(   3) = (  -0.0000000   0.5773503   2.4137016  )

     number of k points=    91
                       cart. coord. in units 2pi/alat
        k(    1) = (   0.0000000   0.0000000   0.0000000), wk =   0.0219780
        k(    2) = (   0.0166667   0.0096225   0.0000000), wk =   0.0219780
        k(    3) = (   0.0333333   0.0192450   0.0000000), wk =   0.0219780
        k(    4) = (   0.0500000   0.0288675   0.0000000), wk =   0.0219780
        k(    5) = (   0.0666667   0.0384900   0.0000000), wk =   0.0219780
        k(    6) = (   0.0833333   0.0481125   0.0000000), wk =   0.0219780
        k(    7) = (   0.1000000   0.0577350   0.0000000), wk =   0.0219780
        k(    8) = (   0.1166667   0.0673575   0.0000000), wk =   0.0219780
        k(    9) = (   0.1333333   0.0769800   0.0000000), wk =   0.0219780
        k(   10) = (   0.1500000   0.0866025   0.0000000), wk =   0.0219780
        k(   11) = (   0.1666667   0.0962250   0.0000000), wk =   0.0219780
        k(   12) = (   0.1833333   0.1058475   0.0000000), wk =   0.0219780
        k(   13) = (   0.2000000   0.1154701   0.0000000), wk =   0.0219780
        k(   14) = (   0.2166667   0.1250926   0.0000000), wk =   0.0219780
        k(   15) = (   0.2333333   0.1347151   0.0000000), wk =   0.0219780
        k(   16) = (   0.2500000   0.1443376   0.0000000), wk =   0.0219780
        k(   17) = (   0.2666667   0.1539601   0.0000000), wk =   0.0219780
        k(   18) = (   0.2833333   0.1635826   0.0000000), wk =   0.0219780
        k(   19) = (   0.3000000   0.1732051   0.0000000), wk =   0.0219780
        k(   20) = (   0.3166667   0.1828276   0.0000000), wk =   0.0219780
        k(   21) = (   0.3333333   0.1924501   0.0000000), wk =   0.0219780
        k(   22) = (   0.3500000   0.2020726   0.0000000), wk =   0.0219780
        k(   23) = (   0.3666667   0.2116951   0.0000000), wk =   0.0219780
        k(   24) = (   0.3833333   0.2213176   0.0000000), wk =   0.0219780
        k(   25) = (   0.4000000   0.2309401   0.0000000), wk =   0.0219780
        k(   26) = (   0.4166667   0.2405626   0.0000000), wk =   0.0219780
        k(   27) = (   0.4333333   0.2501851   0.0000000), wk =   0.0219780
        k(   28) = (   0.4500000   0.2598076   0.0000000), wk =   0.0219780
        k(   29) = (   0.4666667   0.2694301   0.0000000), wk =   0.0219780
        k(   30) = (   0.4833333   0.2790526   0.0000000), wk =   0.0219780
        k(   31) = (   0.5000000   0.2886751   0.0000000), wk =   0.0219780
        k(   32) = (   0.4944444   0.2982976   0.0000000), wk =   0.0219780
        k(   33) = (   0.4888889   0.3079201   0.0000000), wk =   0.0219780
        k(   34) = (   0.4833333   0.3175426   0.0000000), wk =   0.0219780
        k(   35) = (   0.4777778   0.3271652   0.0000000), wk =   0.0219780
        k(   36) = (   0.4722222   0.3367877   0.0000000), wk =   0.0219780
        k(   37) = (   0.4666667   0.3464102   0.0000000), wk =   0.0219780
        k(   38) = (   0.4611111   0.3560327   0.0000000), wk =   0.0219780
        k(   39) = (   0.4555556   0.3656552   0.0000000), wk =   0.0219780
        k(   40) = (   0.4500000   0.3752777   0.0000000), wk =   0.0219780
        k(   41) = (   0.4444444   0.3849002   0.0000000), wk =   0.0219780
        k(   42) = (   0.4388889   0.3945227   0.0000000), wk =   0.0219780
        k(   43) = (   0.4333333   0.4041452   0.0000000), wk =   0.0219780
        k(   44) = (   0.4277778   0.4137677   0.0000000), wk =   0.0219780
        k(   45) = (   0.4222222   0.4233902   0.0000000), wk =   0.0219780
        k(   46) = (   0.4166667   0.4330127   0.0000000), wk =   0.0219780
        k(   47) = (   0.4111111   0.4426352   0.0000000), wk =   0.0219780
        k(   48) = (   0.4055556   0.4522577   0.0000000), wk =   0.0219780
        k(   49) = (   0.4000000   0.4618802   0.0000000), wk =   0.0219780
        k(   50) = (   0.3944444   0.4715027   0.0000000), wk =   0.0219780
        k(   51) = (   0.3888889   0.4811252   0.0000000), wk =   0.0219780
        k(   52) = (   0.3833333   0.4907477   0.0000000), wk =   0.0219780
        k(   53) = (   0.3777778   0.5003702   0.0000000), wk =   0.0219780
        k(   54) = (   0.3722222   0.5099927   0.0000000), wk =   0.0219780
        k(   55) = (   0.3666667   0.5196152   0.0000000), wk =   0.0219780
        k(   56) = (   0.3611111   0.5292377   0.0000000), wk =   0.0219780
        k(   57) = (   0.3555556   0.5388603   0.0000000), wk =   0.0219780
        k(   58) = (   0.3500000   0.5484828   0.0000000), wk =   0.0219780
        k(   59) = (   0.3444444   0.5581053   0.0000000), wk =   0.0219780
        k(   60) = (   0.3388889   0.5677278   0.0000000), wk =   0.0219780
        k(   61) = (   0.3333333   0.5773503   0.0000000), wk =   0.0219780
        k(   62) = (   0.3222222   0.5581053   0.0000000), wk =   0.0219780
        k(   63) = (   0.3111111   0.5388603   0.0000000), wk =   0.0219780
        k(   64) = (   0.3000000   0.5196152   0.0000000), wk =   0.0219780
        k(   65) = (   0.2888889   0.5003702   0.0000000), wk =   0.0219780
        k(   66) = (   0.2777778   0.4811252   0.0000000), wk =   0.0219780
        k(   67) = (   0.2666667   0.4618802   0.0000000), wk =   0.0219780
        k(   68) = (   0.2555556   0.4426352   0.0000000), wk =   0.0219780
        k(   69) = (   0.2444444   0.4233902   0.0000000), wk =   0.0219780
        k(   70) = (   0.2333333   0.4041452   0.0000000), wk =   0.0219780
        k(   71) = (   0.2222222   0.3849002   0.0000000), wk =   0.0219780
        k(   72) = (   0.2111111   0.3656552   0.0000000), wk =   0.0219780
        k(   73) = (   0.2000000   0.3464102   0.0000000), wk =   0.0219780
        k(   74) = (   0.1888889   0.3271652   0.0000000), wk =   0.0219780
        k(   75) = (   0.1777778   0.3079201   0.0000000), wk =   0.0219780
        k(   76) = (   0.1666667   0.2886751   0.0000000), wk =   0.0219780
        k(   77) = (   0.1555556   0.2694301   0.0000000), wk =   0.0219780
        k(   78) = (   0.1444444   0.2501851   0.0000000), wk =   0.0219780
        k(   79) = (   0.1333333   0.2309401   0.0000000), wk =   0.0219780
        k(   80) = (   0.1222222   0.2116951   0.0000000), wk =   0.0219780
        k(   81) = (   0.1111111   0.1924501   0.0000000), wk =   0.0219780
        k(   82) = (   0.1000000   0.1732051   0.0000000), wk =   0.0219780
        k(   83) = (   0.0888889   0.1539601   0.0000000), wk =   0.0219780
        k(   84) = (   0.0777778   0.1347151   0.0000000), wk =   0.0219780
        k(   85) = (   0.0666667   0.1154701   0.0000000), wk =   0.0219780
        k(   86) = (   0.0555556   0.0962250   0.0000000), wk =   0.0219780
        k(   87) = (   0.0444444   0.0769800   0.0000000), wk =   0.0219780
        k(   88) = (   0.0333333   0.0577350   0.0000000), wk =   0.0219780
        k(   89) = (   0.0222222   0.0384900   0.0000000), wk =   0.0219780
        k(   90) = (   0.0111111   0.0192450   0.0000000), wk =   0.0219780
        k(   91) = (   0.0000000   0.0000000   0.0000000), wk =   0.0219780

     Dense  grid:    80247 G-vectors     FFT dimensions: (  32,  32, 192)

     Estimated max dynamical RAM per process >      11.95 MB

     Estimated total dynamical RAM >     382.33 MB

     The potential is recalculated from file :
     ./out/ZrClBr.save/charge-density


     negative rho (up, down):  9.010E-04 0.000E+00
     Starting wfcs are   21 randomized atomic wfcs +    5 random wfcs
     Checking if some PAW data can be deallocated... 

     Band Structure Calculation
     Davidson diagonalization with overlap
     c_bands:  1 eigenvalues not converged

     ethr =  3.85E-09,  avg # of iterations = 38.1

     total cpu time spent up to now is       23.1 secs

     End of band structure calculation

          k = 0.0000 0.0000 0.0000 ( 10045 PWs)   bands (ev):

   -49.2632 -27.5015 -27.0996 -27.0996 -17.1294 -16.5772  -6.4904  -4.4499
    -4.1512  -4.1512  -2.9849  -2.9849  -0.1146   1.5917   1.5917   2.2937
     2.2937   2.5549   3.6557   3.8242   4.5710   5.0769   5.8913   6.6591
     8.2990   9.2568

          k = 0.0167 0.0096 0.0000 ( 10033 PWs)   bands (ev):

   -49.2631 -27.5012 -27.1007 -27.0998 -17.1275 -16.5764  -6.4871  -4.4537
    -4.1563  -4.1521  -2.9969  -2.9875  -0.1143   1.5872   1.5942   2.2899
     2.2981   2.5694   3.6625   3.8302   4.5773   5.0880   5.9019   6.6647
     8.3026   9.1917

          k = 0.0333 0.0192 0.0000 ( 10047 PWs)   bands (ev):

   -49.2628 -27.5003 -27.1041 -27.1005 -17.1218 -16.5740  -6.4774  -4.4654
    -4.1709  -4.1549  -3.0326  -2.9953  -0.1136   1.5739   1.6015   2.2791
     2.3110   2.6120   3.6828   3.8480   4.5961   5.1206   5.9339   6.6816
     8.3131   9.0658

          k = 0.0500 0.0289 0.0000 ( 10047 PWs)   bands (ev):

   -49.2623 -27.4989 -27.1096 -27.1017 -17.1124 -16.5700  -6.4613  -4.4859
    -4.1940  -4.1594  -3.0904  -3.0080  -0.1129   1.5533   1.6140   2.2635
     2.3322   2.6808   3.7156   3.8771   4.6271   5.1719   5.9883   6.7095
     8.3301   8.9217

          k = 0.0667 0.0385 0.0000 ( 10051 PWs)   bands (ev):

   -49.2617 -27.4969 -27.1174 -27.1033 -17.0994 -16.5644  -6.4391  -4.5163
    -4.2238  -4.1659  -3.1678  -3.0253  -0.1128   1.5272   1.6317   2.2458
     2.3610   2.7727   3.7600   3.9167   4.6703   5.2382   6.0662   6.7480
     8.3522   8.7715

          k = 0.0833 0.0481 0.0000 ( 10033 PWs)   bands (ev):

   -49.2609 -27.4944 -27.1271 -27.1053 -17.0830 -16.5571  -6.4111  -4.5581
    -4.2582  -4.1745  -3.2618  -3.0466  -0.1143   1.4984   1.6549   2.2288
     2.3969   2.8840   3.8152   3.9661   4.7252   5.3152   6.1685   6.7966
     8.3753   8.6247

          k = 0.1000 0.0577 0.0000 ( 10049 PWs)   bands (ev):

   -49.2599 -27.4914 -27.1388 -27.1078 -17.0633 -16.5483  -6.3776  -4.6124
    -4.2954  -4.1851  -3.3688  -3.0715  -0.1185   1.4699   1.6840   2.2149
     2.4389   3.0103   3.8808   4.0248   4.7916   5.3991   6.2946   6.8548
     8.3753   8.5084

          k = 0.1167 0.0674 0.0000 ( 10041 PWs)   bands (ev):

   -49.2587 -27.4879 -27.1522 -27.1107 -17.0407 -16.5380  -6.3391  -4.6791
    -4.3348  -4.1979  -3.4851  -3.0991  -0.1265   1.4450   1.7192   2.2059
     2.4861   3.1471   3.9563   4.0924   4.8690   5.4872   6.4421   6.9217
     8.2849   8.4914

          k = 0.1333 0.0770 0.0000 ( 10035 PWs)   bands (ev):

   -49.2575 -27.4840 -27.1673 -27.1139 -17.0153 -16.5260  -6.2963  -4.7576
    -4.3771  -4.2131  -3.6063  -3.1290  -0.1395   1.4268   1.7609   2.2030
     2.5374   3.2900   4.0413   4.1688   4.9568   5.5783   6.6061   6.9960
     8.1606   8.5170

          k = 0.1500 0.0866 0.0000 ( 10033 PWs)   bands (ev):

   -49.2560 -27.4797 -27.1838 -27.1174 -16.9876 -16.5125  -6.2497  -4.8460
    -4.4245  -4.2305  -3.7276  -3.1603  -0.1582   1.4182   1.8093   2.2067
     2.5918   3.4350   4.1350   4.2543   5.0543   5.6722   6.7793   7.0758
     8.0448   8.5412

          k = 0.1667 0.0962 0.0000 ( 10017 PWs)   bands (ev):

   -49.2545 -27.4750 -27.2015 -27.1211 -16.9579 -16.4975  -6.2001  -4.9424
    -4.4800  -4.2501  -3.8437  -3.1926  -0.1830   1.4214   1.8648   2.2172
     2.6484   3.5791   4.2360   4.3491   5.1600   5.7690   6.9512   7.1577
     7.9498   8.5487

          k = 0.1833 0.1058 0.0000 (  9999 PWs)   bands (ev):

   -49.2529 -27.4700 -27.2202 -27.1252 -16.9266 -16.4809  -6.1484  -5.0446
    -4.5474  -4.2720  -3.9490  -3.2252  -0.2136   1.4378   1.9273   2.2342
     2.7059   3.7200   4.3427   4.4533   5.2719   5.8694   7.1059   7.2361
     7.8876   8.5325

          k = 0.2000 0.1155 0.0000 (  9993 PWs)   bands (ev):

   -49.2512 -27.4648 -27.2398 -27.1294 -16.8942 -16.4628  -6.0958  -5.1507
    -4.6296  -4.2959  -4.0388  -3.2576  -0.2494   1.4680   1.9971   2.2571
     2.7636   3.8569   4.4538   4.5662   5.3869   5.9736   7.2153   7.3117
     7.8702   8.5049

          k = 0.2167 0.1251 0.0000 (  9987 PWs)   bands (ev):

   -49.2494 -27.4594 -27.2599 -27.1337 -16.8612 -16.4432  -6.0437  -5.2584
    -4.7268  -4.3216  -4.1111  -3.2895  -0.2889   1.5119   2.0740   2.2853
     2.8204   3.9895   4.5685   4.6862   5.5014   6.0821   7.2546   7.3884
     7.8973   8.4962

          k = 0.2333 0.1347 0.0000 (  9991 PWs)   bands (ev):

   -49.2476 -27.4539 -27.2804 -27.1381 -16.8280 -16.4221  -5.9939  -5.3651
    -4.8360  -4.3488  -4.1674  -3.3205  -0.3305   1.5688   2.1578   2.3178
     2.8758   4.1178   4.6869   4.8113   5.6111   6.1947   7.2522   7.4356
     7.9550   8.5314

          k = 0.2500 0.1443 0.0000 ( 10007 PWs)   bands (ev):

   -49.2458 -27.4483 -27.3010 -27.1426 -16.7952 -16.3996  -5.9500  -5.4672
    -4.9529  -4.3771  -4.2106  -3.3503  -0.3728   1.6377   2.2482   2.3537
     2.9290   4.2418   4.8089   4.9397   5.7119   6.3114   7.2366   7.4358
     8.0378   8.6083

          k = 0.2667 0.1540 0.0000 (  9988 PWs)   bands (ev):

   -49.2440 -27.4427 -27.3216 -27.1471 -16.7632 -16.3758  -5.9186  -5.5574
    -5.0725  -4.4062  -4.2440  -3.3787  -0.4139   1.7172   2.3446   2.3922
     2.9794   4.3611   4.9341   5.0700   5.8010   6.4312   7.2200   7.4000
     8.1435   8.7047

          k = 0.2833 0.1636 0.0000 ( 10002 PWs)   bands (ev):

   -49.2422 -27.4372 -27.3418 -27.1515 -16.7324 -16.3508  -5.9136  -5.6220
    -5.1910  -4.4356  -4.2701  -3.4057  -0.4527   1.8058   2.4324   2.4463
     3.0268   4.4746   5.0617   5.2018   5.8779   6.5527   7.2025   7.3544
     8.2631   8.8002

          k = 0.3000 0.1732 0.0000 ( 10014 PWs)   bands (ev):

   -49.2404 -27.4318 -27.3614 -27.1558 -16.7033 -16.3250  -5.9498  -5.6467
    -5.3049  -4.4650  -4.2908  -3.4309  -0.4881   1.9016   2.4737   2.5524
     3.0707   4.5808   5.1898   5.3344   5.9448   6.6719   7.1770   7.3267
     8.3863   8.8819

          k = 0.3167 0.1828 0.0000 ( 10014 PWs)   bands (ev):

   -49.2387 -27.4266 -27.3803 -27.1600 -16.6760 -16.2987  -6.0184  -5.6418
    -5.4097  -4.4937  -4.3073  -3.4545  -0.5191   2.0028   2.5157   2.6617
     3.1111   4.6778   5.3152   5.4674   6.0073   6.7789   7.1493   7.3294
     8.5032   8.9420

          k = 0.3333 0.1925 0.0000 ( 10012 PWs)   bands (ev):

   -49.2371 -27.4218 -27.3982 -27.1640 -16.6509 -16.2722  -6.1003  -5.6360
    -5.4943  -4.5215  -4.3204  -3.4762  -0.5455   2.1065   2.5584   2.7727
     3.1479   4.7641   5.4319   5.6001   6.0742   6.8490   7.1538   7.3573
     8.6034   8.9737

          k = 0.3500 0.2021 0.0000 ( 10018 PWs)   bands (ev):

   -49.2355 -27.4189 -27.4132 -27.1677 -16.6280 -16.2460  -6.1842  -5.6692
    -5.5279  -4.5479  -4.3307  -3.4962  -0.5671   2.2096   2.6027   2.8836
     3.1812   4.8385   5.5302   5.7326   6.1572   6.8609   7.2179   7.4070
     8.6733   8.9724

          k = 0.3667 0.2117 0.0000 ( 10000 PWs)   bands (ev):

   -49.2341 -27.4314 -27.4119 -27.1712 -16.6076 -16.2207  -6.2651  -5.7381
    -5.5177  -4.5726  -4.3389  -3.5141  -0.5840   2.3075   2.6503   2.9922
     3.2115   4.9012   5.5993   5.8663   6.2662   6.8392   7.3169   7.4801
     8.6942   8.9426

          k = 0.3833 0.2213 0.0000 ( 10022 PWs)   bands (ev):

   -49.2328 -27.4453 -27.4081 -27.1743 -16.5895 -16.1967  -6.3404  -5.8103
    -5.4971  -4.5951  -4.3452  -3.5302  -0.5965   2.3947   2.7039   3.0948
     3.2401   4.9532   5.6357   6.0013   6.4030   6.8127   7.4208   7.5773
     8.6557   8.8972

          k = 0.4000 0.2309 0.0000 ( 10012 PWs)   bands (ev):

   -49.2317 -27.4578 -27.4046 -27.1771 -16.5739 -16.1747  -6.4082  -5.8762
    -5.4764  -4.6153  -4.3500  -3.5442  -0.6052   2.4658   2.7657   3.1843
     3.2721   4.9965   5.6441   6.1335   6.5616   6.7980   7.5201   7.6896
     8.5792   8.8369

          k = 0.4167 0.2406 0.0000 ( 10006 PWs)   bands (ev):

   -49.2307 -27.4686 -27.4016 -27.1795 -16.5607 -16.1550  -6.4674  -5.9333
    -5.4578  -4.6328  -4.3535  -3.5561  -0.6109   2.5191   2.8341   3.2422
     3.3232   5.0333   5.6324   6.2540   6.7198   6.8218   7.6118   7.7984
     8.5030   8.7590

          k = 0.4333 0.2502 0.0000 ( 10010 PWs)   bands (ev):

   -49.2298 -27.4776 -27.3990 -27.1815 -16.5499 -16.1383  -6.5170  -5.9807
    -5.4424  -4.6474  -4.3561  -3.5660  -0.6142   2.5566   2.9034   3.2691
     3.3904   5.0653   5.6078   6.3498   6.8042   6.9630   7.6863   7.8827
     8.4588   8.6750

          k = 0.4500 0.2598 0.0000 ( 10004 PWs)   bands (ev):

   -49.2292 -27.4847 -27.3970 -27.1831 -16.5415 -16.1249  -6.5563  -6.0179
    -5.4304  -4.6589  -4.3579  -3.5737  -0.6158   2.5821   2.9662   3.2842
     3.4519   5.0937   5.5767   6.4121   6.8767   7.1571   7.7267   7.9301
     8.4396   8.6199

          k = 0.4667 0.2694 0.0000 ( 10006 PWs)   bands (ev):

   -49.2287 -27.4898 -27.3955 -27.1843 -16.5355 -16.1150  -6.5848  -6.0446
    -5.4218  -4.6673  -4.3591  -3.5792  -0.6165   2.5985   3.0160   3.2937
     3.4990   5.1178   5.5461   6.4457   6.9615   7.3558   7.7286   7.9437
     8.3693   8.6448

          k = 0.4833 0.2791 0.0000 ( 10002 PWs)   bands (ev):

   -49.2284 -27.4929 -27.3946 -27.1850 -16.5320 -16.1090  -6.6021  -6.0606
    -5.4166  -4.6723  -4.3597  -3.5825  -0.6167   2.6077   3.0479   3.2990
     3.5285   5.1349   5.5231   6.4613   7.0331   7.5337   7.7128   7.9319
     8.2484   8.7002

          k = 0.5000 0.2887 0.0000 ( 10014 PWs)   bands (ev):

   -49.2283 -27.4939 -27.3943 -27.1852 -16.5308 -16.1070  -6.6079  -6.0660
    -5.4149  -4.6740  -4.3599  -3.5837  -0.6167   2.6107   3.0588   3.3008
     3.5385   5.1412   5.5144   6.4659   7.0617   7.6205   7.7040   7.9185
     8.1799   8.7209

          k = 0.4944 0.2983 0.0000 ( 10008 PWs)   bands (ev):

   -49.2283 -27.4938 -27.3943 -27.1855 -16.5306 -16.1068  -6.6067  -6.0658
    -5.4147  -4.6758  -4.3598  -3.5879  -0.6141   2.6130   3.0579   3.2989
     3.5364   5.1437   5.5195   6.4702   7.0631   7.6220   7.7053   7.9197
     8.1812   8.7203

          k = 0.4889 0.3079 0.0000 ( 10018 PWs)   bands (ev):

   -49.2283 -27.4933 -27.3942 -27.1864 -16.5302 -16.1061  -6.6030  -6.0652
    -5.4140  -4.6810  -4.3595  -3.6007  -0.6062   2.6199   3.0551   3.2934
     3.5303   5.1511   5.5350   6.4832   7.0671   7.6263   7.7091   7.9234
     8.1850   8.7173

          k = 0.4833 0.3175 0.0000 ( 10018 PWs)   bands (ev):

   -49.2282 -27.4926 -27.3941 -27.1880 -16.5295 -16.1051  -6.5969  -6.0641
    -5.4129  -4.6895  -4.3591  -3.6216  -0.5932   2.6310   3.0504   3.2842
     3.5210   5.1625   5.5610   6.5046   7.0737   7.6336   7.7154   7.9295
     8.1912   8.7089

          k = 0.4778 0.3272 0.0000 ( 10014 PWs)   bands (ev):

   -49.2282 -27.4915 -27.3938 -27.1901 -16.5286 -16.1036  -6.5885  -6.0628
    -5.4114  -4.7011  -4.3587  -3.6505  -0.5753   2.6458   3.0440   3.2715
     3.5092   5.1770   5.5977   6.5342   7.0830   7.6438   7.7241   7.9378
     8.1996   8.6918

          k = 0.4722 0.3368 0.0000 ( 10022 PWs)   bands (ev):

   -49.2281 -27.4902 -27.3936 -27.1928 -16.5274 -16.1017  -6.5776  -6.0610
    -5.4095  -4.7155  -4.3585  -3.6867  -0.5527   2.6634   3.0359   3.2558
     3.4961   5.1937   5.6452   6.5717   7.0949   7.6567   7.7350   7.9481
     8.2097   8.6648

          k = 0.4667 0.3464 0.0000 ( 10024 PWs)   bands (ev):

   -49.2280 -27.4886 -27.3932 -27.1960 -16.5259 -16.0994  -6.5644  -6.0590
    -5.4073  -4.7323  -4.3588  -3.7298  -0.5257   2.6824   3.0267   3.2377
     3.4825   5.2119   5.7031   6.6166   7.1093   7.6724   7.7481   7.9599
     8.2209   8.6292

          k = 0.4611 0.3560 0.0000 ( 10022 PWs)   bands (ev):

   -49.2278 -27.4867 -27.3928 -27.1999 -16.5242 -16.0967  -6.5489  -6.0567
    -5.4046  -4.7511  -4.3596  -3.7789  -0.4947   2.7010   3.0168   3.2184
     3.4691   5.2313   5.7706   6.6682   7.1262   7.6904   7.7629   7.9727
     8.2321   8.5889

          k = 0.4556 0.3657 0.0000 ( 10026 PWs)   bands (ev):

   -49.2277 -27.4846 -27.3924 -27.2042 -16.5223 -16.0937  -6.5312  -6.0542
    -5.4017  -4.7717  -4.3611  -3.8335  -0.4601   2.7168   3.0068   3.2000
     3.4562   5.2516   5.8469   6.7260   7.1456   7.7102   7.7789   7.9855
     8.2420   8.5498

          k = 0.4500 0.3753 0.0000 ( 10024 PWs)   bands (ev):

   -49.2275 -27.4822 -27.3919 -27.2090 -16.5202 -16.0903  -6.5112  -6.0516
    -5.3986  -4.7937  -4.3635  -3.8927  -0.4220   2.7272   2.9964   3.1858
     3.4439   5.2731   5.9307   6.7891   7.1675   7.7300   7.7960   7.9972
     8.2491   8.5192

          k = 0.4444 0.3849 0.0000 ( 10040 PWs)   bands (ev):

   -49.2273 -27.4795 -27.3914 -27.2144 -16.5179 -16.0867  -6.4891  -6.0489
    -5.3952  -4.8167  -4.3671  -3.9557  -0.3809   2.7299   2.9841   3.1802
     3.4319   5.2958   6.0208   6.8565   7.1921   7.7454   7.8150   8.0072
     8.2540   8.5034

          k = 0.4389 0.3945 0.0000 ( 10036 PWs)   bands (ev):

   -49.2272 -27.4765 -27.3908 -27.2201 -16.5155 -16.0827  -6.4650  -6.0463
    -5.3917  -4.8405  -4.3720  -4.0214  -0.3372   2.7240   2.9675   3.1869
     3.4199   5.3200   6.1158   6.9268   7.2199   7.7486   7.8390   8.0170
     8.2606   8.5044

          k = 0.4333 0.4041 0.0000 ( 10040 PWs)   bands (ev):

   -49.2270 -27.4733 -27.3902 -27.2262 -16.5129 -16.0785  -6.4389  -6.0436
    -5.3880  -4.8646  -4.3789  -4.0887  -0.2911   2.7102   2.9456   3.2067
     3.4077   5.3457   6.2141   6.9984   7.2515   7.7328   7.8702   8.0307
     8.2738   8.5197

          k = 0.4278 0.4138 0.0000 ( 10036 PWs)   bands (ev):

   -49.2267 -27.4699 -27.3895 -27.2327 -16.5103 -16.0742  -6.4109  -6.0412
    -5.3843  -4.8890  -4.3888  -4.1557  -0.2429   2.6901   2.9192   3.2370
     3.3953   5.3732   6.3140   7.0688   7.2885   7.6987   7.9082   8.0518
     8.2959   8.5456

          k = 0.4222 0.4234 0.0000 ( 10034 PWs)   bands (ev):

   -49.2265 -27.4662 -27.3889 -27.2396 -16.5075 -16.0696  -6.3812  -6.0389
    -5.3806  -4.9133  -4.4038  -4.2196  -0.1931   2.6654   2.8902   3.2738
     3.3835   5.4024   6.4132   7.1345   7.3329   7.6524   7.9519   8.0814
     8.3265   8.5791

          k = 0.4167 0.4330 0.0000 ( 10038 PWs)   bands (ev):

   -49.2263 -27.4624 -27.3882 -27.2467 -16.5047 -16.0649  -6.3499  -6.0368
    -5.3768  -4.9374  -4.4282  -4.2753  -0.1419   2.6376   2.8601   3.3092
     3.3772   5.4332   6.5089   7.1925   7.3867   7.6019   8.0003   8.1185
     8.3644   8.6182

          k = 0.4111 0.4426 0.0000 ( 10034 PWs)   bands (ev):

   -49.2261 -27.4583 -27.3875 -27.2540 -16.5019 -16.0602  -6.3173  -6.0350
    -5.3732  -4.9613  -4.4675  -4.3165  -0.0898   2.6079   2.8299   3.3225
     3.3947   5.4657   6.5968   7.2420   7.4484   7.5561   8.0531   8.1623
     8.4084   8.6617

          k = 0.4056 0.4523 0.0000 ( 10034 PWs)   bands (ev):

   -49.2259 -27.4540 -27.3869 -27.2615 -16.4991 -16.0554  -6.2835  -6.0333
    -5.3696  -4.9849  -4.5211  -4.3430  -0.0371   2.5772   2.8004   3.3122
     3.4361   5.4997   6.6710   7.2856   7.4947   7.5430   8.1093   8.2123
     8.4576   8.7087

          k = 0.4000 0.4619 0.0000 ( 10034 PWs)   bands (ev):

   -49.2256 -27.4496 -27.3862 -27.2692 -16.4963 -16.0506  -6.2490  -6.0316
    -5.3661  -5.0085  -4.5824  -4.3602   0.0156   2.5465   2.7722   3.2945
     3.4838   5.5350   6.7238   7.3282   7.4863   7.6053   8.1678   8.2687
     8.5117   8.7584

          k = 0.3944 0.4715 0.0000 ( 10036 PWs)   bands (ev):

   -49.2254 -27.4451 -27.3855 -27.2769 -16.4935 -16.0459  -6.2143  -6.0296
    -5.3628  -5.0325  -4.6456  -4.3728   0.0679   2.5164   2.7456   3.2740
     3.5323   5.5713   6.7491   7.3737   7.4887   7.6797   8.2272   8.3317
     8.5703   8.8102

          k = 0.3889 0.4811 0.0000 ( 10028 PWs)   bands (ev):

   -49.2252 -27.4404 -27.3849 -27.2846 -16.4909 -16.0413  -6.1803  -6.0266
    -5.3596  -5.0573  -4.7072  -4.3831   0.1192   2.4877   2.7209   3.2520
     3.5799   5.6085   6.7460   7.4193   7.5174   7.7544   8.2866   8.4009
     8.6330   8.8635

          k = 0.3833 0.4907 0.0000 ( 10022 PWs)   bands (ev):

   -49.2250 -27.4357 -27.3842 -27.2922 -16.4884 -16.0369  -6.1485  -6.0213
    -5.3567  -5.0839  -4.7645  -4.3921   0.1688   2.4608   2.6984   3.2290
     3.6252   5.6461   6.7204   7.4559   7.5776   7.8274   8.3452   8.4754
     8.6998   8.9175

          k = 0.3778 0.5004 0.0000 ( 10032 PWs)   bands (ev):

   -49.2248 -27.4310 -27.3837 -27.2998 -16.4860 -16.0327  -6.1215  -6.0114
    -5.3540  -5.1131  -4.8155  -4.4001   0.2161   2.4365   2.6780   3.2056
     3.6675   5.6837   6.6802   7.4851   7.6607   7.8976   8.4026   8.5533
     8.7703   8.9717

          k = 0.3722 0.5100 0.0000 ( 10034 PWs)   bands (ev):

   -49.2246 -27.4263 -27.3831 -27.3070 -16.4838 -16.0288  -6.1022  -5.9945
    -5.3515  -5.1455  -4.8586  -4.4074   0.2602   2.4152   2.6600   3.1823
     3.7062   5.7209   6.6323   7.5115   7.7557   7.9642   8.4586   8.6328
     8.8442   9.0251

          k = 0.3667 0.5196 0.0000 ( 10034 PWs)   bands (ev):

   -49.2245 -27.4217 -27.3826 -27.3139 -16.4818 -16.0253  -6.0911  -5.9705
    -5.3495  -5.1807  -4.8932  -4.4139   0.3003   2.3975   2.6443   3.1595
     3.7405   5.7569   6.5818   7.5364   7.8565   8.0266   8.5125   8.7119
     8.9211   9.0763

          k = 0.3611 0.5292 0.0000 ( 10034 PWs)   bands (ev):

   -49.2243 -27.4173 -27.3822 -27.3203 -16.4801 -16.0221  -6.0860  -5.9424
    -5.3481  -5.2171  -4.9196  -4.4197   0.3357   2.3837   2.6309   3.1378
     3.7702   5.7909   6.5326   7.5599   7.9595   8.0840   8.5636   8.7883
     9.0005   9.1206

          k = 0.3556 0.5389 0.0000 ( 10038 PWs)   bands (ev):

   -49.2242 -27.4133 -27.3818 -27.3261 -16.4786 -16.0194  -6.0842  -5.9138
    -5.3478  -5.2520  -4.9388  -4.4247   0.3657   2.3738   2.6200   3.1180
     3.7948   5.8218   6.4875   7.5812   8.0620   8.1350   8.6108   8.8597
     9.0807   9.1351

          k = 0.3500 0.5485 0.0000 ( 10050 PWs)   bands (ev):

   -49.2241 -27.4098 -27.3815 -27.3310 -16.4774 -16.0172  -6.0840  -5.8878
    -5.3492  -5.2818  -4.9522  -4.4287   0.3896   2.3677   2.6115   3.1007
     3.8140   5.8480   6.4493   7.5998   8.1605   8.1787   8.6530   8.9227
     9.0732   9.1683

          k = 0.3444 0.5581 0.0000 ( 10050 PWs)   bands (ev):

   -49.2240 -27.4071 -27.3813 -27.3347 -16.4765 -16.0156  -6.0845  -5.8669
    -5.3535  -5.3025  -4.9609  -4.4317   0.4068   2.3647   2.6053   3.0871
     3.8278   5.8681   6.4202   7.6146   8.2111   8.2522   8.6880   8.9655
     8.9927   9.2522

          k = 0.3389 0.5677 0.0000 ( 10050 PWs)   bands (ev):

   -49.2240 -27.4054 -27.3811 -27.3370 -16.4760 -16.0146  -6.0850  -5.8535
    -5.3593  -5.3128  -4.9657  -4.4336   0.4172   2.3640   2.6017   3.0780
     3.8360   5.8805   6.4022   7.6244   8.2326   8.3243   8.7096   8.9034
     9.0107   9.3373

          k = 0.3333 0.5774 0.0000 ( 10062 PWs)   bands (ev):

   -49.2240 -27.4049 -27.3811 -27.3379 -16.4758 -16.0142  -6.0853  -5.8489
    -5.3621  -5.3156  -4.9672  -4.4342   0.4206   2.3641   2.6004   3.0747
     3.8387   5.8846   6.3962   7.6280   8.2402   8.3553   8.7124   8.8744
     9.0218   9.4123

          k = 0.3222 0.5581 0.0000 ( 10048 PWs)   bands (ev):

   -49.2240 -27.4069 -27.3813 -27.3349 -16.4766 -16.0157  -6.0839  -5.8650
    -5.3541  -5.3037  -4.9614  -4.4315   0.4075   2.3603   2.6052   3.0898
     3.8282   5.8711   6.4171   7.6107   8.1921   8.2475   8.7531   8.9332
     8.9899   9.1407

          k = 0.3111 0.5389 0.0000 ( 10038 PWs)   bands (ev):

   -49.2242 -27.4116 -27.3819 -27.3272 -16.4791 -16.0203  -6.0794  -5.9014
    -5.3497  -5.2608  -4.9437  -4.4227   0.3709   2.3420   2.6186   3.1377
     3.7978   5.8418   6.4667   7.5518   7.9595   8.1590   8.7381   8.8462
     8.9390   9.1371

          k = 0.3000 0.5196 0.0000 ( 10036 PWs)   bands (ev):

   -49.2246 -27.4170 -27.3830 -27.3169 -16.4834 -16.0284  -6.0736  -5.9382
    -5.3546  -5.2021  -4.9109  -4.4075   0.3160   2.3049   2.6378   3.2148
     3.7501   5.8109   6.5246   7.4444   7.6933   8.0678   8.4584   8.7944
     8.9379   9.3193

          k = 0.2889 0.5004 0.0000 ( 10036 PWs)   bands (ev):

   -49.2251 -27.4216 -27.3846 -27.3050 -16.4898 -16.0400  -6.0728  -5.9575
    -5.3650  -5.1473  -4.8590  -4.3857   0.2485   2.2509   2.6607   3.3093
     3.6880   5.7859   6.5673   7.2910   7.4509   7.9738   8.1651   8.7052
     8.9509   9.4796

          k = 0.2778 0.4811 0.0000 ( 10022 PWs)   bands (ev):

   -49.2258 -27.4246 -27.3868 -27.2924 -16.4983 -16.0552  -6.0816  -5.9481
    -5.3799  -5.1046  -4.7875  -4.3568   0.1739   2.1845   2.6853   3.4057
     3.6147   5.7692   6.5552   7.1117   7.2656   7.8635   7.9128   8.5749
     8.9501   9.3212

          k = 0.2667 0.4619 0.0000 ( 10034 PWs)   bands (ev):

   -49.2267 -27.4256 -27.3894 -27.2795 -16.5090 -16.0741  -6.0915  -5.9151
    -5.3991  -5.0727  -4.7027  -4.3206   0.0967   2.1097   2.7100   3.4871
     3.5346   5.7597   6.4445   6.9237   7.1639   7.6441   7.8193   8.4123
     8.9324   9.1154

          k = 0.2556 0.4426 0.0000 ( 10030 PWs)   bands (ev):

   -49.2278 -27.4244 -27.3926 -27.2664 -16.5220 -16.0963  -6.0934  -5.8657
    -5.4226  -5.0467  -4.6132  -4.2758   0.0207   2.0301   2.7325   3.4446
     3.5470   5.7543   6.2562   6.7230   7.0810   7.5096   7.7530   8.2374
     8.8447   8.9891

          k = 0.2444 0.4234 0.0000 ( 10024 PWs)   bands (ev):

   -49.2290 -27.4209 -27.3963 -27.2534 -16.5375 -16.1216  -6.0830  -5.8032
    -5.4507  -5.0227  -4.5269  -4.2208  -0.0510   1.9484   2.7503   3.3565
     3.5669   5.7470   6.0445   6.5167   6.9161   7.5114   7.7028   8.0725
     8.6840   8.9612

          k = 0.2333 0.4041 0.0000 ( 10024 PWs)   bands (ev):

   -49.2304 -27.4150 -27.4004 -27.2406 -16.5555 -16.1495  -6.0592  -5.7290
    -5.4834  -4.9980  -4.4496  -4.1539  -0.1159   1.8669   2.7601   3.2697
     3.5460   5.7130   5.8558   6.3116   6.7117   7.5097   7.7018   7.9441
     8.5551   8.9495

          k = 0.2222 0.3849 0.0000 (  9998 PWs)   bands (ev):

   -49.2319 -27.4082 -27.4034 -27.2281 -16.5762 -16.1796  -6.0215  -5.6441
    -5.5205  -4.9707  -4.3844  -4.0754  -0.1721   1.7875   2.7578   3.1882
     3.4845   5.5709   5.7731   6.1129   6.5106   7.4122   7.7335   7.8682
     8.5122   8.9441

          k = 0.2111 0.3657 0.0000 ( 10010 PWs)   bands (ev):

   -49.2336 -27.4111 -27.3949 -27.2160 -16.5996 -16.2113  -5.9707  -5.5671
    -5.5438  -4.9396  -4.3306  -3.9885  -0.2184   1.7118   2.7396   3.1151
     3.3884   5.3810   5.7213   5.9276   6.3321   7.2660   7.7225   7.8201
     8.5641   8.9657

          k = 0.2000 0.3464 0.0000 ( 10016 PWs)   bands (ev):

   -49.2354 -27.4165 -27.3820 -27.2043 -16.6258 -16.2438  -5.9079  -5.6092
    -5.4423  -4.9039  -4.2856  -3.8974  -0.2537   1.6411   2.7033   3.0494
     3.2689   5.1923   5.6234   5.7673   6.1914   7.1035   7.6487   7.8132
     8.6009   9.0587

          k = 0.1889 0.3272 0.0000 ( 10014 PWs)   bands (ev):

   -49.2373 -27.4224 -27.3670 -27.1932 -16.6547 -16.2765  -5.8369  -5.6555
    -5.3290  -4.8629  -4.2471  -3.8058  -0.2778   1.5766   2.6511   2.9789
     3.1458   5.0092   5.4739   5.6223   6.0926   6.9380   7.5504   7.8384
     8.5453   8.9374

          k = 0.1778 0.3079 0.0000 ( 10000 PWs)   bands (ev):

   -49.2394 -27.4286 -27.3500 -27.1825 -16.6862 -16.3089  -5.7796  -5.6816
    -5.2088  -4.8158  -4.2132  -3.7166  -0.2907   1.5190   2.5883   2.8753
     3.0513   4.8314   5.3078   5.4674   6.0172   6.7753   7.4627   7.8757
     8.4299   8.8026

          k = 0.1667 0.2887 0.0000 ( 10000 PWs)   bands (ev):

   -49.2414 -27.4350 -27.3315 -27.1725 -16.7202 -16.3402  -5.8014  -5.6227
    -5.0842  -4.7616  -4.1823  -3.6314  -0.2929   1.4692   2.5205   2.7365
     2.9902   4.6579   5.1425   5.3035   5.9405   6.6176   7.3998   7.9087
     8.2899   8.6684

          k = 0.1556 0.2694 0.0000 (  9988 PWs)   bands (ev):

   -49.2436 -27.4415 -27.3118 -27.1630 -16.7561 -16.3701  -5.8575  -5.5247
    -4.9595  -4.6985  -4.1529  -3.5513  -0.2855   1.4278   2.4506   2.5891
     2.9401   4.4880   4.9824   5.1370   5.8483   6.4662   7.3661   7.9089
     8.1472   8.5568

          k = 0.1444 0.2502 0.0000 (  9976 PWs)   bands (ev):

   -49.2457 -27.4481 -27.2911 -27.1542 -16.7936 -16.3983  -5.9202  -5.4161
    -4.8414  -4.6233  -4.1224  -3.4768  -0.2702   1.3952   2.3733   2.4553
     2.8903   4.3206   4.8292   4.9723   5.7372   6.3215   7.3569   7.8419
     8.0102   8.5086

          k = 0.1333 0.2309 0.0000 (  9980 PWs)   bands (ev):

   -49.2478 -27.4546 -27.2697 -27.1460 -16.8320 -16.4246  -5.9852  -5.3023
    -4.7379  -4.5335  -4.0870  -3.4080  -0.2488   1.3719   2.2672   2.3651
     2.8375   4.1545   4.6828   4.8124   5.6107   6.1837   7.3563   7.7080
     7.8866   8.5312

          k = 0.1222 0.2117 0.0000 ( 10000 PWs)   bands (ev):

   -49.2499 -27.4610 -27.2482 -27.1385 -16.8706 -16.4488  -6.0506  -5.1863
    -4.6515  -4.4356  -4.0395  -3.3449  -0.2239   1.3583   2.1473   2.3085
     2.7810   3.9882   4.5428   4.6603   5.4753   6.0527   7.3352   7.5229
     7.8193   8.5824

          k = 0.1111 0.1925 0.0000 ( 10002 PWs)   bands (ev):

   -49.2520 -27.4672 -27.2269 -27.1317 -16.9087 -16.4710  -6.1152  -5.0707
    -4.5777  -4.3466  -3.9695  -3.2870  -0.1978   1.3547   2.0355   2.2667
     2.7213   3.8205   4.4087   4.5190   5.3380   5.9280   7.2612   7.3200
     7.8322   8.6144

          k = 0.1000 0.1732 0.0000 ( 10007 PWs)   bands (ev):

   -49.2539 -27.4730 -27.2060 -27.1255 -16.9456 -16.4911  -6.1777  -4.9582
    -4.5118  -4.2809  -3.8700  -3.2341  -0.1731   1.3613   1.9371   2.2363
     2.6597   3.6504   4.2805   4.3909   5.2045   5.8093   7.0667   7.1982
     7.9073   8.6070

          k = 0.0889 0.1540 0.0000 ( 10019 PWs)   bands (ev):

   -49.2557 -27.4786 -27.1861 -27.1200 -16.9806 -16.5090  -6.2370  -4.8518
    -4.4512  -4.2383  -3.7463  -3.1859  -0.1517   1.3777   1.8530   2.2168
     2.5977   3.4783   4.1600   4.2767   5.0790   5.6958   6.8432   7.0987
     8.0202   8.5729

          k = 0.0778 0.1347 0.0000 ( 10019 PWs)   bands (ev):

   -49.2573 -27.4836 -27.1676 -27.1152 -17.0130 -16.5249  -6.2920  -4.7541
    -4.3947  -4.2112  -3.6104  -3.1420  -0.1350   1.4028   1.7831   2.2080
     2.5371   3.3066   4.0494   4.1759   4.9646   5.5865   6.6290   7.0038
     8.1556   8.5297

          k = 0.0667 0.1155 0.0000 ( 10027 PWs)   bands (ev):

   -49.2588 -27.4882 -27.1506 -27.1110 -17.0424 -16.5387  -6.3419  -4.6683
    -4.3417  -4.1929  -3.4728  -3.1028  -0.1233   1.4347   1.7264   2.2092
     2.4797   3.1391   3.9508   4.0874   4.8631   5.4811   6.4339   6.9171
     8.2988   8.4937

          k = 0.0556 0.0962 0.0000 ( 10027 PWs)   bands (ev):

   -49.2601 -27.4921 -27.1357 -27.1075 -17.0680 -16.5505  -6.3856  -4.5965
    -4.2922  -4.1796  -3.3415  -3.0684  -0.1164   1.4707   1.6816   2.2192
     2.4273   2.9814   3.8651   4.0108   4.7756   5.3797   6.2650   6.8410
     8.3832   8.5312

          k = 0.0444 0.0770 0.0000 ( 10047 PWs)   bands (ev):

   -49.2612 -27.4954 -27.1230 -27.1046 -17.0897 -16.5601  -6.4224  -4.5400
    -4.2470  -4.1695  -3.2232  -3.0392  -0.1133   1.5074   1.6473   2.2357
     2.3817   2.8398   3.7930   3.9462   4.7029   5.2848   6.1269   6.7770
     8.3673   8.6818

          k = 0.0333 0.0577 0.0000 ( 10039 PWs)   bands (ev):

   -49.2621 -27.4981 -27.1129 -27.1024 -17.1069 -16.5676  -6.4518  -4.4985
    -4.2079  -4.1617  -3.1237  -3.0159  -0.1127   1.5411   1.6221   2.2556
     2.3443   2.7208   3.7348   3.8942   4.6457   5.2010   6.0215   6.7260
     8.3399   8.8533

          k = 0.0222 0.0385 0.0000 ( 10039 PWs)   bands (ev):

   -49.2627 -27.5000 -27.1055 -27.1008 -17.1193 -16.5729  -6.4731  -4.4708
    -4.1774  -4.1560  -3.0482  -2.9988  -0.1133   1.5681   1.6050   2.2747
     2.3166   2.6306   3.6916   3.8558   4.6044   5.1346   5.9483   6.6891
     8.3177   9.0227

          k = 0.0111 0.0192 0.0000 ( 10035 PWs)   bands (ev):

   -49.2631 -27.5011 -27.1011 -27.0999 -17.1269 -16.5762  -6.4860  -4.4550
    -4.1579  -4.1524  -3.0009  -2.9884  -0.1142   1.5857   1.5950   2.2886
     2.2995   2.5741   3.6648   3.8322   4.5794   5.0917   5.9054   6.6666
     8.3038   9.1744

          k = 0.0000 0.0000 0.0000 ( 10045 PWs)   bands (ev):

   -49.2632 -27.5015 -27.0996 -27.0996 -17.1294 -16.5772  -6.4904  -4.4499
    -4.1512  -4.1512  -2.9849  -2.9849  -0.1146   1.5917   1.5917   2.2937
     2.2937   2.5549   3.6557   3.8242   4.5710   5.0769   5.8913   6.6591
     8.2990   9.2568

     Writing all to output data dir ./out/ZrClBr.save/

     init_run     :      0.25s CPU      0.28s WALL (       1 calls)
     electrons    :     22.02s CPU     22.37s WALL (       1 calls)

     Called by init_run:
     wfcinit      :      0.00s CPU      0.00s WALL (       1 calls)
     potinit      :      0.07s CPU      0.09s WALL (       1 calls)
     hinit0       :      0.12s CPU      0.13s WALL (       1 calls)

     Called by electrons:
     c_bands      :     22.01s CPU     22.37s WALL (       1 calls)
     v_of_rho     :      0.01s CPU      0.01s WALL (       1 calls)
     newd         :      0.02s CPU      0.03s WALL (       1 calls)
     PAW_pot      :      0.07s CPU      0.08s WALL (       1 calls)

     Called by c_bands:
     init_us_2    :      0.01s CPU      0.01s WALL (      91 calls)
     init_us_2:cp :      0.01s CPU      0.01s WALL (      91 calls)
     cegterg      :     21.01s CPU     21.28s WALL (     213 calls)

     Called by *egterg:
     cdiaghg      :      3.44s CPU      3.46s WALL (    3560 calls)
     h_psi        :     10.61s CPU     10.82s WALL (    3773 calls)
     s_psi        :      0.80s CPU      0.81s WALL (    3773 calls)
     g_psi        :      0.05s CPU      0.05s WALL (    3469 calls)

     Called by h_psi:
     h_psi:calbec :      1.47s CPU      1.50s WALL (    3773 calls)
     vloc_psi     :      8.30s CPU      8.48s WALL (    3773 calls)
     add_vuspsi   :      0.81s CPU      0.82s WALL (    3773 calls)

     General routines
     calbec       :      1.47s CPU      1.50s WALL (    3773 calls)
     fft          :      0.00s CPU      0.00s WALL (      12 calls)
     fftw         :      7.83s CPU      8.00s WALL (   89676 calls)
     davcio       :      0.01s CPU      0.08s WALL (     182 calls)

     Parallel routines

     PWSCF        :     23.14s CPU     24.09s WALL


   This run was terminated on:  16:47: 4   7Aug2026            

=------------------------------------------------------------------------------=
   JOB DONE.
=------------------------------------------------------------------------------=
