
     Program PWSCF v.7.2 starts on 28Aug2026 at  9:16:22 

     This program is part of the open-source Quantum ESPRESSO suite
     for quantum simulation of materials; please cite
         "P. Giannozzi et al., J. Phys.:Condens. Matter 21 395502 (2009);
         "P. Giannozzi et al., J. Phys.:Condens. Matter 29 465901 (2017);
         "P. Giannozzi et al., J. Chem. Phys. 152 154105 (2020);
          URL http://www.quantum-espresso.org", 
     in publications or presentations arising from this work. More details at
     http://www.quantum-espresso.org/quote

     Parallel version (MPI), running on    32 processors

     MPI processes distributed on     1 nodes
     98979 MiB available memory on the printing compute node when the environment starts

     Waiting for input...
     Reading input from standard input

     Current dimensions of program PWSCF are:
     Max number of different atomic species (ntypx) = 10
     Max number of k-points (npk) =  40000
     Max angular momentum in pseudopotentials (lmaxx) =  4
     file Zr.pbe-spn-kjpaw_psl.1.0.0.UPF: wavefunction(s)  4S 4P renormalized
     file F.pbe-n-kjpaw_psl.1.0.0.UPF: wavefunction(s)  2S 2P renormalized
     file Br.pbe-n-kjpaw_psl.1.0.0.UPF: wavefunction(s)  4S 4P renormalized
     Message from routine setup:
     using ibrav=0 with symmetry is DISCOURAGED, use correct ibrav instead

     R & G space division:  proc/nbgrp/npool/nimage =      32
     Subspace diagonalization in iterative solution of the eigenvalue problem:
     a serial algorithm will be used


     Parallelization info
     --------------------
     sticks:   dense  smooth     PW     G-vecs:    dense   smooth      PW
     Min          22      22      6                 1442     1442     224
     Max          23      23      7                 1450     1450     239
     Sum         721     721    211                46261    46261    7331

     Using Slab Decomposition



     bravais-lattice index     =            0
     lattice parameter (alat)  =       6.3200  a.u.
     unit-cell volume          =     653.6869 (a.u.)^3
     number of atoms/cell      =            3
     number of atomic types    =            3
     number of electrons       =        26.00
     number of Kohn-Sham states=           26
     kinetic-energy cutoff     =      65.0000  Ry
     charge density cutoff     =     260.0000  Ry
     scf convergence threshold =      1.0E-06
     mixing beta               =       0.7000
     number of iterations used =            8  plain     mixing
     Exchange-correlation= SLA  PW   PBX  PBC
                           (   1   4   3   4   0   0   0)

     celldm(1)=   6.320045  celldm(2)=   0.000000  celldm(3)=   0.000000
     celldm(4)=   0.000000  celldm(5)=   0.000000  celldm(6)=   0.000000

     crystal axes: (cart. coord. in units of alat)
               a(1) = (   1.000000  -0.000000  -0.000000 )  
               a(2) = (  -0.500000   0.866025  -0.000000 )  
               a(3) = (   0.000000   0.000000   2.990052 )  

     reciprocal axes: (cart. coord. in units 2 pi/alat)
               b(1) = (  1.000000  0.577350 -0.000000 )  
               b(2) = (  0.000000  1.154701 -0.000000 )  
               b(3) = (  0.000000  0.000000  0.334442 )  


     PseudoPot. # 1 for Zr read from file:
     /mgpfs/home/rabdillah/repo/qe/pseudo/Zr.pbe-spn-kjpaw_psl.1.0.0.UPF
     MD5 check sum: 02112c41713a0468aff2bb39ef194e36
     Pseudo is Projector augmented-wave + core cor, Zval = 12.0
     Generated using &quot;atomic&quot; code by A. Dal Corso  v.6.2.2
     Shape of augmentation charge: PSQ
     Using radial grid of 1225 points,  6 beta functions with: 
                l(1) =   0
                l(2) =   0
                l(3) =   1
                l(4) =   1
                l(5) =   2
                l(6) =   2
     Q(r) pseudized with 0 coefficients 


     PseudoPot. # 2 for F  read from file:
     /mgpfs/home/rabdillah/repo/qe/pseudo/F.pbe-n-kjpaw_psl.1.0.0.UPF
     MD5 check sum: 66d718ea72839a4268ab2a9540e8cdd4
     Pseudo is Projector augmented-wave + core cor, Zval =  7.0
     Generated using &quot;atomic&quot; code by A. Dal Corso  v.6.3
     Shape of augmentation charge: PSQ
     Using radial grid of 1105 points,  4 beta functions with: 
                l(1) =   0
                l(2) =   0
                l(3) =   1
                l(4) =   1
     Q(r) pseudized with 0 coefficients 


     PseudoPot. # 3 for Br read from file:
     /mgpfs/home/rabdillah/repo/qe/pseudo/Br.pbe-n-kjpaw_psl.1.0.0.UPF
     MD5 check sum: b00de77caabc69c0a6b76eb37264f235
     Pseudo is Projector augmented-wave + core cor, Zval =  7.0
     Generated using &quot;atomic&quot; code by A. Dal Corso  v.6.3
     Shape of augmentation charge: PSQ
     Using radial grid of 1213 points,  4 beta functions with: 
                l(1) =   0
                l(2) =   0
                l(3) =   1
                l(4) =   1
     Q(r) pseudized with 0 coefficients 


     atomic species   valence    mass     pseudopotential
        Zr            12.00    91.22400     Zr( 1.00)
        F              7.00    18.99800     F ( 1.00)
        Br             7.00    79.90400     Br( 1.00)

      6 Sym. Ops. (no inversion) found



   Cartesian axes

     site n.     atom                  positions (alat units)
         1           Zr  tau(   1) = (   0.0000000   0.0000000   3.0210788  )
         2           F   tau(   2) = (  -0.0000000   0.5773503   3.4105834  )
         3           Br  tau(   3) = (  -0.0000000   0.5773503   2.4542273  )

     number of k points=  5590

     Number of k-points >= 100: set verbosity='high' to print them.

     Dense  grid:    46261 G-vectors     FFT dimensions: (  36,  36, 100)

     Estimated max dynamical RAM per process >     408.40 MB

     Estimated total dynamical RAM >      12.76 GB

     Check: negative core charge=   -0.000002

     Initial potential from superposition of free atoms

     starting charge      25.9978, renormalised to      26.0000

     negative rho (up, down):  4.247E-07 0.000E+00
     Starting wfcs are   21 randomized atomic wfcs +    5 random wfcs
     Checking if some PAW data can be deallocated... 

     total cpu time spent up to now is       63.5 secs

     Self-consistent Calculation

     iteration #  1     ecut=    65.00 Ry     beta= 0.70
     Davidson diagonalization with overlap
     ethr =  1.00E-02,  avg # of iterations =  5.8

     Threshold (ethr) on eigenvalues was too large:
     Diagonalizing with lowered threshold

     Davidson diagonalization with overlap
     ethr =  9.55E-04,  avg # of iterations =  1.0

     negative rho (up, down):  2.558E-05 0.000E+00

     total cpu time spent up to now is      515.8 secs

     total energy              =    -571.11627327 Ry
     estimated scf accuracy    <       0.24989658 Ry

     iteration #  2     ecut=    65.00 Ry     beta= 0.70
     Davidson diagonalization with overlap
     ethr =  9.61E-04,  avg # of iterations =  3.7

     negative rho (up, down):  1.651E-06 0.000E+00

     total cpu time spent up to now is      804.1 secs

     total energy              =    -571.10618000 Ry
     estimated scf accuracy    <       0.59951441 Ry

     iteration #  3     ecut=    65.00 Ry     beta= 0.70
     Davidson diagonalization with overlap
     ethr =  9.61E-04,  avg # of iterations =  2.4

     negative rho (up, down):  4.614E-06 0.000E+00

     total cpu time spent up to now is      997.0 secs

     total energy              =    -571.22897618 Ry
     estimated scf accuracy    <       0.02409856 Ry

     iteration #  4     ecut=    65.00 Ry     beta= 0.70
     Davidson diagonalization with overlap
     ethr =  9.27E-05,  avg # of iterations =  3.0

     negative rho (up, down):  1.321E-05 0.000E+00

     total cpu time spent up to now is     1111.2 secs

     total energy              =    -571.23364070 Ry
     estimated scf accuracy    <       0.00356718 Ry

     iteration #  5     ecut=    65.00 Ry     beta= 0.70
     Davidson diagonalization with overlap
     ethr =  1.37E-05,  avg # of iterations =  5.0

     negative rho (up, down):  2.430E-05 0.000E+00

     total cpu time spent up to now is     1252.0 secs

     total energy              =    -571.23435050 Ry
     estimated scf accuracy    <       0.00125559 Ry

     iteration #  6     ecut=    65.00 Ry     beta= 0.70
     Davidson diagonalization with overlap
     ethr =  4.83E-06,  avg # of iterations =  2.6

     negative rho (up, down):  2.859E-05 0.000E+00

     total cpu time spent up to now is     1451.0 secs

     total energy              =    -571.23459719 Ry
     estimated scf accuracy    <       0.00001555 Ry

     iteration #  7     ecut=    65.00 Ry     beta= 0.70
     Davidson diagonalization with overlap
     ethr =  5.98E-08,  avg # of iterations =  2.1

     negative rho (up, down):  3.004E-05 0.000E+00

     total cpu time spent up to now is     1675.2 secs

     End of self-consistent calculation

     Number of k-points >= 100: set verbosity='high' to print the bands.

     highest occupied, lowest unoccupied level (ev):     4.3671    5.5612

!    total energy              =    -571.23460157 Ry
     total all-electron energy =    -12610.612013 Ry
     estimated scf accuracy    <       0.00000059 Ry

     The total energy is the sum of the following terms:
     one-electron contribution =    -278.96610840 Ry
     hartree contribution      =     148.01082565 Ry
     xc contribution           =     -36.35533279 Ry
     ewald contribution        =      -7.06850514 Ry
     one-center paw contrib.   =    -396.85548089 Ry

     convergence has been achieved in   7 iterations

     Writing all to output data dir ./out/ZrFBr.save/

     init_run     :     61.47s CPU     62.89s WALL (       1 calls)
     electrons    :   1579.23s CPU   1611.66s WALL (       1 calls)

     Called by init_run:
     wfcinit      :     61.12s CPU     62.51s WALL (       1 calls)
     potinit      :      0.13s CPU      0.14s WALL (       1 calls)
     hinit0       :      0.14s CPU      0.15s WALL (       1 calls)

     Called by electrons:
     c_bands      :   1417.40s CPU   1445.44s WALL (       8 calls)
     sum_band     :    161.33s CPU    165.61s WALL (       8 calls)
     v_of_rho     :      0.04s CPU      0.04s WALL (       8 calls)
     newd         :      0.06s CPU      0.07s WALL (       8 calls)
     PAW_pot      :      0.46s CPU      0.56s WALL (       8 calls)
     mix_rho      :      0.01s CPU      0.02s WALL (       8 calls)

     Called by c_bands:
     init_us_2    :      7.62s CPU      7.87s WALL (   95030 calls)
     init_us_2:cp :      7.47s CPU      7.74s WALL (   95030 calls)
     cegterg      :   1391.30s CPU   1418.05s WALL (   44720 calls)

     Called by *egterg:
     cdiaghg      :    196.62s CPU    198.79s WALL (  181970 calls)
     h_psi        :    842.69s CPU    864.44s WALL (  193150 calls)
     s_psi        :     39.75s CPU     40.36s WALL (  193150 calls)
     g_psi        :      1.42s CPU      1.44s WALL (  142840 calls)

     Called by h_psi:
     h_psi:calbec :     76.77s CPU     78.39s WALL (  193150 calls)
     vloc_psi     :    723.65s CPU    743.17s WALL (  193150 calls)
     add_vuspsi   :     40.05s CPU     40.63s WALL (  193150 calls)

     General routines
     calbec       :    103.36s CPU    105.57s WALL (  237870 calls)
     fft          :      0.04s CPU      0.04s WALL (      89 calls)
     ffts         :      0.00s CPU      0.00s WALL (       8 calls)
     fftw         :    801.75s CPU    823.45s WALL ( 7141886 calls)

     Parallel routines

     PWSCF        :  27m57.49s CPU  29m 6.96s WALL


   This run was terminated on:   9:45:29  28Aug2026            

=------------------------------------------------------------------------------=
   JOB DONE.
=------------------------------------------------------------------------------=
